*SPEF "ieee 1481-1999"
*DESIGN "i2c_master_controller_top"
*DATE "16:13:17 Monday April 13, 2026"
*VENDOR "The OpenROAD Project"
*PROGRAM "OpenROAD"
*VERSION "dcf36133a369abc8f3c5e5738cd4d82e4903c0e0"
*DESIGN_FLOW "NAME_SCOPE LOCAL" "PIN_CAP NONE"
*DIVIDER /
*DELIMITER :
*BUS_DELIMITER []
*T_UNIT 1 NS
*C_UNIT 1 PF
*R_UNIT 1 OHM
*L_UNIT 1 HENRY

*NAME_MAP
*3 i_byte_cnt_reg[0]
*4 i_byte_cnt_reg[1]
*5 i_byte_cnt_reg[2]
*6 i_byte_cnt_reg[3]
*7 i_byte_cnt_reg[4]
*8 i_byte_cnt_reg[5]
*9 i_byte_cnt_reg[6]
*10 i_byte_cnt_reg[7]
*11 i_clk
*12 i_clk_div_lsb[0]
*13 i_clk_div_lsb[1]
*14 i_clk_div_lsb[2]
*15 i_clk_div_lsb[3]
*16 i_clk_div_lsb[4]
*17 i_clk_div_lsb[5]
*18 i_clk_div_lsb[6]
*19 i_clk_div_lsb[7]
*20 i_config_reg[0]
*21 i_config_reg[1]
*22 i_config_reg[2]
*23 i_config_reg[3]
*24 i_config_reg[4]
*25 i_config_reg[5]
*26 i_mode_reg[0]
*27 i_mode_reg[1]
*28 i_mode_reg[2]
*29 i_mode_reg[3]
*30 i_mode_reg[4]
*31 i_mode_reg[5]
*32 i_mode_reg[6]
*33 i_mode_reg[7]
*34 i_rst_n
*35 i_slave_addr_reg[0]
*36 i_slave_addr_reg[1]
*37 i_slave_addr_reg[2]
*38 i_slave_addr_reg[3]
*39 i_slave_addr_reg[4]
*40 i_slave_addr_reg[5]
*41 i_slave_addr_reg[6]
*42 i_transmit_data[0]
*43 i_transmit_data[1]
*44 i_transmit_data[2]
*45 i_transmit_data[3]
*46 i_transmit_data[4]
*47 i_transmit_data[5]
*48 i_transmit_data[6]
*49 i_transmit_data[7]
*50 io_scl
*51 io_sda
*52 net130
*53 net131
*54 o_cmd_status_reg[2]
*55 o_cmd_status_reg[3]
*56 o_cmd_status_reg[4]
*57 o_cmd_status_reg[5]
*58 o_cmd_status_reg[6]
*59 o_cmd_status_reg[7]
*60 o_int_n
*61 o_receive_data[0]
*62 o_receive_data[1]
*63 o_receive_data[2]
*64 o_receive_data[3]
*65 o_receive_data[4]
*66 o_receive_data[5]
*67 o_receive_data[6]
*68 o_receive_data[7]
*69 o_received_data_valid
*70 o_start_ack
*71 o_transmit_data_request
*72 _0000_
*73 _0001_
*74 _0002_
*75 _0003_
*76 _0004_
*77 _0005_
*78 _0006_
*79 _0007_
*80 _0008_
*81 _0009_
*82 _0010_
*83 _0011_
*84 _0012_
*85 _0013_
*86 _0014_
*87 _0015_
*88 _0016_
*89 _0017_
*90 _0018_
*91 _0019_
*92 _0020_
*93 _0021_
*94 _0022_
*95 _0023_
*96 _0024_
*97 _0025_
*98 _0026_
*99 _0027_
*100 _0028_
*101 _0029_
*102 _0030_
*103 _0031_
*104 _0032_
*105 _0033_
*106 _0034_
*107 _0035_
*108 _0036_
*109 _0037_
*110 _0038_
*111 _0039_
*112 _0040_
*113 _0041_
*114 _0042_
*115 _0043_
*116 _0044_
*117 _0045_
*118 _0046_
*119 _0047_
*120 _0048_
*121 _0049_
*122 _0050_
*123 _0051_
*124 _0052_
*125 _0053_
*126 _0054_
*127 _0055_
*128 _0056_
*129 _0057_
*130 _0058_
*131 _0059_
*132 _0060_
*133 _0061_
*134 _0062_
*135 _0063_
*136 _0064_
*137 _0065_
*138 _0066_
*139 _0067_
*140 _0068_
*141 _0069_
*142 _0070_
*143 _0071_
*144 _0072_
*145 _0073_
*146 _0074_
*147 _0075_
*148 _0076_
*149 _0077_
*150 _0078_
*151 _0079_
*152 _0080_
*153 _0081_
*154 _0082_
*155 _0083_
*156 _0084_
*157 _0085_
*158 _0086_
*159 _0087_
*160 _0088_
*161 _0089_
*162 _0090_
*163 _0091_
*164 _0092_
*165 _0093_
*166 _0094_
*167 _0095_
*168 _0096_
*169 _0097_
*170 _0098_
*171 _0099_
*172 _0100_
*173 _0101_
*174 _0102_
*175 _0103_
*176 _0104_
*177 _0105_
*178 _0106_
*179 _0107_
*180 _0108_
*181 _0109_
*182 _0110_
*183 _0111_
*184 _0112_
*185 _0113_
*186 _0114_
*187 _0115_
*188 _0116_
*189 _0117_
*190 _0118_
*191 _0119_
*192 _0120_
*193 _0121_
*194 _0122_
*195 _0123_
*196 _0124_
*197 _0125_
*198 _0126_
*199 _0127_
*200 _0128_
*201 _0129_
*202 _0130_
*203 _0131_
*204 _0132_
*205 _0133_
*206 _0134_
*207 _0135_
*208 _0136_
*209 _0137_
*210 _0138_
*211 _0139_
*212 _0140_
*213 _0141_
*214 _0142_
*215 _0143_
*216 _0144_
*217 _0145_
*218 _0146_
*219 _0147_
*220 _0148_
*221 _0149_
*222 _0150_
*223 _0151_
*224 _0152_
*225 _0153_
*226 _0154_
*227 _0155_
*228 _0156_
*229 _0157_
*230 _0158_
*231 _0159_
*232 _0160_
*233 _0161_
*234 _0162_
*235 _0163_
*236 _0164_
*237 _0165_
*238 _0166_
*239 _0167_
*240 _0168_
*241 _0169_
*242 _0170_
*243 _0171_
*244 _0172_
*245 _0173_
*246 _0174_
*247 _0175_
*248 _0176_
*249 _0177_
*250 _0178_
*251 _0179_
*252 _0180_
*253 _0181_
*254 _0182_
*255 _0183_
*256 _0184_
*257 _0185_
*258 _0186_
*259 _0187_
*260 _0188_
*261 _0189_
*262 _0190_
*263 _0191_
*264 _0192_
*265 _0193_
*266 _0194_
*267 _0195_
*268 _0196_
*269 _0197_
*270 _0198_
*271 _0199_
*272 _0200_
*273 _0201_
*274 _0202_
*275 _0203_
*276 _0204_
*277 _0205_
*278 _0206_
*279 _0207_
*280 _0208_
*281 _0209_
*282 _0210_
*283 _0211_
*284 _0212_
*285 _0213_
*286 _0214_
*287 _0215_
*288 _0216_
*289 _0217_
*290 _0218_
*291 _0219_
*292 _0220_
*293 _0221_
*294 _0222_
*295 _0223_
*296 _0224_
*297 _0225_
*298 _0226_
*299 _0227_
*300 _0228_
*301 _0229_
*302 _0230_
*303 _0231_
*304 _0232_
*305 _0233_
*306 _0234_
*307 _0235_
*308 _0236_
*309 _0237_
*310 _0238_
*311 _0239_
*312 _0240_
*313 _0241_
*314 _0242_
*315 _0243_
*316 _0244_
*317 _0245_
*318 _0246_
*319 _0247_
*320 _0248_
*321 _0249_
*322 _0250_
*323 _0251_
*324 _0252_
*325 _0253_
*326 _0254_
*327 _0255_
*328 _0256_
*329 _0257_
*330 _0258_
*331 _0259_
*332 _0260_
*333 _0261_
*334 _0262_
*335 _0263_
*336 _0264_
*337 _0265_
*338 _0266_
*339 _0267_
*340 _0268_
*341 _0269_
*342 _0270_
*343 _0271_
*344 _0272_
*345 _0273_
*346 _0274_
*347 _0275_
*348 _0276_
*349 _0277_
*350 _0278_
*351 _0279_
*352 _0280_
*353 _0281_
*354 _0282_
*355 _0283_
*356 _0284_
*357 _0285_
*358 _0286_
*359 _0287_
*360 _0288_
*361 _0289_
*362 _0290_
*363 _0291_
*364 _0292_
*365 _0293_
*366 _0294_
*367 _0295_
*368 _0296_
*369 _0297_
*370 _0298_
*371 _0299_
*372 _0300_
*373 _0301_
*374 _0302_
*375 _0303_
*376 _0304_
*377 _0305_
*378 _0306_
*379 _0307_
*380 _0308_
*381 _0309_
*382 _0310_
*383 _0311_
*384 _0312_
*385 _0313_
*386 _0314_
*387 _0315_
*388 _0316_
*389 _0317_
*390 _0318_
*391 _0319_
*392 _0320_
*393 _0321_
*394 _0322_
*395 _0323_
*396 _0324_
*397 _0325_
*398 _0326_
*399 _0327_
*400 _0328_
*401 _0329_
*402 _0330_
*403 _0331_
*404 _0332_
*405 _0333_
*406 _0334_
*407 _0335_
*408 _0336_
*409 _0337_
*410 _0338_
*411 _0339_
*412 _0340_
*413 _0341_
*414 _0342_
*415 _0343_
*416 _0344_
*417 _0345_
*418 _0346_
*419 _0347_
*420 _0348_
*421 _0349_
*422 _0350_
*423 _0351_
*424 _0352_
*425 _0353_
*426 _0354_
*427 _0355_
*428 _0356_
*429 _0357_
*430 _0358_
*431 _0359_
*432 _0360_
*433 _0361_
*434 _0362_
*435 _0363_
*436 _0364_
*437 _0365_
*438 _0366_
*439 _0367_
*440 _0368_
*441 _0369_
*442 _0370_
*443 _0371_
*444 _0372_
*445 _0373_
*446 _0374_
*447 _0375_
*448 _0376_
*449 _0377_
*450 _0378_
*451 _0379_
*452 _0380_
*453 _0381_
*454 _0382_
*455 _0383_
*456 _0384_
*457 _0385_
*458 _0386_
*459 _0387_
*460 _0388_
*461 _0389_
*462 _0390_
*463 _0391_
*464 _0392_
*465 _0393_
*466 _0394_
*467 _0395_
*468 _0396_
*469 _0397_
*470 _0398_
*471 _0399_
*472 _0400_
*473 _0401_
*474 _0402_
*475 _0403_
*476 _0404_
*477 _0405_
*478 _0406_
*479 _0407_
*480 _0408_
*481 _0409_
*482 _0410_
*483 _0411_
*484 _0412_
*485 _0413_
*486 _0414_
*487 _0415_
*488 _0416_
*489 _0417_
*490 _0418_
*491 _0419_
*492 _0420_
*493 _0421_
*494 _0422_
*495 _0423_
*496 _0424_
*497 _0425_
*498 _0426_
*499 _0427_
*500 _0428_
*501 _0429_
*502 _0430_
*503 _0431_
*504 _0432_
*505 _0433_
*506 _0434_
*507 _0435_
*508 _0436_
*509 _0437_
*510 _0438_
*511 _0439_
*512 _0440_
*513 _0441_
*514 _0442_
*515 _0443_
*516 _0444_
*517 _0445_
*518 _0446_
*519 _0447_
*520 _0448_
*521 _0449_
*522 _0450_
*523 _0451_
*524 _0452_
*525 _0453_
*526 _0454_
*527 _0455_
*528 _0456_
*529 _0457_
*530 _0458_
*531 _0459_
*532 _0460_
*533 _0461_
*534 _0462_
*535 _0463_
*536 _0464_
*537 _0465_
*538 _0466_
*539 _0467_
*540 _0468_
*541 _0469_
*542 _0470_
*543 _0471_
*544 _0472_
*545 _0473_
*546 _0474_
*547 _0475_
*548 _0476_
*549 _0477_
*550 _0478_
*551 _0479_
*552 _0480_
*553 _0481_
*554 _0482_
*555 _0483_
*556 _0484_
*557 _0485_
*558 _0486_
*559 _0487_
*560 _0488_
*561 _0489_
*562 _0490_
*563 _0491_
*564 _0492_
*565 _0493_
*566 _0494_
*567 _0495_
*568 _0496_
*569 _0497_
*570 _0498_
*571 _0499_
*572 _0500_
*573 _0501_
*574 _0502_
*575 _0503_
*576 _0504_
*577 _0505_
*578 _0506_
*579 _0507_
*580 _0508_
*581 _0509_
*582 _0510_
*583 _0511_
*584 _0512_
*585 _0513_
*586 _0514_
*587 _0515_
*588 _0516_
*589 _0517_
*590 _0518_
*591 _0519_
*592 _0520_
*593 _0521_
*594 _0522_
*595 _0523_
*596 _0524_
*597 _0525_
*598 _0526_
*599 _0527_
*600 _0528_
*601 _0529_
*602 _0530_
*603 clknet_0_i_clk
*604 clknet_2_0__leaf_i_clk
*605 clknet_2_1__leaf_i_clk
*606 clknet_2_2__leaf_i_clk
*607 clknet_2_3__leaf_i_clk
*608 clknet_leaf_0_i_clk
*609 clknet_leaf_10_i_clk
*610 clknet_leaf_11_i_clk
*611 clknet_leaf_12_i_clk
*612 clknet_leaf_13_i_clk
*613 clknet_leaf_14_i_clk
*614 clknet_leaf_15_i_clk
*615 clknet_leaf_16_i_clk
*616 clknet_leaf_17_i_clk
*617 clknet_leaf_18_i_clk
*618 clknet_leaf_19_i_clk
*619 clknet_leaf_1_i_clk
*620 clknet_leaf_20_i_clk
*621 clknet_leaf_2_i_clk
*622 clknet_leaf_3_i_clk
*623 clknet_leaf_4_i_clk
*624 clknet_leaf_5_i_clk
*625 clknet_leaf_6_i_clk
*626 clknet_leaf_7_i_clk
*627 clknet_leaf_8_i_clk
*628 clknet_leaf_9_i_clk
*629 net
*630 net1
*631 net10
*632 net100
*633 net101
*634 net102
*635 net103
*636 net104
*637 net105
*638 net106
*639 net107
*640 net108
*641 net109
*642 net11
*643 net110
*644 net111
*645 net112
*646 net113
*647 net114
*648 net115
*649 net116
*650 net117
*651 net118
*652 net119
*653 net12
*654 net120
*655 net121
*656 net122
*657 net123
*658 net124
*659 net125
*660 net126
*661 net127
*662 net128
*663 net129
*664 net13
*665 net132
*666 net133
*667 net134
*668 net135
*669 net136
*670 net137
*671 net138
*672 net139
*673 net14
*674 net140
*675 net141
*676 net142
*677 net143
*678 net144
*679 net145
*680 net146
*681 net147
*682 net148
*683 net149
*684 net15
*685 net150
*686 net151
*687 net152
*688 net153
*689 net154
*690 net155
*691 net156
*692 net157
*693 net158
*694 net159
*695 net16
*696 net160
*697 net161
*698 net162
*699 net163
*700 net164
*701 net165
*702 net166
*703 net167
*704 net168
*705 net169
*706 net17
*707 net170
*708 net171
*709 net172
*710 net173
*711 net174
*712 net175
*713 net176
*714 net177
*715 net178
*716 net179
*717 net18
*718 net180
*719 net181
*720 net182
*721 net183
*722 net184
*723 net185
*724 net186
*725 net187
*726 net188
*727 net189
*728 net19
*729 net190
*730 net191
*731 net192
*732 net193
*733 net194
*734 net195
*735 net196
*736 net197
*737 net198
*738 net199
*739 net2
*740 net20
*741 net200
*742 net201
*743 net202
*744 net203
*745 net204
*746 net205
*747 net206
*748 net207
*749 net208
*750 net209
*751 net21
*752 net210
*753 net211
*754 net212
*755 net213
*756 net214
*757 net215
*758 net216
*759 net217
*760 net218
*761 net219
*762 net22
*763 net220
*764 net221
*765 net222
*766 net223
*767 net224
*768 net225
*769 net226
*770 net227
*771 net228
*772 net229
*773 net23
*774 net230
*775 net231
*776 net232
*777 net233
*778 net234
*779 net235
*780 net236
*781 net237
*782 net238
*783 net239
*784 net24
*785 net240
*786 net241
*787 net242
*788 net243
*789 net244
*790 net245
*791 net246
*792 net247
*793 net248
*794 net249
*795 net25
*796 net250
*797 net251
*798 net252
*799 net253
*800 net254
*801 net255
*802 net256
*803 net257
*804 net258
*805 net259
*806 net26
*807 net260
*808 net261
*809 net262
*810 net263
*811 net264
*812 net265
*813 net266
*814 net267
*815 net268
*816 net269
*817 net27
*818 net270
*819 net271
*820 net272
*821 net273
*822 net274
*823 net275
*824 net276
*825 net277
*826 net278
*827 net279
*828 net28
*829 net280
*830 net281
*831 net282
*832 net283
*833 net284
*834 net285
*835 net286
*836 net287
*837 net288
*838 net289
*839 net29
*840 net3
*841 net30
*842 net31
*843 net32
*844 net33
*845 net34
*846 net35
*847 net36
*848 net37
*849 net38
*850 net39
*851 net4
*852 net40
*853 net41
*854 net42
*855 net43
*856 net44
*857 net45
*858 net46
*859 net47
*860 net48
*861 net49
*862 net5
*863 net50
*864 net51
*865 net52
*866 net53
*867 net54
*868 net55
*869 net56
*870 net57
*871 net58
*872 net59
*873 net6
*874 net60
*875 net61
*876 net62
*877 net63
*878 net64
*879 net65
*880 net66
*881 net67
*882 net68
*883 net69
*884 net7
*885 net70
*886 net71
*887 net72
*888 net73
*889 net74
*890 net75
*891 net76
*892 net77
*893 net78
*894 net79
*895 net8
*896 net80
*897 net81
*898 net82
*899 net83
*900 net84
*901 net85
*902 net86
*903 net87
*904 net88
*905 net89
*906 net9
*907 net90
*908 net91
*909 net92
*910 net93
*911 net94
*912 net95
*913 net96
*914 net97
*915 net98
*916 net99
*917 u_i2c_master_controller\.bps_mode\[0\]
*918 u_i2c_master_controller\.bps_mode\[1\]
*919 u_i2c_master_controller\.cntrl_fsm\.abort_ack
*920 u_i2c_master_controller\.cntrl_fsm\.abort_ack_d1
*921 u_i2c_master_controller\.cntrl_fsm\.abort_ack_reg
*922 u_i2c_master_controller\.cntrl_fsm\.abort_reg
*923 u_i2c_master_controller\.cntrl_fsm\.abort_reg1
*924 u_i2c_master_controller\.cntrl_fsm\.adr_mode
*925 u_i2c_master_controller\.cntrl_fsm\.byte_cnt\[0\]
*926 u_i2c_master_controller\.cntrl_fsm\.byte_cnt\[1\]
*927 u_i2c_master_controller\.cntrl_fsm\.byte_cnt\[2\]
*928 u_i2c_master_controller\.cntrl_fsm\.byte_cnt\[3\]
*929 u_i2c_master_controller\.cntrl_fsm\.byte_cnt\[4\]
*930 u_i2c_master_controller\.cntrl_fsm\.byte_cnt\[5\]
*931 u_i2c_master_controller\.cntrl_fsm\.byte_cnt\[6\]
*932 u_i2c_master_controller\.cntrl_fsm\.byte_cnt\[7\]
*933 u_i2c_master_controller\.cntrl_fsm\.byte_rx_done
*934 u_i2c_master_controller\.cntrl_fsm\.byte_rx_fsm\.i_i2c_master_falling_scl_detect
*935 u_i2c_master_controller\.cntrl_fsm\.byte_rx_fsm\.i_rx_en
*936 u_i2c_master_controller\.cntrl_fsm\.byte_rx_fsm\.i_transaction_complete
*937 u_i2c_master_controller\.cntrl_fsm\.byte_rx_fsm\.o_rx_ack_sda
*938 u_i2c_master_controller\.cntrl_fsm\.byte_rx_fsm\.state\[0\]
*939 u_i2c_master_controller\.cntrl_fsm\.byte_rx_fsm\.state\[1\]
*940 u_i2c_master_controller\.cntrl_fsm\.byte_rx_fsm\.state\[2\]
*941 u_i2c_master_controller\.cntrl_fsm\.byte_rx_fsm\.state\[3\]
*942 u_i2c_master_controller\.cntrl_fsm\.byte_rx_fsm\.state\[4\]
*943 u_i2c_master_controller\.cntrl_fsm\.byte_rx_fsm\.state\[5\]
*944 u_i2c_master_controller\.cntrl_fsm\.byte_rx_fsm\.state\[6\]
*945 u_i2c_master_controller\.cntrl_fsm\.byte_rx_fsm\.state\[7\]
*946 u_i2c_master_controller\.cntrl_fsm\.byte_rx_fsm\.state\[8\]
*947 u_i2c_master_controller\.cntrl_fsm\.byte_rx_fsm\.state\[9\]
*948 u_i2c_master_controller\.cntrl_fsm\.byte_tx_done
*949 u_i2c_master_controller\.cntrl_fsm\.byte_tx_err
*950 u_i2c_master_controller\.cntrl_fsm\.byte_tx_fsm\.i_tx_data\[0\]
*951 u_i2c_master_controller\.cntrl_fsm\.byte_tx_fsm\.i_tx_data\[1\]
*952 u_i2c_master_controller\.cntrl_fsm\.byte_tx_fsm\.i_tx_data\[2\]
*953 u_i2c_master_controller\.cntrl_fsm\.byte_tx_fsm\.i_tx_data\[3\]
*954 u_i2c_master_controller\.cntrl_fsm\.byte_tx_fsm\.i_tx_data\[4\]
*955 u_i2c_master_controller\.cntrl_fsm\.byte_tx_fsm\.i_tx_data\[5\]
*956 u_i2c_master_controller\.cntrl_fsm\.byte_tx_fsm\.i_tx_data\[6\]
*957 u_i2c_master_controller\.cntrl_fsm\.byte_tx_fsm\.i_tx_data\[7\]
*958 u_i2c_master_controller\.cntrl_fsm\.byte_tx_fsm\.i_tx_en
*959 u_i2c_master_controller\.cntrl_fsm\.byte_tx_fsm\.o_byte_tx_sda
*960 u_i2c_master_controller\.cntrl_fsm\.byte_tx_fsm\.state\[0\]
*961 u_i2c_master_controller\.cntrl_fsm\.byte_tx_fsm\.state\[1\]
*962 u_i2c_master_controller\.cntrl_fsm\.byte_tx_fsm\.state\[2\]
*963 u_i2c_master_controller\.cntrl_fsm\.byte_tx_fsm\.state\[3\]
*964 u_i2c_master_controller\.cntrl_fsm\.byte_tx_fsm\.state\[4\]
*965 u_i2c_master_controller\.cntrl_fsm\.byte_tx_fsm\.state\[5\]
*966 u_i2c_master_controller\.cntrl_fsm\.byte_tx_fsm\.state\[6\]
*967 u_i2c_master_controller\.cntrl_fsm\.byte_tx_fsm\.state\[7\]
*968 u_i2c_master_controller\.cntrl_fsm\.byte_tx_fsm\.state\[8\]
*969 u_i2c_master_controller\.cntrl_fsm\.byte_tx_fsm\.state\[9\]
*970 u_i2c_master_controller\.cntrl_fsm\.cntrl_fsm\.byte_count_i\[0\]
*971 u_i2c_master_controller\.cntrl_fsm\.cntrl_fsm\.byte_count_i\[1\]
*972 u_i2c_master_controller\.cntrl_fsm\.cntrl_fsm\.byte_count_i\[2\]
*973 u_i2c_master_controller\.cntrl_fsm\.cntrl_fsm\.byte_count_i\[3\]
*974 u_i2c_master_controller\.cntrl_fsm\.cntrl_fsm\.byte_count_i\[4\]
*975 u_i2c_master_controller\.cntrl_fsm\.cntrl_fsm\.byte_count_i\[5\]
*976 u_i2c_master_controller\.cntrl_fsm\.cntrl_fsm\.byte_count_i\[6\]
*977 u_i2c_master_controller\.cntrl_fsm\.cntrl_fsm\.byte_count_i\[7\]
*978 u_i2c_master_controller\.cntrl_fsm\.cntrl_fsm\.i2cbus_busy_i
*979 u_i2c_master_controller\.cntrl_fsm\.cntrl_fsm\.i_i2c_master_start_detect
*980 u_i2c_master_controller\.cntrl_fsm\.cntrl_fsm\.i_i2c_master_stop_detect
*981 u_i2c_master_controller\.cntrl_fsm\.cntrl_fsm\.i_rw_mode
*982 u_i2c_master_controller\.cntrl_fsm\.cntrl_fsm\.i_slave_addr\[1\]
*983 u_i2c_master_controller\.cntrl_fsm\.cntrl_fsm\.i_slave_addr\[2\]
*984 u_i2c_master_controller\.cntrl_fsm\.cntrl_fsm\.i_slave_addr\[3\]
*985 u_i2c_master_controller\.cntrl_fsm\.cntrl_fsm\.i_slave_addr\[4\]
*986 u_i2c_master_controller\.cntrl_fsm\.cntrl_fsm\.i_slave_addr\[5\]
*987 u_i2c_master_controller\.cntrl_fsm\.cntrl_fsm\.i_slave_addr\[6\]
*988 u_i2c_master_controller\.cntrl_fsm\.cntrl_fsm\.i_slave_addr\[7\]
*989 u_i2c_master_controller\.cntrl_fsm\.cntrl_fsm\.i_slave_changed
*990 u_i2c_master_controller\.cntrl_fsm\.cntrl_fsm\.i_start
*991 u_i2c_master_controller\.cntrl_fsm\.cntrl_fsm\.i_start_gen_ack
*992 u_i2c_master_controller\.cntrl_fsm\.cntrl_fsm\.o_config_latch_en
*993 u_i2c_master_controller\.cntrl_fsm\.cntrl_fsm\.o_enable_scl
*994 u_i2c_master_controller\.cntrl_fsm\.cntrl_fsm\.o_i2c_busy
*995 u_i2c_master_controller\.cntrl_fsm\.cntrl_fsm\.o_rx_done
*996 u_i2c_master_controller\.cntrl_fsm\.cntrl_fsm\.o_start_gen_en
*997 u_i2c_master_controller\.cntrl_fsm\.cntrl_fsm\.o_stop_gen_en
*998 u_i2c_master_controller\.cntrl_fsm\.cntrl_fsm\.o_tx_done
*999 u_i2c_master_controller\.cntrl_fsm\.cntrl_fsm\.rx_en
*1000 u_i2c_master_controller\.cntrl_fsm\.cntrl_fsm\.state\[0\]
*1001 u_i2c_master_controller\.cntrl_fsm\.cntrl_fsm\.state\[1\]
*1002 u_i2c_master_controller\.cntrl_fsm\.cntrl_fsm\.state\[2\]
*1003 u_i2c_master_controller\.cntrl_fsm\.cntrl_fsm\.state\[3\]
*1004 u_i2c_master_controller\.cntrl_fsm\.cntrl_fsm\.state\[4\]
*1005 u_i2c_master_controller\.cntrl_fsm\.cntrl_fsm\.state\[5\]
*1006 u_i2c_master_controller\.cntrl_fsm\.cntrl_fsm\.state\[6\]
*1007 u_i2c_master_controller\.cntrl_fsm\.cntrl_fsm\.state\[7\]
*1008 u_i2c_master_controller\.cntrl_fsm\.cntrl_fsm\.state\[8\]
*1009 u_i2c_master_controller\.cntrl_fsm\.cntrl_fsm\.state\[9\]
*1010 u_i2c_master_controller\.cntrl_fsm\.intr_clr_reg
*1011 u_i2c_master_controller\.cntrl_fsm\.intr_clr_reg1
*1012 u_i2c_master_controller\.cntrl_fsm\.intr_clr_reg2
*1013 u_i2c_master_controller\.cntrl_fsm\.o_int_out
*1014 u_i2c_master_controller\.cntrl_fsm\.rx_done_d1
*1015 u_i2c_master_controller\.cntrl_fsm\.rx_done_reg
*1016 u_i2c_master_controller\.cntrl_fsm\.rx_err
*1017 u_i2c_master_controller\.cntrl_fsm\.rx_err_d1
*1018 u_i2c_master_controller\.cntrl_fsm\.rx_err_reg
*1019 u_i2c_master_controller\.cntrl_fsm\.rxintr_en
*1020 u_i2c_master_controller\.cntrl_fsm\.start_reg1
*1021 u_i2c_master_controller\.cntrl_fsm\.tx_done_d1
*1022 u_i2c_master_controller\.cntrl_fsm\.tx_done_reg
*1023 u_i2c_master_controller\.cntrl_fsm\.tx_err
*1024 u_i2c_master_controller\.cntrl_fsm\.tx_err_d1
*1025 u_i2c_master_controller\.cntrl_fsm\.tx_err_reg
*1026 u_i2c_master_controller\.cntrl_fsm\.txintr_en
*1027 u_i2c_master_controller\.filter_scl\.in_d1
*1028 u_i2c_master_controller\.filter_scl\.in_d2
*1029 u_i2c_master_controller\.filter_scl\.in_d3
*1030 u_i2c_master_controller\.filter_scl\.out_n
*1031 u_i2c_master_controller\.filter_sda\.in_d1
*1032 u_i2c_master_controller\.filter_sda\.in_d2
*1033 u_i2c_master_controller\.filter_sda\.in_d3
*1034 u_i2c_master_controller\.filter_sda\.out_n
*1035 u_i2c_master_controller\.i2cbus_cntrl_fsm\.falling_scl_detect\.state\[0\]
*1036 u_i2c_master_controller\.i2cbus_cntrl_fsm\.falling_scl_detect\.state\[1\]
*1037 u_i2c_master_controller\.i2cbus_cntrl_fsm\.falling_scl_detect\.state\[2\]
*1038 u_i2c_master_controller\.i2cbus_cntrl_fsm\.i2c_master_start_sda_i
*1039 u_i2c_master_controller\.i2cbus_cntrl_fsm\.i2c_master_stop_sda_i
*1040 u_i2c_master_controller\.i2cbus_cntrl_fsm\.o_i2c_master_scl
*1041 u_i2c_master_controller\.i2cbus_cntrl_fsm\.scl_gen\.count\[0\]
*1042 u_i2c_master_controller\.i2cbus_cntrl_fsm\.scl_gen\.count\[1\]
*1043 u_i2c_master_controller\.i2cbus_cntrl_fsm\.scl_gen\.count\[2\]
*1044 u_i2c_master_controller\.i2cbus_cntrl_fsm\.scl_gen\.count\[3\]
*1045 u_i2c_master_controller\.i2cbus_cntrl_fsm\.scl_gen\.count\[4\]
*1046 u_i2c_master_controller\.i2cbus_cntrl_fsm\.scl_gen\.count\[5\]
*1047 u_i2c_master_controller\.i2cbus_cntrl_fsm\.scl_gen\.count\[6\]
*1048 u_i2c_master_controller\.i2cbus_cntrl_fsm\.scl_gen\.count\[7\]
*1049 u_i2c_master_controller\.i2cbus_cntrl_fsm\.scl_gen\.count\[8\]
*1050 u_i2c_master_controller\.i2cbus_cntrl_fsm\.scl_gen\.count_en
*1051 u_i2c_master_controller\.i2cbus_cntrl_fsm\.scl_gen\.count_eq_modby2
*1052 u_i2c_master_controller\.i2cbus_cntrl_fsm\.scl_gen\.count_reset
*1053 u_i2c_master_controller\.i2cbus_cntrl_fsm\.scl_gen\.modulus\[0\]
*1054 u_i2c_master_controller\.i2cbus_cntrl_fsm\.scl_gen\.modulus\[1\]
*1055 u_i2c_master_controller\.i2cbus_cntrl_fsm\.scl_gen\.modulus\[2\]
*1056 u_i2c_master_controller\.i2cbus_cntrl_fsm\.scl_gen\.modulus\[3\]
*1057 u_i2c_master_controller\.i2cbus_cntrl_fsm\.scl_gen\.modulus\[4\]
*1058 u_i2c_master_controller\.i2cbus_cntrl_fsm\.scl_gen\.modulus\[5\]
*1059 u_i2c_master_controller\.i2cbus_cntrl_fsm\.scl_gen\.modulus\[6\]
*1060 u_i2c_master_controller\.i2cbus_cntrl_fsm\.scl_gen\.modulus\[7\]
*1061 u_i2c_master_controller\.i2cbus_cntrl_fsm\.scl_gen\.modulus\[8\]
*1062 u_i2c_master_controller\.i2cbus_cntrl_fsm\.scl_gen\.state\[0\]
*1063 u_i2c_master_controller\.i2cbus_cntrl_fsm\.scl_gen\.state\[1\]
*1064 u_i2c_master_controller\.i2cbus_cntrl_fsm\.scl_gen\.state\[2\]
*1065 u_i2c_master_controller\.i2cbus_cntrl_fsm\.scl_gen\.state\[3\]
*1066 u_i2c_master_controller\.i2cbus_cntrl_fsm\.start_detect\.state
*1067 u_i2c_master_controller\.i2cbus_cntrl_fsm\.start_detect\.state_next
*1068 u_i2c_master_controller\.i2cbus_cntrl_fsm\.start_gen\.count_threshold\[4\]
*1069 u_i2c_master_controller\.i2cbus_cntrl_fsm\.start_gen\.count_threshold\[6\]
*1070 u_i2c_master_controller\.i2cbus_cntrl_fsm\.start_gen\.delay_done
*1071 u_i2c_master_controller\.i2cbus_cntrl_fsm\.start_gen\.delay_gen\.count\[0\]
*1072 u_i2c_master_controller\.i2cbus_cntrl_fsm\.start_gen\.delay_gen\.count\[10\]
*1073 u_i2c_master_controller\.i2cbus_cntrl_fsm\.start_gen\.delay_gen\.count\[11\]
*1074 u_i2c_master_controller\.i2cbus_cntrl_fsm\.start_gen\.delay_gen\.count\[12\]
*1075 u_i2c_master_controller\.i2cbus_cntrl_fsm\.start_gen\.delay_gen\.count\[13\]
*1076 u_i2c_master_controller\.i2cbus_cntrl_fsm\.start_gen\.delay_gen\.count\[14\]
*1077 u_i2c_master_controller\.i2cbus_cntrl_fsm\.start_gen\.delay_gen\.count\[15\]
*1078 u_i2c_master_controller\.i2cbus_cntrl_fsm\.start_gen\.delay_gen\.count\[1\]
*1079 u_i2c_master_controller\.i2cbus_cntrl_fsm\.start_gen\.delay_gen\.count\[2\]
*1080 u_i2c_master_controller\.i2cbus_cntrl_fsm\.start_gen\.delay_gen\.count\[3\]
*1081 u_i2c_master_controller\.i2cbus_cntrl_fsm\.start_gen\.delay_gen\.count\[4\]
*1082 u_i2c_master_controller\.i2cbus_cntrl_fsm\.start_gen\.delay_gen\.count\[5\]
*1083 u_i2c_master_controller\.i2cbus_cntrl_fsm\.start_gen\.delay_gen\.count\[6\]
*1084 u_i2c_master_controller\.i2cbus_cntrl_fsm\.start_gen\.delay_gen\.count\[7\]
*1085 u_i2c_master_controller\.i2cbus_cntrl_fsm\.start_gen\.delay_gen\.count\[8\]
*1086 u_i2c_master_controller\.i2cbus_cntrl_fsm\.start_gen\.delay_gen\.count\[9\]
*1087 u_i2c_master_controller\.i2cbus_cntrl_fsm\.start_gen\.delay_gen\.start_delay
*1088 u_i2c_master_controller\.i2cbus_cntrl_fsm\.start_gen\.state\[0\]
*1089 u_i2c_master_controller\.i2cbus_cntrl_fsm\.start_gen\.state\[1\]
*1090 u_i2c_master_controller\.i2cbus_cntrl_fsm\.start_gen\.state\[2\]
*1091 u_i2c_master_controller\.i2cbus_cntrl_fsm\.start_gen\.state\[3\]
*1092 u_i2c_master_controller\.i2cbus_cntrl_fsm\.start_gen\.state\[4\]
*1093 u_i2c_master_controller\.i2cbus_cntrl_fsm\.start_gen\.state\[5\]
*1094 u_i2c_master_controller\.i2cbus_cntrl_fsm\.start_gen\.state\[6\]
*1095 u_i2c_master_controller\.i2cbus_cntrl_fsm\.stop_detect\.state
*1096 u_i2c_master_controller\.i2cbus_cntrl_fsm\.stop_gen\.delay_done
*1097 u_i2c_master_controller\.i2cbus_cntrl_fsm\.stop_gen\.delay_gen\.count\[0\]
*1098 u_i2c_master_controller\.i2cbus_cntrl_fsm\.stop_gen\.delay_gen\.count\[10\]
*1099 u_i2c_master_controller\.i2cbus_cntrl_fsm\.stop_gen\.delay_gen\.count\[11\]
*1100 u_i2c_master_controller\.i2cbus_cntrl_fsm\.stop_gen\.delay_gen\.count\[12\]
*1101 u_i2c_master_controller\.i2cbus_cntrl_fsm\.stop_gen\.delay_gen\.count\[13\]
*1102 u_i2c_master_controller\.i2cbus_cntrl_fsm\.stop_gen\.delay_gen\.count\[14\]
*1103 u_i2c_master_controller\.i2cbus_cntrl_fsm\.stop_gen\.delay_gen\.count\[15\]
*1104 u_i2c_master_controller\.i2cbus_cntrl_fsm\.stop_gen\.delay_gen\.count\[1\]
*1105 u_i2c_master_controller\.i2cbus_cntrl_fsm\.stop_gen\.delay_gen\.count\[2\]
*1106 u_i2c_master_controller\.i2cbus_cntrl_fsm\.stop_gen\.delay_gen\.count\[3\]
*1107 u_i2c_master_controller\.i2cbus_cntrl_fsm\.stop_gen\.delay_gen\.count\[4\]
*1108 u_i2c_master_controller\.i2cbus_cntrl_fsm\.stop_gen\.delay_gen\.count\[5\]
*1109 u_i2c_master_controller\.i2cbus_cntrl_fsm\.stop_gen\.delay_gen\.count\[6\]
*1110 u_i2c_master_controller\.i2cbus_cntrl_fsm\.stop_gen\.delay_gen\.count\[7\]
*1111 u_i2c_master_controller\.i2cbus_cntrl_fsm\.stop_gen\.delay_gen\.count\[8\]
*1112 u_i2c_master_controller\.i2cbus_cntrl_fsm\.stop_gen\.delay_gen\.count\[9\]
*1113 u_i2c_master_controller\.i2cbus_cntrl_fsm\.stop_gen\.delay_gen\.start_delay
*1114 u_i2c_master_controller\.i2cbus_cntrl_fsm\.stop_gen\.state\[0\]
*1115 u_i2c_master_controller\.i2cbus_cntrl_fsm\.stop_gen\.state\[1\]
*1116 u_i2c_master_controller\.i2cbus_cntrl_fsm\.stop_gen\.state\[2\]
*1117 u_i2c_master_controller\.soft_reset_d1
*1118 u_i2c_master_controller\.soft_reset_d2
*1119 u_i2c_master_controller\.soft_reset_d3
*1120 FILLER_0_113
*1121 FILLER_0_131
*1122 FILLER_0_141
*1123 FILLER_0_144
*1124 FILLER_0_166
*1125 FILLER_0_185
*1126 FILLER_0_221
*1127 FILLER_0_249
*1128 FILLER_0_253
*1129 FILLER_0_26
*1130 FILLER_0_276
*1131 FILLER_0_279
*1132 FILLER_0_29
*1133 FILLER_0_297
*1134 FILLER_0_3
*1135 FILLER_0_300
*1136 FILLER_0_303
*1137 FILLER_0_306
*1138 FILLER_0_57
*1139 FILLER_0_6
*1140 FILLER_0_60
*1141 FILLER_0_63
*1142 FILLER_0_81
*1143 FILLER_0_85
*1144 FILLER_10_105
*1145 FILLER_10_108
*1146 FILLER_10_111
*1147 FILLER_10_114
*1148 FILLER_10_117
*1149 FILLER_10_12
*1150 FILLER_10_132
*1151 FILLER_10_147
*1152 FILLER_10_15
*1153 FILLER_10_156
*1154 FILLER_10_18
*1155 FILLER_10_180
*1156 FILLER_10_183
*1157 FILLER_10_193
*1158 FILLER_10_21
*1159 FILLER_10_239
*1160 FILLER_10_24
*1161 FILLER_10_247
*1162 FILLER_10_250
*1163 FILLER_10_260
*1164 FILLER_10_263
*1165 FILLER_10_266
*1166 FILLER_10_27
*1167 FILLER_10_29
*1168 FILLER_10_3
*1169 FILLER_10_305
*1170 FILLER_10_6
*1171 FILLER_10_72
*1172 FILLER_10_75
*1173 FILLER_10_78
*1174 FILLER_10_81
*1175 FILLER_10_9
*1176 FILLER_10_94
*1177 FILLER_11_100
*1178 FILLER_11_103
*1179 FILLER_11_106
*1180 FILLER_11_109
*1181 FILLER_11_11
*1182 FILLER_11_113
*1183 FILLER_11_116
*1184 FILLER_11_147
*1185 FILLER_11_150
*1186 FILLER_11_153
*1187 FILLER_11_156
*1188 FILLER_11_159
*1189 FILLER_11_169
*1190 FILLER_11_172
*1191 FILLER_11_175
*1192 FILLER_11_193
*1193 FILLER_11_196
*1194 FILLER_11_220
*1195 FILLER_11_223
*1196 FILLER_11_225
*1197 FILLER_11_228
*1198 FILLER_11_259
*1199 FILLER_11_262
*1200 FILLER_11_265
*1201 FILLER_11_268
*1202 FILLER_11_271
*1203 FILLER_11_305
*1204 FILLER_11_74
*1205 FILLER_11_97
*1206 FILLER_12_115
*1207 FILLER_12_139
*1208 FILLER_12_144
*1209 FILLER_12_147
*1210 FILLER_12_150
*1211 FILLER_12_174
*1212 FILLER_12_177
*1213 FILLER_12_18
*1214 FILLER_12_204
*1215 FILLER_12_207
*1216 FILLER_12_217
*1217 FILLER_12_220
*1218 FILLER_12_223
*1219 FILLER_12_226
*1220 FILLER_12_229
*1221 FILLER_12_253
*1222 FILLER_12_256
*1223 FILLER_12_259
*1224 FILLER_12_262
*1225 FILLER_12_265
*1226 FILLER_12_268
*1227 FILLER_12_27
*1228 FILLER_12_271
*1229 FILLER_12_3
*1230 FILLER_12_302
*1231 FILLER_12_305
*1232 FILLER_12_6
*1233 FILLER_12_69
*1234 FILLER_12_72
*1235 FILLER_12_85
*1236 FILLER_13_106
*1237 FILLER_13_109
*1238 FILLER_13_125
*1239 FILLER_13_128
*1240 FILLER_13_131
*1241 FILLER_13_141
*1242 FILLER_13_144
*1243 FILLER_13_147
*1244 FILLER_13_164
*1245 FILLER_13_167
*1246 FILLER_13_169
*1247 FILLER_13_172
*1248 FILLER_13_175
*1249 FILLER_13_225
*1250 FILLER_13_228
*1251 FILLER_13_231
*1252 FILLER_13_234
*1253 FILLER_13_256
*1254 FILLER_13_259
*1255 FILLER_13_262
*1256 FILLER_13_265
*1257 FILLER_13_268
*1258 FILLER_13_275
*1259 FILLER_13_278
*1260 FILLER_13_28
*1261 FILLER_13_289
*1262 FILLER_13_292
*1263 FILLER_13_3
*1264 FILLER_13_300
*1265 FILLER_13_303
*1266 FILLER_13_306
*1267 FILLER_13_31
*1268 FILLER_13_34
*1269 FILLER_13_57
*1270 FILLER_13_6
*1271 FILLER_13_60
*1272 FILLER_13_63
*1273 FILLER_14_158
*1274 FILLER_14_161
*1275 FILLER_14_164
*1276 FILLER_14_167
*1277 FILLER_14_170
*1278 FILLER_14_173
*1279 FILLER_14_176
*1280 FILLER_14_197
*1281 FILLER_14_219
*1282 FILLER_14_222
*1283 FILLER_14_225
*1284 FILLER_14_228
*1285 FILLER_14_231
*1286 FILLER_14_234
*1287 FILLER_14_253
*1288 FILLER_14_26
*1289 FILLER_14_265
*1290 FILLER_14_268
*1291 FILLER_14_271
*1292 FILLER_14_274
*1293 FILLER_14_3
*1294 FILLER_14_304
*1295 FILLER_14_307
*1296 FILLER_14_46
*1297 FILLER_14_49
*1298 FILLER_14_52
*1299 FILLER_14_62
*1300 FILLER_14_65
*1301 FILLER_14_85
*1302 FILLER_14_88
*1303 FILLER_15_100
*1304 FILLER_15_148
*1305 FILLER_15_157
*1306 FILLER_15_165
*1307 FILLER_15_169
*1308 FILLER_15_172
*1309 FILLER_15_187
*1310 FILLER_15_214
*1311 FILLER_15_225
*1312 FILLER_15_228
*1313 FILLER_15_251
*1314 FILLER_15_259
*1315 FILLER_15_274
*1316 FILLER_15_277
*1317 FILLER_15_288
*1318 FILLER_15_291
*1319 FILLER_15_294
*1320 FILLER_15_297
*1321 FILLER_15_3
*1322 FILLER_15_300
*1323 FILLER_15_303
*1324 FILLER_15_306
*1325 FILLER_15_39
*1326 FILLER_15_42
*1327 FILLER_15_45
*1328 FILLER_15_48
*1329 FILLER_15_51
*1330 FILLER_15_54
*1331 FILLER_15_57
*1332 FILLER_15_6
*1333 FILLER_15_60
*1334 FILLER_15_63
*1335 FILLER_15_66
*1336 FILLER_15_9
*1337 FILLER_15_97
*1338 FILLER_16_100
*1339 FILLER_16_103
*1340 FILLER_16_138
*1341 FILLER_16_149
*1342 FILLER_16_197
*1343 FILLER_16_200
*1344 FILLER_16_230
*1345 FILLER_16_264
*1346 FILLER_16_267
*1347 FILLER_16_270
*1348 FILLER_16_280
*1349 FILLER_16_283
*1350 FILLER_16_286
*1351 FILLER_16_289
*1352 FILLER_16_29
*1353 FILLER_16_299
*1354 FILLER_16_3
*1355 FILLER_16_302
*1356 FILLER_16_305
*1357 FILLER_16_32
*1358 FILLER_16_35
*1359 FILLER_16_49
*1360 FILLER_16_52
*1361 FILLER_16_55
*1362 FILLER_16_58
*1363 FILLER_16_6
*1364 FILLER_16_61
*1365 FILLER_16_64
*1366 FILLER_16_67
*1367 FILLER_16_70
*1368 FILLER_16_85
*1369 FILLER_16_88
*1370 FILLER_16_91
*1371 FILLER_16_94
*1372 FILLER_16_97
*1373 FILLER_17_113
*1374 FILLER_17_169
*1375 FILLER_17_199
*1376 FILLER_17_202
*1377 FILLER_17_21
*1378 FILLER_17_222
*1379 FILLER_17_225
*1380 FILLER_17_228
*1381 FILLER_17_231
*1382 FILLER_17_234
*1383 FILLER_17_237
*1384 FILLER_17_240
*1385 FILLER_17_243
*1386 FILLER_17_251
*1387 FILLER_17_254
*1388 FILLER_17_257
*1389 FILLER_17_260
*1390 FILLER_17_263
*1391 FILLER_17_266
*1392 FILLER_17_269
*1393 FILLER_17_277
*1394 FILLER_17_281
*1395 FILLER_17_284
*1396 FILLER_17_287
*1397 FILLER_17_290
*1398 FILLER_17_3
*1399 FILLER_17_300
*1400 FILLER_17_303
*1401 FILLER_17_306
*1402 FILLER_17_35
*1403 FILLER_17_51
*1404 FILLER_17_54
*1405 FILLER_17_57
*1406 FILLER_17_60
*1407 FILLER_17_63
*1408 FILLER_17_82
*1409 FILLER_17_85
*1410 FILLER_17_88
*1411 FILLER_17_91
*1412 FILLER_17_94
*1413 FILLER_17_97
*1414 FILLER_18_11
*1415 FILLER_18_110
*1416 FILLER_18_184
*1417 FILLER_18_193
*1418 FILLER_18_205
*1419 FILLER_18_208
*1420 FILLER_18_211
*1421 FILLER_18_214
*1422 FILLER_18_217
*1423 FILLER_18_220
*1424 FILLER_18_223
*1425 FILLER_18_226
*1426 FILLER_18_229
*1427 FILLER_18_232
*1428 FILLER_18_235
*1429 FILLER_18_238
*1430 FILLER_18_253
*1431 FILLER_18_256
*1432 FILLER_18_259
*1433 FILLER_18_262
*1434 FILLER_18_265
*1435 FILLER_18_268
*1436 FILLER_18_27
*1437 FILLER_18_29
*1438 FILLER_18_306
*1439 FILLER_18_52
*1440 FILLER_18_55
*1441 FILLER_18_85
*1442 FILLER_18_88
*1443 FILLER_19_113
*1444 FILLER_19_133
*1445 FILLER_19_136
*1446 FILLER_19_139
*1447 FILLER_19_164
*1448 FILLER_19_167
*1449 FILLER_19_169
*1450 FILLER_19_172
*1451 FILLER_19_182
*1452 FILLER_19_185
*1453 FILLER_19_188
*1454 FILLER_19_19
*1455 FILLER_19_191
*1456 FILLER_19_194
*1457 FILLER_19_22
*1458 FILLER_19_223
*1459 FILLER_19_225
*1460 FILLER_19_228
*1461 FILLER_19_231
*1462 FILLER_19_247
*1463 FILLER_19_250
*1464 FILLER_19_263
*1465 FILLER_19_266
*1466 FILLER_19_269
*1467 FILLER_19_272
*1468 FILLER_19_275
*1469 FILLER_19_302
*1470 FILLER_19_305
*1471 FILLER_19_51
*1472 FILLER_19_54
*1473 FILLER_1_111
*1474 FILLER_1_113
*1475 FILLER_1_123
*1476 FILLER_1_132
*1477 FILLER_1_135
*1478 FILLER_1_166
*1479 FILLER_1_169
*1480 FILLER_1_204
*1481 FILLER_1_214
*1482 FILLER_1_246
*1483 FILLER_1_276
*1484 FILLER_1_279
*1485 FILLER_1_297
*1486 FILLER_1_3
*1487 FILLER_1_300
*1488 FILLER_1_303
*1489 FILLER_1_306
*1490 FILLER_1_35
*1491 FILLER_1_38
*1492 FILLER_1_66
*1493 FILLER_1_88
*1494 FILLER_1_91
*1495 FILLER_20_100
*1496 FILLER_20_103
*1497 FILLER_20_11
*1498 FILLER_20_134
*1499 FILLER_20_14
*1500 FILLER_20_141
*1501 FILLER_20_187
*1502 FILLER_20_223
*1503 FILLER_20_261
*1504 FILLER_20_264
*1505 FILLER_20_267
*1506 FILLER_20_270
*1507 FILLER_20_289
*1508 FILLER_20_29
*1509 FILLER_20_292
*1510 FILLER_20_295
*1511 FILLER_20_298
*1512 FILLER_20_36
*1513 FILLER_20_53
*1514 FILLER_20_85
*1515 FILLER_21_100
*1516 FILLER_21_139
*1517 FILLER_21_169
*1518 FILLER_21_177
*1519 FILLER_21_180
*1520 FILLER_21_189
*1521 FILLER_21_211
*1522 FILLER_21_214
*1523 FILLER_21_225
*1524 FILLER_21_272
*1525 FILLER_21_292
*1526 FILLER_21_3
*1527 FILLER_21_300
*1528 FILLER_21_303
*1529 FILLER_21_306
*1530 FILLER_21_33
*1531 FILLER_21_55
*1532 FILLER_21_57
*1533 FILLER_21_6
*1534 FILLER_21_60
*1535 FILLER_21_68
*1536 FILLER_21_83
*1537 FILLER_21_94
*1538 FILLER_21_97
*1539 FILLER_22_134
*1540 FILLER_22_137
*1541 FILLER_22_141
*1542 FILLER_22_151
*1543 FILLER_22_189
*1544 FILLER_22_192
*1545 FILLER_22_195
*1546 FILLER_22_197
*1547 FILLER_22_200
*1548 FILLER_22_232
*1549 FILLER_22_249
*1550 FILLER_22_261
*1551 FILLER_22_264
*1552 FILLER_22_27
*1553 FILLER_22_3
*1554 FILLER_22_303
*1555 FILLER_22_306
*1556 FILLER_22_50
*1557 FILLER_22_53
*1558 FILLER_22_56
*1559 FILLER_22_68
*1560 FILLER_22_71
*1561 FILLER_22_81
*1562 FILLER_22_85
*1563 FILLER_22_88
*1564 FILLER_22_91
*1565 FILLER_23_100
*1566 FILLER_23_103
*1567 FILLER_23_106
*1568 FILLER_23_109
*1569 FILLER_23_121
*1570 FILLER_23_124
*1571 FILLER_23_127
*1572 FILLER_23_130
*1573 FILLER_23_133
*1574 FILLER_23_164
*1575 FILLER_23_167
*1576 FILLER_23_198
*1577 FILLER_23_208
*1578 FILLER_23_211
*1579 FILLER_23_214
*1580 FILLER_23_217
*1581 FILLER_23_220
*1582 FILLER_23_223
*1583 FILLER_23_225
*1584 FILLER_23_228
*1585 FILLER_23_231
*1586 FILLER_23_234
*1587 FILLER_23_237
*1588 FILLER_23_240
*1589 FILLER_23_243
*1590 FILLER_23_252
*1591 FILLER_23_255
*1592 FILLER_23_265
*1593 FILLER_23_268
*1594 FILLER_23_27
*1595 FILLER_23_276
*1596 FILLER_23_292
*1597 FILLER_23_300
*1598 FILLER_23_303
*1599 FILLER_23_306
*1600 FILLER_23_37
*1601 FILLER_23_46
*1602 FILLER_23_49
*1603 FILLER_23_52
*1604 FILLER_23_55
*1605 FILLER_23_57
*1606 FILLER_23_60
*1607 FILLER_23_82
*1608 FILLER_23_85
*1609 FILLER_23_88
*1610 FILLER_23_91
*1611 FILLER_23_94
*1612 FILLER_23_97
*1613 FILLER_24_100
*1614 FILLER_24_108
*1615 FILLER_24_111
*1616 FILLER_24_114
*1617 FILLER_24_117
*1618 FILLER_24_120
*1619 FILLER_24_123
*1620 FILLER_24_126
*1621 FILLER_24_129
*1622 FILLER_24_132
*1623 FILLER_24_135
*1624 FILLER_24_146
*1625 FILLER_24_176
*1626 FILLER_24_179
*1627 FILLER_24_182
*1628 FILLER_24_185
*1629 FILLER_24_188
*1630 FILLER_24_200
*1631 FILLER_24_219
*1632 FILLER_24_222
*1633 FILLER_24_225
*1634 FILLER_24_228
*1635 FILLER_24_231
*1636 FILLER_24_234
*1637 FILLER_24_237
*1638 FILLER_24_251
*1639 FILLER_24_261
*1640 FILLER_24_264
*1641 FILLER_24_267
*1642 FILLER_24_27
*1643 FILLER_24_270
*1644 FILLER_24_273
*1645 FILLER_24_276
*1646 FILLER_24_279
*1647 FILLER_24_29
*1648 FILLER_24_302
*1649 FILLER_24_305
*1650 FILLER_24_32
*1651 FILLER_24_35
*1652 FILLER_24_42
*1653 FILLER_24_45
*1654 FILLER_24_48
*1655 FILLER_24_51
*1656 FILLER_24_54
*1657 FILLER_24_57
*1658 FILLER_24_81
*1659 FILLER_24_85
*1660 FILLER_24_88
*1661 FILLER_24_91
*1662 FILLER_24_94
*1663 FILLER_24_97
*1664 FILLER_25_121
*1665 FILLER_25_124
*1666 FILLER_25_127
*1667 FILLER_25_157
*1668 FILLER_25_167
*1669 FILLER_25_175
*1670 FILLER_25_178
*1671 FILLER_25_18
*1672 FILLER_25_181
*1673 FILLER_25_184
*1674 FILLER_25_187
*1675 FILLER_25_216
*1676 FILLER_25_225
*1677 FILLER_25_228
*1678 FILLER_25_231
*1679 FILLER_25_262
*1680 FILLER_25_265
*1681 FILLER_25_281
*1682 FILLER_25_284
*1683 FILLER_25_292
*1684 FILLER_25_295
*1685 FILLER_25_298
*1686 FILLER_25_3
*1687 FILLER_25_301
*1688 FILLER_25_304
*1689 FILLER_25_307
*1690 FILLER_25_34
*1691 FILLER_25_57
*1692 FILLER_25_6
*1693 FILLER_25_60
*1694 FILLER_26_130
*1695 FILLER_26_141
*1696 FILLER_26_158
*1697 FILLER_26_168
*1698 FILLER_26_195
*1699 FILLER_26_197
*1700 FILLER_26_227
*1701 FILLER_26_230
*1702 FILLER_26_26
*1703 FILLER_26_260
*1704 FILLER_26_263
*1705 FILLER_26_266
*1706 FILLER_26_269
*1707 FILLER_26_272
*1708 FILLER_26_275
*1709 FILLER_26_278
*1710 FILLER_26_29
*1711 FILLER_26_292
*1712 FILLER_26_295
*1713 FILLER_26_298
*1714 FILLER_26_3
*1715 FILLER_26_32
*1716 FILLER_26_61
*1717 FILLER_26_64
*1718 FILLER_26_83
*1719 FILLER_26_85
*1720 FILLER_26_96
*1721 FILLER_26_99
*1722 FILLER_27_106
*1723 FILLER_27_109
*1724 FILLER_27_113
*1725 FILLER_27_166
*1726 FILLER_27_169
*1727 FILLER_27_172
*1728 FILLER_27_175
*1729 FILLER_27_184
*1730 FILLER_27_193
*1731 FILLER_27_222
*1732 FILLER_27_225
*1733 FILLER_27_228
*1734 FILLER_27_237
*1735 FILLER_27_240
*1736 FILLER_27_254
*1737 FILLER_27_257
*1738 FILLER_27_260
*1739 FILLER_27_263
*1740 FILLER_27_281
*1741 FILLER_27_3
*1742 FILLER_27_301
*1743 FILLER_27_304
*1744 FILLER_27_307
*1745 FILLER_27_46
*1746 FILLER_27_49
*1747 FILLER_27_52
*1748 FILLER_27_55
*1749 FILLER_27_57
*1750 FILLER_27_60
*1751 FILLER_27_78
*1752 FILLER_28_107
*1753 FILLER_28_110
*1754 FILLER_28_141
*1755 FILLER_28_193
*1756 FILLER_28_239
*1757 FILLER_28_242
*1758 FILLER_28_245
*1759 FILLER_28_248
*1760 FILLER_28_251
*1761 FILLER_28_253
*1762 FILLER_28_256
*1763 FILLER_28_259
*1764 FILLER_28_3
*1765 FILLER_28_303
*1766 FILLER_28_306
*1767 FILLER_28_55
*1768 FILLER_28_58
*1769 FILLER_28_6
*1770 FILLER_28_85
*1771 FILLER_28_97
*1772 FILLER_29_102
*1773 FILLER_29_111
*1774 FILLER_29_113
*1775 FILLER_29_116
*1776 FILLER_29_119
*1777 FILLER_29_164
*1778 FILLER_29_167
*1779 FILLER_29_169
*1780 FILLER_29_177
*1781 FILLER_29_19
*1782 FILLER_29_210
*1783 FILLER_29_213
*1784 FILLER_29_22
*1785 FILLER_29_221
*1786 FILLER_29_225
*1787 FILLER_29_228
*1788 FILLER_29_231
*1789 FILLER_29_240
*1790 FILLER_29_243
*1791 FILLER_29_246
*1792 FILLER_29_249
*1793 FILLER_29_252
*1794 FILLER_29_255
*1795 FILLER_29_258
*1796 FILLER_29_261
*1797 FILLER_29_281
*1798 FILLER_29_3
*1799 FILLER_29_54
*1800 FILLER_29_57
*1801 FILLER_29_6
*1802 FILLER_29_9
*1803 FILLER_2_130
*1804 FILLER_2_141
*1805 FILLER_2_144
*1806 FILLER_2_147
*1807 FILLER_2_157
*1808 FILLER_2_160
*1809 FILLER_2_194
*1810 FILLER_2_251
*1811 FILLER_2_3
*1812 FILLER_2_300
*1813 FILLER_2_303
*1814 FILLER_2_38
*1815 FILLER_2_41
*1816 FILLER_2_6
*1817 FILLER_2_85
*1818 FILLER_30_100
*1819 FILLER_30_103
*1820 FILLER_30_106
*1821 FILLER_30_109
*1822 FILLER_30_112
*1823 FILLER_30_139
*1824 FILLER_30_160
*1825 FILLER_30_163
*1826 FILLER_30_166
*1827 FILLER_30_169
*1828 FILLER_30_172
*1829 FILLER_30_175
*1830 FILLER_30_178
*1831 FILLER_30_189
*1832 FILLER_30_197
*1833 FILLER_30_200
*1834 FILLER_30_222
*1835 FILLER_30_225
*1836 FILLER_30_228
*1837 FILLER_30_231
*1838 FILLER_30_239
*1839 FILLER_30_247
*1840 FILLER_30_250
*1841 FILLER_30_253
*1842 FILLER_30_256
*1843 FILLER_30_259
*1844 FILLER_30_26
*1845 FILLER_30_276
*1846 FILLER_30_3
*1847 FILLER_30_40
*1848 FILLER_30_51
*1849 FILLER_30_54
*1850 FILLER_30_6
*1851 FILLER_30_80
*1852 FILLER_30_85
*1853 FILLER_30_97
*1854 FILLER_31_100
*1855 FILLER_31_103
*1856 FILLER_31_134
*1857 FILLER_31_137
*1858 FILLER_31_160
*1859 FILLER_31_169
*1860 FILLER_31_172
*1861 FILLER_31_175
*1862 FILLER_31_178
*1863 FILLER_31_181
*1864 FILLER_31_184
*1865 FILLER_31_187
*1866 FILLER_31_215
*1867 FILLER_31_218
*1868 FILLER_31_221
*1869 FILLER_31_246
*1870 FILLER_31_249
*1871 FILLER_31_252
*1872 FILLER_31_255
*1873 FILLER_31_258
*1874 FILLER_31_261
*1875 FILLER_31_264
*1876 FILLER_31_275
*1877 FILLER_31_278
*1878 FILLER_31_289
*1879 FILLER_31_3
*1880 FILLER_31_301
*1881 FILLER_31_304
*1882 FILLER_31_307
*1883 FILLER_31_32
*1884 FILLER_31_55
*1885 FILLER_31_57
*1886 FILLER_31_6
*1887 FILLER_31_60
*1888 FILLER_31_91
*1889 FILLER_31_94
*1890 FILLER_31_97
*1891 FILLER_32_134
*1892 FILLER_32_162
*1893 FILLER_32_171
*1894 FILLER_32_174
*1895 FILLER_32_177
*1896 FILLER_32_180
*1897 FILLER_32_197
*1898 FILLER_32_219
*1899 FILLER_32_222
*1900 FILLER_32_248
*1901 FILLER_32_251
*1902 FILLER_32_253
*1903 FILLER_32_256
*1904 FILLER_32_259
*1905 FILLER_32_262
*1906 FILLER_32_294
*1907 FILLER_32_3
*1908 FILLER_32_304
*1909 FILLER_32_307
*1910 FILLER_32_37
*1911 FILLER_32_40
*1912 FILLER_32_49
*1913 FILLER_32_59
*1914 FILLER_32_62
*1915 FILLER_32_70
*1916 FILLER_32_93
*1917 FILLER_32_96
*1918 FILLER_33_128
*1919 FILLER_33_131
*1920 FILLER_33_177
*1921 FILLER_33_221
*1922 FILLER_33_24
*1923 FILLER_33_253
*1924 FILLER_33_256
*1925 FILLER_33_259
*1926 FILLER_33_262
*1927 FILLER_33_275
*1928 FILLER_33_289
*1929 FILLER_33_292
*1930 FILLER_33_3
*1931 FILLER_33_48
*1932 FILLER_33_51
*1933 FILLER_33_54
*1934 FILLER_33_57
*1935 FILLER_33_60
*1936 FILLER_33_69
*1937 FILLER_34_100
*1938 FILLER_34_132
*1939 FILLER_34_141
*1940 FILLER_34_171
*1941 FILLER_34_195
*1942 FILLER_34_197
*1943 FILLER_34_226
*1944 FILLER_34_24
*1945 FILLER_34_251
*1946 FILLER_34_253
*1947 FILLER_34_256
*1948 FILLER_34_259
*1949 FILLER_34_262
*1950 FILLER_34_27
*1951 FILLER_34_280
*1952 FILLER_34_29
*1953 FILLER_34_290
*1954 FILLER_34_3
*1955 FILLER_34_53
*1956 FILLER_34_6
*1957 FILLER_34_69
*1958 FILLER_34_72
*1959 FILLER_34_75
*1960 FILLER_35_107
*1961 FILLER_35_110
*1962 FILLER_35_113
*1963 FILLER_35_128
*1964 FILLER_35_131
*1965 FILLER_35_134
*1966 FILLER_35_137
*1967 FILLER_35_140
*1968 FILLER_35_163
*1969 FILLER_35_166
*1970 FILLER_35_169
*1971 FILLER_35_172
*1972 FILLER_35_175
*1973 FILLER_35_178
*1974 FILLER_35_221
*1975 FILLER_35_230
*1976 FILLER_35_233
*1977 FILLER_35_241
*1978 FILLER_35_260
*1979 FILLER_35_263
*1980 FILLER_35_281
*1981 FILLER_35_3
*1982 FILLER_35_303
*1983 FILLER_35_306
*1984 FILLER_35_32
*1985 FILLER_35_57
*1986 FILLER_35_79
*1987 FILLER_36_116
*1988 FILLER_36_138
*1989 FILLER_36_141
*1990 FILLER_36_144
*1991 FILLER_36_161
*1992 FILLER_36_164
*1993 FILLER_36_167
*1994 FILLER_36_170
*1995 FILLER_36_173
*1996 FILLER_36_176
*1997 FILLER_36_179
*1998 FILLER_36_182
*1999 FILLER_36_185
*2000 FILLER_36_213
*2001 FILLER_36_216
*2002 FILLER_36_219
*2003 FILLER_36_222
*2004 FILLER_36_225
*2005 FILLER_36_228
*2006 FILLER_36_234
*2007 FILLER_36_237
*2008 FILLER_36_240
*2009 FILLER_36_243
*2010 FILLER_36_246
*2011 FILLER_36_249
*2012 FILLER_36_25
*2013 FILLER_36_253
*2014 FILLER_36_256
*2015 FILLER_36_259
*2016 FILLER_36_301
*2017 FILLER_36_304
*2018 FILLER_36_307
*2019 FILLER_36_67
*2020 FILLER_36_70
*2021 FILLER_36_79
*2022 FILLER_36_82
*2023 FILLER_36_85
*2024 FILLER_37_109
*2025 FILLER_37_113
*2026 FILLER_37_116
*2027 FILLER_37_138
*2028 FILLER_37_141
*2029 FILLER_37_158
*2030 FILLER_37_166
*2031 FILLER_37_169
*2032 FILLER_37_172
*2033 FILLER_37_175
*2034 FILLER_37_178
*2035 FILLER_37_181
*2036 FILLER_37_184
*2037 FILLER_37_187
*2038 FILLER_37_217
*2039 FILLER_37_220
*2040 FILLER_37_223
*2041 FILLER_37_225
*2042 FILLER_37_233
*2043 FILLER_37_236
*2044 FILLER_37_245
*2045 FILLER_37_248
*2046 FILLER_37_251
*2047 FILLER_37_254
*2048 FILLER_37_257
*2049 FILLER_37_260
*2050 FILLER_37_279
*2051 FILLER_37_3
*2052 FILLER_37_302
*2053 FILLER_37_305
*2054 FILLER_37_46
*2055 FILLER_37_57
*2056 FILLER_37_6
*2057 FILLER_37_67
*2058 FILLER_37_70
*2059 FILLER_37_73
*2060 FILLER_37_96
*2061 FILLER_37_99
*2062 FILLER_38_104
*2063 FILLER_38_107
*2064 FILLER_38_130
*2065 FILLER_38_144
*2066 FILLER_38_147
*2067 FILLER_38_156
*2068 FILLER_38_159
*2069 FILLER_38_175
*2070 FILLER_38_178
*2071 FILLER_38_181
*2072 FILLER_38_184
*2073 FILLER_38_192
*2074 FILLER_38_195
*2075 FILLER_38_197
*2076 FILLER_38_25
*2077 FILLER_38_250
*2078 FILLER_38_253
*2079 FILLER_38_256
*2080 FILLER_38_259
*2081 FILLER_38_262
*2082 FILLER_38_265
*2083 FILLER_38_268
*2084 FILLER_38_276
*2085 FILLER_38_285
*2086 FILLER_38_288
*2087 FILLER_38_298
*2088 FILLER_38_3
*2089 FILLER_38_301
*2090 FILLER_38_304
*2091 FILLER_38_307
*2092 FILLER_38_37
*2093 FILLER_38_58
*2094 FILLER_38_6
*2095 FILLER_38_61
*2096 FILLER_38_64
*2097 FILLER_38_67
*2098 FILLER_38_85
*2099 FILLER_38_88
*2100 FILLER_39_111
*2101 FILLER_39_17
*2102 FILLER_39_177
*2103 FILLER_39_199
*2104 FILLER_39_20
*2105 FILLER_39_210
*2106 FILLER_39_213
*2107 FILLER_39_216
*2108 FILLER_39_219
*2109 FILLER_39_222
*2110 FILLER_39_225
*2111 FILLER_39_233
*2112 FILLER_39_250
*2113 FILLER_39_253
*2114 FILLER_39_256
*2115 FILLER_39_259
*2116 FILLER_39_262
*2117 FILLER_39_265
*2118 FILLER_39_268
*2119 FILLER_39_271
*2120 FILLER_39_274
*2121 FILLER_39_281
*2122 FILLER_39_284
*2123 FILLER_39_287
*2124 FILLER_39_290
*2125 FILLER_39_293
*2126 FILLER_39_296
*2127 FILLER_39_299
*2128 FILLER_39_3
*2129 FILLER_39_302
*2130 FILLER_39_305
*2131 FILLER_39_54
*2132 FILLER_39_57
*2133 FILLER_39_6
*2134 FILLER_39_60
*2135 FILLER_3_242
*2136 FILLER_3_278
*2137 FILLER_3_289
*2138 FILLER_3_299
*2139 FILLER_3_32
*2140 FILLER_3_35
*2141 FILLER_3_57
*2142 FILLER_3_6
*2143 FILLER_3_9
*2144 FILLER_40_106
*2145 FILLER_40_129
*2146 FILLER_40_132
*2147 FILLER_40_169
*2148 FILLER_40_172
*2149 FILLER_40_197
*2150 FILLER_40_206
*2151 FILLER_40_209
*2152 FILLER_40_212
*2153 FILLER_40_215
*2154 FILLER_40_218
*2155 FILLER_40_221
*2156 FILLER_40_224
*2157 FILLER_40_227
*2158 FILLER_40_230
*2159 FILLER_40_233
*2160 FILLER_40_250
*2161 FILLER_40_253
*2162 FILLER_40_256
*2163 FILLER_40_259
*2164 FILLER_40_26
*2165 FILLER_40_262
*2166 FILLER_40_265
*2167 FILLER_40_268
*2168 FILLER_40_285
*2169 FILLER_40_288
*2170 FILLER_40_291
*2171 FILLER_40_3
*2172 FILLER_40_300
*2173 FILLER_40_303
*2174 FILLER_40_306
*2175 FILLER_40_64
*2176 FILLER_40_67
*2177 FILLER_40_93
*2178 FILLER_40_96
*2179 FILLER_41_100
*2180 FILLER_41_103
*2181 FILLER_41_106
*2182 FILLER_41_109
*2183 FILLER_41_113
*2184 FILLER_41_122
*2185 FILLER_41_137
*2186 FILLER_41_140
*2187 FILLER_41_154
*2188 FILLER_41_157
*2189 FILLER_41_160
*2190 FILLER_41_163
*2191 FILLER_41_166
*2192 FILLER_41_177
*2193 FILLER_41_180
*2194 FILLER_41_207
*2195 FILLER_41_210
*2196 FILLER_41_213
*2197 FILLER_41_216
*2198 FILLER_41_219
*2199 FILLER_41_222
*2200 FILLER_41_225
*2201 FILLER_41_228
*2202 FILLER_41_231
*2203 FILLER_41_255
*2204 FILLER_41_258
*2205 FILLER_41_276
*2206 FILLER_41_279
*2207 FILLER_41_302
*2208 FILLER_41_305
*2209 FILLER_41_70
*2210 FILLER_41_94
*2211 FILLER_41_97
*2212 FILLER_42_102
*2213 FILLER_42_105
*2214 FILLER_42_108
*2215 FILLER_42_111
*2216 FILLER_42_114
*2217 FILLER_42_117
*2218 FILLER_42_120
*2219 FILLER_42_123
*2220 FILLER_42_126
*2221 FILLER_42_129
*2222 FILLER_42_132
*2223 FILLER_42_135
*2224 FILLER_42_138
*2225 FILLER_42_141
*2226 FILLER_42_144
*2227 FILLER_42_147
*2228 FILLER_42_150
*2229 FILLER_42_153
*2230 FILLER_42_156
*2231 FILLER_42_159
*2232 FILLER_42_162
*2233 FILLER_42_165
*2234 FILLER_42_168
*2235 FILLER_42_171
*2236 FILLER_42_174
*2237 FILLER_42_177
*2238 FILLER_42_187
*2239 FILLER_42_205
*2240 FILLER_42_208
*2241 FILLER_42_224
*2242 FILLER_42_227
*2243 FILLER_42_240
*2244 FILLER_42_243
*2245 FILLER_42_253
*2246 FILLER_42_26
*2247 FILLER_42_307
*2248 FILLER_42_36
*2249 FILLER_42_39
*2250 FILLER_42_42
*2251 FILLER_42_45
*2252 FILLER_42_61
*2253 FILLER_42_64
*2254 FILLER_42_67
*2255 FILLER_42_70
*2256 FILLER_42_73
*2257 FILLER_42_76
*2258 FILLER_42_90
*2259 FILLER_42_93
*2260 FILLER_42_96
*2261 FILLER_42_99
*2262 FILLER_43_102
*2263 FILLER_43_105
*2264 FILLER_43_108
*2265 FILLER_43_11
*2266 FILLER_43_111
*2267 FILLER_43_120
*2268 FILLER_43_123
*2269 FILLER_43_126
*2270 FILLER_43_148
*2271 FILLER_43_157
*2272 FILLER_43_165
*2273 FILLER_43_169
*2274 FILLER_43_172
*2275 FILLER_43_175
*2276 FILLER_43_178
*2277 FILLER_43_195
*2278 FILLER_43_198
*2279 FILLER_43_201
*2280 FILLER_43_225
*2281 FILLER_43_228
*2282 FILLER_43_244
*2283 FILLER_43_26
*2284 FILLER_43_279
*2285 FILLER_43_29
*2286 FILLER_43_295
*2287 FILLER_43_298
*2288 FILLER_43_301
*2289 FILLER_43_304
*2290 FILLER_43_307
*2291 FILLER_43_32
*2292 FILLER_43_35
*2293 FILLER_43_38
*2294 FILLER_43_41
*2295 FILLER_43_44
*2296 FILLER_43_54
*2297 FILLER_43_57
*2298 FILLER_43_60
*2299 FILLER_43_63
*2300 FILLER_43_66
*2301 FILLER_43_69
*2302 FILLER_43_72
*2303 FILLER_43_75
*2304 FILLER_43_78
*2305 FILLER_43_81
*2306 FILLER_43_84
*2307 FILLER_43_87
*2308 FILLER_43_90
*2309 FILLER_43_93
*2310 FILLER_43_96
*2311 FILLER_43_99
*2312 FILLER_44_138
*2313 FILLER_44_148
*2314 FILLER_44_170
*2315 FILLER_44_194
*2316 FILLER_44_197
*2317 FILLER_44_200
*2318 FILLER_44_250
*2319 FILLER_44_258
*2320 FILLER_44_26
*2321 FILLER_44_261
*2322 FILLER_44_271
*2323 FILLER_44_302
*2324 FILLER_44_305
*2325 FILLER_44_34
*2326 FILLER_44_58
*2327 FILLER_44_74
*2328 FILLER_44_77
*2329 FILLER_44_80
*2330 FILLER_44_83
*2331 FILLER_44_85
*2332 FILLER_44_88
*2333 FILLER_44_96
*2334 FILLER_44_99
*2335 FILLER_45_106
*2336 FILLER_45_109
*2337 FILLER_45_113
*2338 FILLER_45_116
*2339 FILLER_45_142
*2340 FILLER_45_152
*2341 FILLER_45_155
*2342 FILLER_45_158
*2343 FILLER_45_161
*2344 FILLER_45_166
*2345 FILLER_45_169
*2346 FILLER_45_186
*2347 FILLER_45_189
*2348 FILLER_45_192
*2349 FILLER_45_195
*2350 FILLER_45_198
*2351 FILLER_45_201
*2352 FILLER_45_222
*2353 FILLER_45_233
*2354 FILLER_45_236
*2355 FILLER_45_246
*2356 FILLER_45_249
*2357 FILLER_45_252
*2358 FILLER_45_255
*2359 FILLER_45_258
*2360 FILLER_45_261
*2361 FILLER_45_271
*2362 FILLER_45_274
*2363 FILLER_45_277
*2364 FILLER_45_288
*2365 FILLER_45_291
*2366 FILLER_45_300
*2367 FILLER_45_303
*2368 FILLER_45_306
*2369 FILLER_45_40
*2370 FILLER_45_43
*2371 FILLER_45_46
*2372 FILLER_45_49
*2373 FILLER_45_52
*2374 FILLER_45_55
*2375 FILLER_45_57
*2376 FILLER_45_77
*2377 FILLER_45_80
*2378 FILLER_45_83
*2379 FILLER_46_104
*2380 FILLER_46_110
*2381 FILLER_46_141
*2382 FILLER_46_149
*2383 FILLER_46_152
*2384 FILLER_46_155
*2385 FILLER_46_158
*2386 FILLER_46_161
*2387 FILLER_46_192
*2388 FILLER_46_195
*2389 FILLER_46_197
*2390 FILLER_46_200
*2391 FILLER_46_203
*2392 FILLER_46_206
*2393 FILLER_46_209
*2394 FILLER_46_212
*2395 FILLER_46_220
*2396 FILLER_46_223
*2397 FILLER_46_226
*2398 FILLER_46_229
*2399 FILLER_46_232
*2400 FILLER_46_235
*2401 FILLER_46_238
*2402 FILLER_46_241
*2403 FILLER_46_244
*2404 FILLER_46_247
*2405 FILLER_46_250
*2406 FILLER_46_253
*2407 FILLER_46_256
*2408 FILLER_46_26
*2409 FILLER_46_287
*2410 FILLER_46_29
*2411 FILLER_46_290
*2412 FILLER_46_293
*2413 FILLER_46_296
*2414 FILLER_46_299
*2415 FILLER_46_302
*2416 FILLER_46_305
*2417 FILLER_46_44
*2418 FILLER_46_47
*2419 FILLER_46_50
*2420 FILLER_46_53
*2421 FILLER_46_68
*2422 FILLER_46_71
*2423 FILLER_46_74
*2424 FILLER_46_78
*2425 FILLER_46_81
*2426 FILLER_46_85
*2427 FILLER_46_93
*2428 FILLER_47_111
*2429 FILLER_47_113
*2430 FILLER_47_116
*2431 FILLER_47_129
*2432 FILLER_47_132
*2433 FILLER_47_141
*2434 FILLER_47_144
*2435 FILLER_47_147
*2436 FILLER_47_150
*2437 FILLER_47_153
*2438 FILLER_47_156
*2439 FILLER_47_159
*2440 FILLER_47_162
*2441 FILLER_47_165
*2442 FILLER_47_175
*2443 FILLER_47_178
*2444 FILLER_47_181
*2445 FILLER_47_184
*2446 FILLER_47_187
*2447 FILLER_47_190
*2448 FILLER_47_193
*2449 FILLER_47_196
*2450 FILLER_47_199
*2451 FILLER_47_202
*2452 FILLER_47_205
*2453 FILLER_47_208
*2454 FILLER_47_211
*2455 FILLER_47_214
*2456 FILLER_47_217
*2457 FILLER_47_220
*2458 FILLER_47_223
*2459 FILLER_47_225
*2460 FILLER_47_228
*2461 FILLER_47_231
*2462 FILLER_47_234
*2463 FILLER_47_237
*2464 FILLER_47_240
*2465 FILLER_47_243
*2466 FILLER_47_246
*2467 FILLER_47_249
*2468 FILLER_47_252
*2469 FILLER_47_255
*2470 FILLER_47_258
*2471 FILLER_47_261
*2472 FILLER_47_264
*2473 FILLER_47_274
*2474 FILLER_47_277
*2475 FILLER_47_281
*2476 FILLER_47_284
*2477 FILLER_47_287
*2478 FILLER_47_290
*2479 FILLER_47_293
*2480 FILLER_47_296
*2481 FILLER_47_299
*2482 FILLER_47_3
*2483 FILLER_47_302
*2484 FILLER_47_305
*2485 FILLER_47_42
*2486 FILLER_47_45
*2487 FILLER_47_57
*2488 FILLER_47_6
*2489 FILLER_47_95
*2490 FILLER_48_106
*2491 FILLER_48_11
*2492 FILLER_48_136
*2493 FILLER_48_139
*2494 FILLER_48_14
*2495 FILLER_48_141
*2496 FILLER_48_144
*2497 FILLER_48_147
*2498 FILLER_48_150
*2499 FILLER_48_153
*2500 FILLER_48_156
*2501 FILLER_48_159
*2502 FILLER_48_162
*2503 FILLER_48_165
*2504 FILLER_48_168
*2505 FILLER_48_171
*2506 FILLER_48_174
*2507 FILLER_48_177
*2508 FILLER_48_180
*2509 FILLER_48_183
*2510 FILLER_48_186
*2511 FILLER_48_189
*2512 FILLER_48_192
*2513 FILLER_48_195
*2514 FILLER_48_197
*2515 FILLER_48_200
*2516 FILLER_48_203
*2517 FILLER_48_206
*2518 FILLER_48_209
*2519 FILLER_48_212
*2520 FILLER_48_215
*2521 FILLER_48_218
*2522 FILLER_48_221
*2523 FILLER_48_224
*2524 FILLER_48_227
*2525 FILLER_48_230
*2526 FILLER_48_233
*2527 FILLER_48_236
*2528 FILLER_48_239
*2529 FILLER_48_242
*2530 FILLER_48_245
*2531 FILLER_48_248
*2532 FILLER_48_251
*2533 FILLER_48_253
*2534 FILLER_48_256
*2535 FILLER_48_259
*2536 FILLER_48_262
*2537 FILLER_48_265
*2538 FILLER_48_268
*2539 FILLER_48_271
*2540 FILLER_48_274
*2541 FILLER_48_277
*2542 FILLER_48_280
*2543 FILLER_48_283
*2544 FILLER_48_286
*2545 FILLER_48_289
*2546 FILLER_48_29
*2547 FILLER_48_292
*2548 FILLER_48_295
*2549 FILLER_48_298
*2550 FILLER_48_301
*2551 FILLER_48_304
*2552 FILLER_48_307
*2553 FILLER_48_39
*2554 FILLER_48_71
*2555 FILLER_48_74
*2556 FILLER_49_102
*2557 FILLER_49_105
*2558 FILLER_49_108
*2559 FILLER_49_111
*2560 FILLER_49_113
*2561 FILLER_49_142
*2562 FILLER_49_145
*2563 FILLER_49_148
*2564 FILLER_49_151
*2565 FILLER_49_154
*2566 FILLER_49_157
*2567 FILLER_49_160
*2568 FILLER_49_163
*2569 FILLER_49_166
*2570 FILLER_49_169
*2571 FILLER_49_172
*2572 FILLER_49_175
*2573 FILLER_49_178
*2574 FILLER_49_181
*2575 FILLER_49_184
*2576 FILLER_49_187
*2577 FILLER_49_190
*2578 FILLER_49_193
*2579 FILLER_49_196
*2580 FILLER_49_199
*2581 FILLER_49_202
*2582 FILLER_49_205
*2583 FILLER_49_208
*2584 FILLER_49_211
*2585 FILLER_49_214
*2586 FILLER_49_217
*2587 FILLER_49_220
*2588 FILLER_49_223
*2589 FILLER_49_225
*2590 FILLER_49_228
*2591 FILLER_49_231
*2592 FILLER_49_234
*2593 FILLER_49_237
*2594 FILLER_49_240
*2595 FILLER_49_243
*2596 FILLER_49_246
*2597 FILLER_49_249
*2598 FILLER_49_252
*2599 FILLER_49_255
*2600 FILLER_49_258
*2601 FILLER_49_261
*2602 FILLER_49_264
*2603 FILLER_49_267
*2604 FILLER_49_270
*2605 FILLER_49_273
*2606 FILLER_49_276
*2607 FILLER_49_279
*2608 FILLER_49_281
*2609 FILLER_49_284
*2610 FILLER_49_287
*2611 FILLER_49_290
*2612 FILLER_49_293
*2613 FILLER_49_296
*2614 FILLER_49_299
*2615 FILLER_49_302
*2616 FILLER_49_305
*2617 FILLER_49_44
*2618 FILLER_49_70
*2619 FILLER_49_73
*2620 FILLER_49_76
*2621 FILLER_49_99
*2622 FILLER_4_101
*2623 FILLER_4_120
*2624 FILLER_4_123
*2625 FILLER_4_126
*2626 FILLER_4_129
*2627 FILLER_4_141
*2628 FILLER_4_144
*2629 FILLER_4_182
*2630 FILLER_4_185
*2631 FILLER_4_195
*2632 FILLER_4_204
*2633 FILLER_4_240
*2634 FILLER_4_249
*2635 FILLER_4_25
*2636 FILLER_4_261
*2637 FILLER_4_29
*2638 FILLER_4_3
*2639 FILLER_4_304
*2640 FILLER_4_307
*2641 FILLER_4_69
*2642 FILLER_4_78
*2643 FILLER_4_81
*2644 FILLER_50_100
*2645 FILLER_50_103
*2646 FILLER_50_106
*2647 FILLER_50_109
*2648 FILLER_50_133
*2649 FILLER_50_136
*2650 FILLER_50_139
*2651 FILLER_50_141
*2652 FILLER_50_144
*2653 FILLER_50_147
*2654 FILLER_50_150
*2655 FILLER_50_153
*2656 FILLER_50_156
*2657 FILLER_50_159
*2658 FILLER_50_162
*2659 FILLER_50_165
*2660 FILLER_50_168
*2661 FILLER_50_171
*2662 FILLER_50_174
*2663 FILLER_50_177
*2664 FILLER_50_180
*2665 FILLER_50_183
*2666 FILLER_50_186
*2667 FILLER_50_189
*2668 FILLER_50_192
*2669 FILLER_50_195
*2670 FILLER_50_197
*2671 FILLER_50_200
*2672 FILLER_50_203
*2673 FILLER_50_206
*2674 FILLER_50_209
*2675 FILLER_50_212
*2676 FILLER_50_215
*2677 FILLER_50_218
*2678 FILLER_50_221
*2679 FILLER_50_224
*2680 FILLER_50_227
*2681 FILLER_50_23
*2682 FILLER_50_230
*2683 FILLER_50_233
*2684 FILLER_50_236
*2685 FILLER_50_239
*2686 FILLER_50_242
*2687 FILLER_50_245
*2688 FILLER_50_248
*2689 FILLER_50_251
*2690 FILLER_50_253
*2691 FILLER_50_256
*2692 FILLER_50_259
*2693 FILLER_50_26
*2694 FILLER_50_262
*2695 FILLER_50_265
*2696 FILLER_50_268
*2697 FILLER_50_271
*2698 FILLER_50_274
*2699 FILLER_50_277
*2700 FILLER_50_280
*2701 FILLER_50_283
*2702 FILLER_50_286
*2703 FILLER_50_289
*2704 FILLER_50_292
*2705 FILLER_50_295
*2706 FILLER_50_298
*2707 FILLER_50_3
*2708 FILLER_50_301
*2709 FILLER_50_304
*2710 FILLER_50_307
*2711 FILLER_50_50
*2712 FILLER_50_53
*2713 FILLER_50_56
*2714 FILLER_50_59
*2715 FILLER_50_62
*2716 FILLER_50_65
*2717 FILLER_50_68
*2718 FILLER_50_71
*2719 FILLER_50_74
*2720 FILLER_50_77
*2721 FILLER_50_80
*2722 FILLER_50_83
*2723 FILLER_51_100
*2724 FILLER_51_103
*2725 FILLER_51_106
*2726 FILLER_51_109
*2727 FILLER_51_11
*2728 FILLER_51_113
*2729 FILLER_51_116
*2730 FILLER_51_119
*2731 FILLER_51_122
*2732 FILLER_51_125
*2733 FILLER_51_134
*2734 FILLER_51_137
*2735 FILLER_51_14
*2736 FILLER_51_141
*2737 FILLER_51_144
*2738 FILLER_51_147
*2739 FILLER_51_150
*2740 FILLER_51_153
*2741 FILLER_51_156
*2742 FILLER_51_159
*2743 FILLER_51_162
*2744 FILLER_51_165
*2745 FILLER_51_169
*2746 FILLER_51_17
*2747 FILLER_51_172
*2748 FILLER_51_175
*2749 FILLER_51_178
*2750 FILLER_51_181
*2751 FILLER_51_184
*2752 FILLER_51_187
*2753 FILLER_51_190
*2754 FILLER_51_193
*2755 FILLER_51_197
*2756 FILLER_51_20
*2757 FILLER_51_200
*2758 FILLER_51_203
*2759 FILLER_51_206
*2760 FILLER_51_209
*2761 FILLER_51_212
*2762 FILLER_51_215
*2763 FILLER_51_218
*2764 FILLER_51_221
*2765 FILLER_51_225
*2766 FILLER_51_228
*2767 FILLER_51_23
*2768 FILLER_51_231
*2769 FILLER_51_234
*2770 FILLER_51_237
*2771 FILLER_51_240
*2772 FILLER_51_243
*2773 FILLER_51_246
*2774 FILLER_51_249
*2775 FILLER_51_253
*2776 FILLER_51_256
*2777 FILLER_51_259
*2778 FILLER_51_26
*2779 FILLER_51_262
*2780 FILLER_51_265
*2781 FILLER_51_268
*2782 FILLER_51_271
*2783 FILLER_51_274
*2784 FILLER_51_277
*2785 FILLER_51_281
*2786 FILLER_51_284
*2787 FILLER_51_287
*2788 FILLER_51_29
*2789 FILLER_51_290
*2790 FILLER_51_293
*2791 FILLER_51_296
*2792 FILLER_51_299
*2793 FILLER_51_3
*2794 FILLER_51_302
*2795 FILLER_51_305
*2796 FILLER_51_46
*2797 FILLER_51_49
*2798 FILLER_51_52
*2799 FILLER_51_55
*2800 FILLER_51_57
*2801 FILLER_51_60
*2802 FILLER_51_63
*2803 FILLER_51_66
*2804 FILLER_51_69
*2805 FILLER_51_72
*2806 FILLER_51_75
*2807 FILLER_51_78
*2808 FILLER_51_81
*2809 FILLER_51_97
*2810 FILLER_5_100
*2811 FILLER_5_108
*2812 FILLER_5_111
*2813 FILLER_5_120
*2814 FILLER_5_123
*2815 FILLER_5_146
*2816 FILLER_5_149
*2817 FILLER_5_167
*2818 FILLER_5_169
*2819 FILLER_5_172
*2820 FILLER_5_18
*2821 FILLER_5_203
*2822 FILLER_5_27
*2823 FILLER_5_281
*2824 FILLER_5_3
*2825 FILLER_5_30
*2826 FILLER_5_39
*2827 FILLER_5_91
*2828 FILLER_6_101
*2829 FILLER_6_104
*2830 FILLER_6_128
*2831 FILLER_6_141
*2832 FILLER_6_144
*2833 FILLER_6_147
*2834 FILLER_6_150
*2835 FILLER_6_153
*2836 FILLER_6_156
*2837 FILLER_6_166
*2838 FILLER_6_19
*2839 FILLER_6_195
*2840 FILLER_6_204
*2841 FILLER_6_251
*2842 FILLER_6_269
*2843 FILLER_6_281
*2844 FILLER_6_284
*2845 FILLER_6_29
*2846 FILLER_6_32
*2847 FILLER_6_54
*2848 FILLER_7_108
*2849 FILLER_7_111
*2850 FILLER_7_113
*2851 FILLER_7_116
*2852 FILLER_7_119
*2853 FILLER_7_122
*2854 FILLER_7_133
*2855 FILLER_7_143
*2856 FILLER_7_146
*2857 FILLER_7_149
*2858 FILLER_7_157
*2859 FILLER_7_160
*2860 FILLER_7_163
*2861 FILLER_7_166
*2862 FILLER_7_169
*2863 FILLER_7_17
*2864 FILLER_7_182
*2865 FILLER_7_192
*2866 FILLER_7_195
*2867 FILLER_7_204
*2868 FILLER_7_220
*2869 FILLER_7_223
*2870 FILLER_7_233
*2871 FILLER_7_263
*2872 FILLER_7_271
*2873 FILLER_7_3
*2874 FILLER_7_307
*2875 FILLER_7_53
*2876 FILLER_7_6
*2877 FILLER_7_65
*2878 FILLER_7_68
*2879 FILLER_7_90
*2880 FILLER_7_99
*2881 FILLER_8_107
*2882 FILLER_8_110
*2883 FILLER_8_113
*2884 FILLER_8_116
*2885 FILLER_8_119
*2886 FILLER_8_12
*2887 FILLER_8_15
*2888 FILLER_8_162
*2889 FILLER_8_165
*2890 FILLER_8_168
*2891 FILLER_8_18
*2892 FILLER_8_180
*2893 FILLER_8_183
*2894 FILLER_8_186
*2895 FILLER_8_197
*2896 FILLER_8_21
*2897 FILLER_8_220
*2898 FILLER_8_223
*2899 FILLER_8_226
*2900 FILLER_8_246
*2901 FILLER_8_249
*2902 FILLER_8_260
*2903 FILLER_8_263
*2904 FILLER_8_266
*2905 FILLER_8_269
*2906 FILLER_8_29
*2907 FILLER_8_3
*2908 FILLER_8_6
*2909 FILLER_8_60
*2910 FILLER_8_70
*2911 FILLER_8_79
*2912 FILLER_8_82
*2913 FILLER_8_85
*2914 FILLER_8_9
*2915 FILLER_9_113
*2916 FILLER_9_12
*2917 FILLER_9_15
*2918 FILLER_9_18
*2919 FILLER_9_191
*2920 FILLER_9_21
*2921 FILLER_9_221
*2922 FILLER_9_225
*2923 FILLER_9_228
*2924 FILLER_9_231
*2925 FILLER_9_234
*2926 FILLER_9_24
*2927 FILLER_9_263
*2928 FILLER_9_266
*2929 FILLER_9_269
*2930 FILLER_9_27
*2931 FILLER_9_272
*2932 FILLER_9_281
*2933 FILLER_9_3
*2934 FILLER_9_303
*2935 FILLER_9_306
*2936 FILLER_9_46
*2937 FILLER_9_6
*2938 FILLER_9_65
*2939 FILLER_9_68
*2940 FILLER_9_71
*2941 FILLER_9_74
*2942 FILLER_9_85
*2943 FILLER_9_88
*2944 FILLER_9_9
*2945 PHY_EDGE_ROW_0_Left_52
*2946 PHY_EDGE_ROW_0_Right_0
*2947 PHY_EDGE_ROW_10_Left_62
*2948 PHY_EDGE_ROW_10_Right_10
*2949 PHY_EDGE_ROW_11_Left_63
*2950 PHY_EDGE_ROW_11_Right_11
*2951 PHY_EDGE_ROW_12_Left_64
*2952 PHY_EDGE_ROW_12_Right_12
*2953 PHY_EDGE_ROW_13_Left_65
*2954 PHY_EDGE_ROW_13_Right_13
*2955 PHY_EDGE_ROW_14_Left_66
*2956 PHY_EDGE_ROW_14_Right_14
*2957 PHY_EDGE_ROW_15_Left_67
*2958 PHY_EDGE_ROW_15_Right_15
*2959 PHY_EDGE_ROW_16_Left_68
*2960 PHY_EDGE_ROW_16_Right_16
*2961 PHY_EDGE_ROW_17_Left_69
*2962 PHY_EDGE_ROW_17_Right_17
*2963 PHY_EDGE_ROW_18_Left_70
*2964 PHY_EDGE_ROW_18_Right_18
*2965 PHY_EDGE_ROW_19_Left_71
*2966 PHY_EDGE_ROW_19_Right_19
*2967 PHY_EDGE_ROW_1_Left_53
*2968 PHY_EDGE_ROW_1_Right_1
*2969 PHY_EDGE_ROW_20_Left_72
*2970 PHY_EDGE_ROW_20_Right_20
*2971 PHY_EDGE_ROW_21_Left_73
*2972 PHY_EDGE_ROW_21_Right_21
*2973 PHY_EDGE_ROW_22_Left_74
*2974 PHY_EDGE_ROW_22_Right_22
*2975 PHY_EDGE_ROW_23_Left_75
*2976 PHY_EDGE_ROW_23_Right_23
*2977 PHY_EDGE_ROW_24_Left_76
*2978 PHY_EDGE_ROW_24_Right_24
*2979 PHY_EDGE_ROW_25_Left_77
*2980 PHY_EDGE_ROW_25_Right_25
*2981 PHY_EDGE_ROW_26_Left_78
*2982 PHY_EDGE_ROW_26_Right_26
*2983 PHY_EDGE_ROW_27_Left_79
*2984 PHY_EDGE_ROW_27_Right_27
*2985 PHY_EDGE_ROW_28_Left_80
*2986 PHY_EDGE_ROW_28_Right_28
*2987 PHY_EDGE_ROW_29_Left_81
*2988 PHY_EDGE_ROW_29_Right_29
*2989 PHY_EDGE_ROW_2_Left_54
*2990 PHY_EDGE_ROW_2_Right_2
*2991 PHY_EDGE_ROW_30_Left_82
*2992 PHY_EDGE_ROW_30_Right_30
*2993 PHY_EDGE_ROW_31_Left_83
*2994 PHY_EDGE_ROW_31_Right_31
*2995 PHY_EDGE_ROW_32_Left_84
*2996 PHY_EDGE_ROW_32_Right_32
*2997 PHY_EDGE_ROW_33_Left_85
*2998 PHY_EDGE_ROW_33_Right_33
*2999 PHY_EDGE_ROW_34_Left_86
*3000 PHY_EDGE_ROW_34_Right_34
*3001 PHY_EDGE_ROW_35_Left_87
*3002 PHY_EDGE_ROW_35_Right_35
*3003 PHY_EDGE_ROW_36_Left_88
*3004 PHY_EDGE_ROW_36_Right_36
*3005 PHY_EDGE_ROW_37_Left_89
*3006 PHY_EDGE_ROW_37_Right_37
*3007 PHY_EDGE_ROW_38_Left_90
*3008 PHY_EDGE_ROW_38_Right_38
*3009 PHY_EDGE_ROW_39_Left_91
*3010 PHY_EDGE_ROW_39_Right_39
*3011 PHY_EDGE_ROW_3_Left_55
*3012 PHY_EDGE_ROW_3_Right_3
*3013 PHY_EDGE_ROW_40_Left_92
*3014 PHY_EDGE_ROW_40_Right_40
*3015 PHY_EDGE_ROW_41_Left_93
*3016 PHY_EDGE_ROW_41_Right_41
*3017 PHY_EDGE_ROW_42_Left_94
*3018 PHY_EDGE_ROW_42_Right_42
*3019 PHY_EDGE_ROW_43_Left_95
*3020 PHY_EDGE_ROW_43_Right_43
*3021 PHY_EDGE_ROW_44_Left_96
*3022 PHY_EDGE_ROW_44_Right_44
*3023 PHY_EDGE_ROW_45_Left_97
*3024 PHY_EDGE_ROW_45_Right_45
*3025 PHY_EDGE_ROW_46_Left_98
*3026 PHY_EDGE_ROW_46_Right_46
*3027 PHY_EDGE_ROW_47_Left_99
*3028 PHY_EDGE_ROW_47_Right_47
*3029 PHY_EDGE_ROW_48_Left_100
*3030 PHY_EDGE_ROW_48_Right_48
*3031 PHY_EDGE_ROW_49_Left_101
*3032 PHY_EDGE_ROW_49_Right_49
*3033 PHY_EDGE_ROW_4_Left_56
*3034 PHY_EDGE_ROW_4_Right_4
*3035 PHY_EDGE_ROW_50_Left_102
*3036 PHY_EDGE_ROW_50_Right_50
*3037 PHY_EDGE_ROW_51_Left_103
*3038 PHY_EDGE_ROW_51_Right_51
*3039 PHY_EDGE_ROW_5_Left_57
*3040 PHY_EDGE_ROW_5_Right_5
*3041 PHY_EDGE_ROW_6_Left_58
*3042 PHY_EDGE_ROW_6_Right_6
*3043 PHY_EDGE_ROW_7_Left_59
*3044 PHY_EDGE_ROW_7_Right_7
*3045 PHY_EDGE_ROW_8_Left_60
*3046 PHY_EDGE_ROW_8_Right_8
*3047 PHY_EDGE_ROW_9_Left_61
*3048 PHY_EDGE_ROW_9_Right_9
*3049 TAP_TAPCELL_ROW_0_104
*3050 TAP_TAPCELL_ROW_0_105
*3051 TAP_TAPCELL_ROW_0_106
*3052 TAP_TAPCELL_ROW_0_107
*3053 TAP_TAPCELL_ROW_0_108
*3054 TAP_TAPCELL_ROW_0_109
*3055 TAP_TAPCELL_ROW_0_110
*3056 TAP_TAPCELL_ROW_0_111
*3057 TAP_TAPCELL_ROW_0_112
*3058 TAP_TAPCELL_ROW_0_113
*3059 TAP_TAPCELL_ROW_10_159
*3060 TAP_TAPCELL_ROW_10_160
*3061 TAP_TAPCELL_ROW_10_161
*3062 TAP_TAPCELL_ROW_10_162
*3063 TAP_TAPCELL_ROW_10_163
*3064 TAP_TAPCELL_ROW_11_164
*3065 TAP_TAPCELL_ROW_11_165
*3066 TAP_TAPCELL_ROW_11_166
*3067 TAP_TAPCELL_ROW_11_167
*3068 TAP_TAPCELL_ROW_11_168
*3069 TAP_TAPCELL_ROW_12_169
*3070 TAP_TAPCELL_ROW_12_170
*3071 TAP_TAPCELL_ROW_12_171
*3072 TAP_TAPCELL_ROW_12_172
*3073 TAP_TAPCELL_ROW_12_173
*3074 TAP_TAPCELL_ROW_13_174
*3075 TAP_TAPCELL_ROW_13_175
*3076 TAP_TAPCELL_ROW_13_176
*3077 TAP_TAPCELL_ROW_13_177
*3078 TAP_TAPCELL_ROW_13_178
*3079 TAP_TAPCELL_ROW_14_179
*3080 TAP_TAPCELL_ROW_14_180
*3081 TAP_TAPCELL_ROW_14_181
*3082 TAP_TAPCELL_ROW_14_182
*3083 TAP_TAPCELL_ROW_14_183
*3084 TAP_TAPCELL_ROW_15_184
*3085 TAP_TAPCELL_ROW_15_185
*3086 TAP_TAPCELL_ROW_15_186
*3087 TAP_TAPCELL_ROW_15_187
*3088 TAP_TAPCELL_ROW_15_188
*3089 TAP_TAPCELL_ROW_16_189
*3090 TAP_TAPCELL_ROW_16_190
*3091 TAP_TAPCELL_ROW_16_191
*3092 TAP_TAPCELL_ROW_16_192
*3093 TAP_TAPCELL_ROW_16_193
*3094 TAP_TAPCELL_ROW_17_194
*3095 TAP_TAPCELL_ROW_17_195
*3096 TAP_TAPCELL_ROW_17_196
*3097 TAP_TAPCELL_ROW_17_197
*3098 TAP_TAPCELL_ROW_17_198
*3099 TAP_TAPCELL_ROW_18_199
*3100 TAP_TAPCELL_ROW_18_200
*3101 TAP_TAPCELL_ROW_18_201
*3102 TAP_TAPCELL_ROW_18_202
*3103 TAP_TAPCELL_ROW_18_203
*3104 TAP_TAPCELL_ROW_19_204
*3105 TAP_TAPCELL_ROW_19_205
*3106 TAP_TAPCELL_ROW_19_206
*3107 TAP_TAPCELL_ROW_19_207
*3108 TAP_TAPCELL_ROW_19_208
*3109 TAP_TAPCELL_ROW_1_114
*3110 TAP_TAPCELL_ROW_1_115
*3111 TAP_TAPCELL_ROW_1_116
*3112 TAP_TAPCELL_ROW_1_117
*3113 TAP_TAPCELL_ROW_1_118
*3114 TAP_TAPCELL_ROW_20_209
*3115 TAP_TAPCELL_ROW_20_210
*3116 TAP_TAPCELL_ROW_20_211
*3117 TAP_TAPCELL_ROW_20_212
*3118 TAP_TAPCELL_ROW_20_213
*3119 TAP_TAPCELL_ROW_21_214
*3120 TAP_TAPCELL_ROW_21_215
*3121 TAP_TAPCELL_ROW_21_216
*3122 TAP_TAPCELL_ROW_21_217
*3123 TAP_TAPCELL_ROW_21_218
*3124 TAP_TAPCELL_ROW_22_219
*3125 TAP_TAPCELL_ROW_22_220
*3126 TAP_TAPCELL_ROW_22_221
*3127 TAP_TAPCELL_ROW_22_222
*3128 TAP_TAPCELL_ROW_22_223
*3129 TAP_TAPCELL_ROW_23_224
*3130 TAP_TAPCELL_ROW_23_225
*3131 TAP_TAPCELL_ROW_23_226
*3132 TAP_TAPCELL_ROW_23_227
*3133 TAP_TAPCELL_ROW_23_228
*3134 TAP_TAPCELL_ROW_24_229
*3135 TAP_TAPCELL_ROW_24_230
*3136 TAP_TAPCELL_ROW_24_231
*3137 TAP_TAPCELL_ROW_24_232
*3138 TAP_TAPCELL_ROW_24_233
*3139 TAP_TAPCELL_ROW_25_234
*3140 TAP_TAPCELL_ROW_25_235
*3141 TAP_TAPCELL_ROW_25_236
*3142 TAP_TAPCELL_ROW_25_237
*3143 TAP_TAPCELL_ROW_25_238
*3144 TAP_TAPCELL_ROW_26_239
*3145 TAP_TAPCELL_ROW_26_240
*3146 TAP_TAPCELL_ROW_26_241
*3147 TAP_TAPCELL_ROW_26_242
*3148 TAP_TAPCELL_ROW_26_243
*3149 TAP_TAPCELL_ROW_27_244
*3150 TAP_TAPCELL_ROW_27_245
*3151 TAP_TAPCELL_ROW_27_246
*3152 TAP_TAPCELL_ROW_27_247
*3153 TAP_TAPCELL_ROW_27_248
*3154 TAP_TAPCELL_ROW_28_249
*3155 TAP_TAPCELL_ROW_28_250
*3156 TAP_TAPCELL_ROW_28_251
*3157 TAP_TAPCELL_ROW_28_252
*3158 TAP_TAPCELL_ROW_28_253
*3159 TAP_TAPCELL_ROW_29_254
*3160 TAP_TAPCELL_ROW_29_255
*3161 TAP_TAPCELL_ROW_29_256
*3162 TAP_TAPCELL_ROW_29_257
*3163 TAP_TAPCELL_ROW_29_258
*3164 TAP_TAPCELL_ROW_2_119
*3165 TAP_TAPCELL_ROW_2_120
*3166 TAP_TAPCELL_ROW_2_121
*3167 TAP_TAPCELL_ROW_2_122
*3168 TAP_TAPCELL_ROW_2_123
*3169 TAP_TAPCELL_ROW_30_259
*3170 TAP_TAPCELL_ROW_30_260
*3171 TAP_TAPCELL_ROW_30_261
*3172 TAP_TAPCELL_ROW_30_262
*3173 TAP_TAPCELL_ROW_30_263
*3174 TAP_TAPCELL_ROW_31_264
*3175 TAP_TAPCELL_ROW_31_265
*3176 TAP_TAPCELL_ROW_31_266
*3177 TAP_TAPCELL_ROW_31_267
*3178 TAP_TAPCELL_ROW_31_268
*3179 TAP_TAPCELL_ROW_32_269
*3180 TAP_TAPCELL_ROW_32_270
*3181 TAP_TAPCELL_ROW_32_271
*3182 TAP_TAPCELL_ROW_32_272
*3183 TAP_TAPCELL_ROW_32_273
*3184 TAP_TAPCELL_ROW_33_274
*3185 TAP_TAPCELL_ROW_33_275
*3186 TAP_TAPCELL_ROW_33_276
*3187 TAP_TAPCELL_ROW_33_277
*3188 TAP_TAPCELL_ROW_33_278
*3189 TAP_TAPCELL_ROW_34_279
*3190 TAP_TAPCELL_ROW_34_280
*3191 TAP_TAPCELL_ROW_34_281
*3192 TAP_TAPCELL_ROW_34_282
*3193 TAP_TAPCELL_ROW_34_283
*3194 TAP_TAPCELL_ROW_35_284
*3195 TAP_TAPCELL_ROW_35_285
*3196 TAP_TAPCELL_ROW_35_286
*3197 TAP_TAPCELL_ROW_35_287
*3198 TAP_TAPCELL_ROW_35_288
*3199 TAP_TAPCELL_ROW_36_289
*3200 TAP_TAPCELL_ROW_36_290
*3201 TAP_TAPCELL_ROW_36_291
*3202 TAP_TAPCELL_ROW_36_292
*3203 TAP_TAPCELL_ROW_36_293
*3204 TAP_TAPCELL_ROW_37_294
*3205 TAP_TAPCELL_ROW_37_295
*3206 TAP_TAPCELL_ROW_37_296
*3207 TAP_TAPCELL_ROW_37_297
*3208 TAP_TAPCELL_ROW_37_298
*3209 TAP_TAPCELL_ROW_38_299
*3210 TAP_TAPCELL_ROW_38_300
*3211 TAP_TAPCELL_ROW_38_301
*3212 TAP_TAPCELL_ROW_38_302
*3213 TAP_TAPCELL_ROW_38_303
*3214 TAP_TAPCELL_ROW_39_304
*3215 TAP_TAPCELL_ROW_39_305
*3216 TAP_TAPCELL_ROW_39_306
*3217 TAP_TAPCELL_ROW_39_307
*3218 TAP_TAPCELL_ROW_39_308
*3219 TAP_TAPCELL_ROW_3_124
*3220 TAP_TAPCELL_ROW_3_125
*3221 TAP_TAPCELL_ROW_3_126
*3222 TAP_TAPCELL_ROW_3_127
*3223 TAP_TAPCELL_ROW_3_128
*3224 TAP_TAPCELL_ROW_40_309
*3225 TAP_TAPCELL_ROW_40_310
*3226 TAP_TAPCELL_ROW_40_311
*3227 TAP_TAPCELL_ROW_40_312
*3228 TAP_TAPCELL_ROW_40_313
*3229 TAP_TAPCELL_ROW_41_314
*3230 TAP_TAPCELL_ROW_41_315
*3231 TAP_TAPCELL_ROW_41_316
*3232 TAP_TAPCELL_ROW_41_317
*3233 TAP_TAPCELL_ROW_41_318
*3234 TAP_TAPCELL_ROW_42_319
*3235 TAP_TAPCELL_ROW_42_320
*3236 TAP_TAPCELL_ROW_42_321
*3237 TAP_TAPCELL_ROW_42_322
*3238 TAP_TAPCELL_ROW_42_323
*3239 TAP_TAPCELL_ROW_43_324
*3240 TAP_TAPCELL_ROW_43_325
*3241 TAP_TAPCELL_ROW_43_326
*3242 TAP_TAPCELL_ROW_43_327
*3243 TAP_TAPCELL_ROW_43_328
*3244 TAP_TAPCELL_ROW_44_329
*3245 TAP_TAPCELL_ROW_44_330
*3246 TAP_TAPCELL_ROW_44_331
*3247 TAP_TAPCELL_ROW_44_332
*3248 TAP_TAPCELL_ROW_44_333
*3249 TAP_TAPCELL_ROW_45_334
*3250 TAP_TAPCELL_ROW_45_335
*3251 TAP_TAPCELL_ROW_45_336
*3252 TAP_TAPCELL_ROW_45_337
*3253 TAP_TAPCELL_ROW_45_338
*3254 TAP_TAPCELL_ROW_46_339
*3255 TAP_TAPCELL_ROW_46_340
*3256 TAP_TAPCELL_ROW_46_341
*3257 TAP_TAPCELL_ROW_46_342
*3258 TAP_TAPCELL_ROW_46_343
*3259 TAP_TAPCELL_ROW_47_344
*3260 TAP_TAPCELL_ROW_47_345
*3261 TAP_TAPCELL_ROW_47_346
*3262 TAP_TAPCELL_ROW_47_347
*3263 TAP_TAPCELL_ROW_47_348
*3264 TAP_TAPCELL_ROW_48_349
*3265 TAP_TAPCELL_ROW_48_350
*3266 TAP_TAPCELL_ROW_48_351
*3267 TAP_TAPCELL_ROW_48_352
*3268 TAP_TAPCELL_ROW_48_353
*3269 TAP_TAPCELL_ROW_49_354
*3270 TAP_TAPCELL_ROW_49_355
*3271 TAP_TAPCELL_ROW_49_356
*3272 TAP_TAPCELL_ROW_49_357
*3273 TAP_TAPCELL_ROW_49_358
*3274 TAP_TAPCELL_ROW_4_129
*3275 TAP_TAPCELL_ROW_4_130
*3276 TAP_TAPCELL_ROW_4_131
*3277 TAP_TAPCELL_ROW_4_132
*3278 TAP_TAPCELL_ROW_4_133
*3279 TAP_TAPCELL_ROW_50_359
*3280 TAP_TAPCELL_ROW_50_360
*3281 TAP_TAPCELL_ROW_50_361
*3282 TAP_TAPCELL_ROW_50_362
*3283 TAP_TAPCELL_ROW_50_363
*3284 TAP_TAPCELL_ROW_51_364
*3285 TAP_TAPCELL_ROW_51_365
*3286 TAP_TAPCELL_ROW_51_366
*3287 TAP_TAPCELL_ROW_51_367
*3288 TAP_TAPCELL_ROW_51_368
*3289 TAP_TAPCELL_ROW_51_369
*3290 TAP_TAPCELL_ROW_51_370
*3291 TAP_TAPCELL_ROW_51_371
*3292 TAP_TAPCELL_ROW_51_372
*3293 TAP_TAPCELL_ROW_51_373
*3294 TAP_TAPCELL_ROW_5_134
*3295 TAP_TAPCELL_ROW_5_135
*3296 TAP_TAPCELL_ROW_5_136
*3297 TAP_TAPCELL_ROW_5_137
*3298 TAP_TAPCELL_ROW_5_138
*3299 TAP_TAPCELL_ROW_6_139
*3300 TAP_TAPCELL_ROW_6_140
*3301 TAP_TAPCELL_ROW_6_141
*3302 TAP_TAPCELL_ROW_6_142
*3303 TAP_TAPCELL_ROW_6_143
*3304 TAP_TAPCELL_ROW_7_144
*3305 TAP_TAPCELL_ROW_7_145
*3306 TAP_TAPCELL_ROW_7_146
*3307 TAP_TAPCELL_ROW_7_147
*3308 TAP_TAPCELL_ROW_7_148
*3309 TAP_TAPCELL_ROW_8_149
*3310 TAP_TAPCELL_ROW_8_150
*3311 TAP_TAPCELL_ROW_8_151
*3312 TAP_TAPCELL_ROW_8_152
*3313 TAP_TAPCELL_ROW_8_153
*3314 TAP_TAPCELL_ROW_9_154
*3315 TAP_TAPCELL_ROW_9_155
*3316 TAP_TAPCELL_ROW_9_156
*3317 TAP_TAPCELL_ROW_9_157
*3318 TAP_TAPCELL_ROW_9_158
*3319 _0533_
*3320 _0534_
*3321 _0535_
*3322 _0536_
*3323 _0537_
*3324 _0538_
*3325 _0539_
*3326 _0540_
*3327 _0541_
*3328 _0542_
*3329 _0543_
*3330 _0544_
*3331 _0545_
*3332 _0546_
*3333 _0547_
*3334 _0548_
*3335 _0549_
*3336 _0550_
*3337 _0551_
*3338 _0552_
*3339 _0553_
*3340 _0554_
*3341 _0555_
*3342 _0556_
*3343 _0557_
*3344 _0558_
*3345 _0559_
*3346 _0560_
*3347 _0561_
*3348 _0562_
*3349 _0563_
*3350 _0564_
*3351 _0565_
*3352 _0566_
*3353 _0567_
*3354 _0568_
*3355 _0569_
*3356 _0570_
*3357 _0571_
*3358 _0572_
*3359 _0573_
*3360 _0574_
*3361 _0575_
*3362 _0576_
*3363 _0577_
*3364 _0578_
*3365 _0579_
*3366 _0580_
*3367 _0581_
*3368 _0582_
*3369 _0583_
*3370 _0584_
*3371 _0585_
*3372 _0586_
*3373 _0587_
*3374 _0588_
*3375 _0589_
*3376 _0590_
*3377 _0591_
*3378 _0592_
*3379 _0593_
*3380 _0594_
*3381 _0595_
*3382 _0596_
*3383 _0597_
*3384 _0598_
*3385 _0599_
*3386 _0600_
*3387 _0601_
*3388 _0602_
*3389 _0603_
*3390 _0604_
*3391 _0605_
*3392 _0606_
*3393 _0607_
*3394 _0608_
*3395 _0609_
*3396 _0610_
*3397 _0611_
*3398 _0612_
*3399 _0613_
*3400 _0614_
*3401 _0615_
*3402 _0616_
*3403 _0617_
*3404 _0618_
*3405 _0619_
*3406 _0620_
*3407 _0621_
*3408 _0622_
*3409 _0623_
*3410 _0624_
*3411 _0625_
*3412 _0626_
*3413 _0627_
*3414 _0628_
*3415 _0629_
*3416 _0630_
*3417 _0631_
*3418 _0632_
*3419 _0633_
*3420 _0634_
*3421 _0635_
*3422 _0636_
*3423 _0637_
*3424 _0638_
*3425 _0639_
*3426 _0640_
*3427 _0641_
*3428 _0642_
*3429 _0643_
*3430 _0644_
*3431 _0645_
*3432 _0646_
*3433 _0647_
*3434 _0648_
*3435 _0649_
*3436 _0650_
*3437 _0651_
*3438 _0652_
*3439 _0653_
*3440 _0654_
*3441 _0655_
*3442 _0656_
*3443 _0657_
*3444 _0658_
*3445 _0659_
*3446 _0660_
*3447 _0661_
*3448 _0662_
*3449 _0663_
*3450 _0664_
*3451 _0665_
*3452 _0666_
*3453 _0667_
*3454 _0668_
*3455 _0669_
*3456 _0670_
*3457 _0671_
*3458 _0672_
*3459 _0673_
*3460 _0674_
*3461 _0675_
*3462 _0676_
*3463 _0677_
*3464 _0678_
*3465 _0679_
*3466 _0680_
*3467 _0681_
*3468 _0682_
*3469 _0683_
*3470 _0684_
*3471 _0685_
*3472 _0686_
*3473 _0687_
*3474 _0688_
*3475 _0689_
*3476 _0690_
*3477 _0691_
*3478 _0692_
*3479 _0693_
*3480 _0694_
*3481 _0695_
*3482 _0696_
*3483 _0697_
*3484 _0698_
*3485 _0699_
*3486 _0700_
*3487 _0701_
*3488 _0702_
*3489 _0703_
*3490 _0704_
*3491 _0705_
*3492 _0706_
*3493 _0707_
*3494 _0708_
*3495 _0709_
*3496 _0710_
*3497 _0711_
*3498 _0712_
*3499 _0713_
*3500 _0714_
*3501 _0715_
*3502 _0716_
*3503 _0717_
*3504 _0718_
*3505 _0719_
*3506 _0720_
*3507 _0721_
*3508 _0722_
*3509 _0723_
*3510 _0724_
*3511 _0725_
*3512 _0726_
*3513 _0727_
*3514 _0728_
*3515 _0729_
*3516 _0730_
*3517 _0731_
*3518 _0732_
*3519 _0733_
*3520 _0734_
*3521 _0735_
*3522 _0736_
*3523 _0737_
*3524 _0738_
*3525 _0739_
*3526 _0740_
*3527 _0741_
*3528 _0742_
*3529 _0743_
*3530 _0744_
*3531 _0745_
*3532 _0746_
*3533 _0747_
*3534 _0748_
*3535 _0749_
*3536 _0750_
*3537 _0751_
*3538 _0752_
*3539 _0753_
*3540 _0754_
*3541 _0755_
*3542 _0756_
*3543 _0757_
*3544 _0758_
*3545 _0759_
*3546 _0760_
*3547 _0761_
*3548 _0762_
*3549 _0763_
*3550 _0764_
*3551 _0765_
*3552 _0766_
*3553 _0767_
*3554 _0768_
*3555 _0769_
*3556 _0770_
*3557 _0771_
*3558 _0772_
*3559 _0773_
*3560 _0774_
*3561 _0775_
*3562 _0776_
*3563 _0777_
*3564 _0778_
*3565 _0779_
*3566 _0780_
*3567 _0781_
*3568 _0782_
*3569 _0783_
*3570 _0784_
*3571 _0785_
*3572 _0786_
*3573 _0787_
*3574 _0788_
*3575 _0789_
*3576 _0790_
*3577 _0791_
*3578 _0792_
*3579 _0793_
*3580 _0794_
*3581 _0795_
*3582 _0796_
*3583 _0797_
*3584 _0798_
*3585 _0799_
*3586 _0800_
*3587 _0801_
*3588 _0802_
*3589 _0803_
*3590 _0804_
*3591 _0805_
*3592 _0806_
*3593 _0807_
*3594 _0808_
*3595 _0809_
*3596 _0810_
*3597 _0811_
*3598 _0812_
*3599 _0813_
*3600 _0814_
*3601 _0815_
*3602 _0816_
*3603 _0817_
*3604 _0818_
*3605 _0819_
*3606 _0820_
*3607 _0821_
*3608 _0822_
*3609 _0823_
*3610 _0824_
*3611 _0825_
*3612 _0826_
*3613 _0827_
*3614 _0828_
*3615 _0829_
*3616 _0830_
*3617 _0831_
*3618 _0832_
*3619 _0833_
*3620 _0834_
*3621 _0835_
*3622 _0836_
*3623 _0837_
*3624 _0838_
*3625 _0839_
*3626 _0840_
*3627 _0841_
*3628 _0842_
*3629 _0843_
*3630 _0844_
*3631 _0845_
*3632 _0846_
*3633 _0847_
*3634 _0848_
*3635 _0849_
*3636 _0850_
*3637 _0851_
*3638 _0852_
*3639 _0853_
*3640 _0854_
*3641 _0855_
*3642 _0856_
*3643 _0857_
*3644 _0858_
*3645 _0859_
*3646 _0860_
*3647 _0861_
*3648 _0862_
*3649 _0863_
*3650 _0864_
*3651 _0865_
*3652 _0866_
*3653 _0867_
*3654 _0868_
*3655 _0869_
*3656 _0870_
*3657 _0871_
*3658 _0872_
*3659 _0873_
*3660 _0874_
*3661 _0875_
*3662 _0876_
*3663 _0877_
*3664 _0878_
*3665 _0879_
*3666 _0880_
*3667 _0881_
*3668 _0882_
*3669 _0883_
*3670 _0884_
*3671 _0885_
*3672 _0886_
*3673 _0887_
*3674 _0888_
*3675 _0889_
*3676 _0890_
*3677 _0891_
*3678 _0892_
*3679 _0893_
*3680 _0894_
*3681 _0895_
*3682 _0896_
*3683 _0897_
*3684 _0898_
*3685 _0899_
*3686 _0900_
*3687 _0901_
*3688 _0902_
*3689 _0903_
*3690 _0904_
*3691 _0905_
*3692 _0906_
*3693 _0907_
*3694 _0908_
*3695 _0909_
*3696 _0910_
*3697 _0911_
*3698 _0912_
*3699 _0913_
*3700 _0914_
*3701 _0915_
*3702 _0916_
*3703 _0917_
*3704 _0918_
*3705 _0919_
*3706 _0920_
*3707 _0921_
*3708 _0922_
*3709 _0923_
*3710 _0924_
*3711 _0925_
*3712 _0926_
*3713 _0927_
*3714 _0928_
*3715 _0929_
*3716 _0930_
*3717 _0931_
*3718 _0932_
*3719 _0933_
*3720 _0934_
*3721 _0935_
*3722 _0936_
*3723 _0937_
*3724 _0938_
*3725 _0939_
*3726 _0940_
*3727 _0941_
*3728 _0942_
*3729 _0943_
*3730 _0944_
*3731 _0945_
*3732 _0946_
*3733 _0947_
*3734 _0948_
*3735 _0949_
*3736 _0950_
*3737 _0951_
*3738 _0952_
*3739 _0953_
*3740 _0954_
*3741 _0955_
*3742 _0956_
*3743 _0957_
*3744 _0958_
*3745 _0959_
*3746 _0960_
*3747 _0961_
*3748 _0962_
*3749 _0963_
*3750 _0964_
*3751 _0965_
*3752 _0966_
*3753 _0967_
*3754 _0968_
*3755 _0969_
*3756 _0970_
*3757 _0971_
*3758 _0972_
*3759 _0973_
*3760 _0974_
*3761 _0975_
*3762 _0976_
*3763 _0977_
*3764 _0978_
*3765 _0979_
*3766 _0980_
*3767 _0981_
*3768 _0982_
*3769 _0983_
*3770 _0984_
*3771 _0985_
*3772 _0986_
*3773 _0987_
*3774 _0988_
*3775 _0989_
*3776 _0990_
*3777 _0991_
*3778 _0992_
*3779 _0993_
*3780 _0994_
*3781 _0995_
*3782 _0996_
*3783 _0997_
*3784 _0998_
*3785 _0999_
*3786 _1000_
*3787 _1001_
*3788 _1002_
*3789 _1003_
*3790 _1004_
*3791 _1005_
*3792 _1006_
*3793 _1007_
*3794 _1008_
*3795 _1009_
*3796 _1010_
*3797 _1011_
*3798 _1012_
*3799 _1013_
*3800 _1014_
*3801 _1015_
*3802 _1016_
*3803 _1017_
*3804 _1018_
*3805 _1019_
*3806 _1020_
*3807 _1021_
*3808 _1022_
*3809 _1023_
*3810 _1024_
*3811 _1025_
*3812 _1026_
*3813 _1027_
*3814 _1028_
*3815 _1029_
*3816 _1030_
*3817 _1031_
*3818 _1032_
*3819 _1033_
*3820 _1034_
*3821 _1035_
*3822 _1036_
*3823 _1037_
*3824 _1038_
*3825 _1039_
*3826 _1040_
*3827 _1041_
*3828 _1042_
*3829 _1043_
*3830 _1044_
*3831 _1045_
*3832 _1046_
*3833 _1047_
*3834 _1048_
*3835 _1049_
*3836 _1050_
*3837 _1051_
*3838 _1052_
*3839 _1053_
*3840 _1054_
*3841 _1055_
*3842 _1056_
*3843 _1057_
*3844 _1058_
*3845 _1059_
*3846 _1060_
*3847 _1061_
*3848 _1062_
*3849 _1063_
*3850 _1064_
*3851 _1065_
*3852 _1066_
*3853 _1067_
*3854 _1068_
*3855 _1069_
*3856 _1070_
*3857 _1071_
*3858 _1072_
*3859 _1073_
*3860 _1074_
*3861 _1075_
*3862 _1076_
*3863 _1077_
*3864 _1078_
*3865 _1079_
*3866 _1080_
*3867 _1081_
*3868 _1082_
*3869 _1083_
*3870 _1084_
*3871 _1085_
*3872 _1086_
*3873 _1087_
*3874 _1088_
*3875 _1089_
*3876 _1090_
*3877 _1091_
*3878 _1092_
*3879 _1093_
*3880 _1094_
*3881 _1095_
*3882 _1096_
*3883 _1097_
*3884 _1098_
*3885 _1099_
*3886 _1100_
*3887 _1101_
*3888 _1102_
*3889 _1103_
*3890 _1104_
*3891 _1105_
*3892 _1106_
*3893 _1107_
*3894 _1108_
*3895 _1109_
*3896 _1110_
*3897 _1111_
*3898 _1112_
*3899 _1113_
*3900 _1114_
*3901 _1115_
*3902 _1116_
*3903 _1117_
*3904 _1118_
*3905 _1119_
*3906 _1120_
*3907 _1121_
*3908 _1122_
*3909 _1123_
*3910 _1124_
*3911 _1125_
*3912 _1126_
*3913 _1127_
*3914 _1128_
*3915 _1129_
*3916 _1130_
*3917 _1131_
*3918 _1132_
*3919 _1133_
*3920 _1134_
*3921 _1135_
*3922 _1136_
*3923 _1137_
*3924 _1138_
*3925 _1139_
*3926 _1140_
*3927 _1141_
*3928 _1142_
*3929 _1143_
*3930 _1144_
*3931 _1145_
*3932 _1146_
*3933 _1147_
*3934 _1148_
*3935 _1149_
*3936 _1150_
*3937 _1151_
*3938 _1152_
*3939 _1153_
*3940 _1154_
*3941 _1155_
*3942 _1156_
*3943 _1157_
*3944 _1158_
*3945 _1159_
*3946 _1160_
*3947 _1161_
*3948 _1162_
*3949 _1163_
*3950 _1164_
*3951 _1165_
*3952 _1166_
*3953 _1167_
*3954 _1168_
*3955 _1169_
*3956 _1170_
*3957 _1171_
*3958 _1172_
*3959 _1173_
*3960 _1174_
*3961 _1175_
*3962 _1176_
*3963 _1177_
*3964 _1178_
*3965 _1179_
*3966 _1180_
*3967 _1181_
*3968 _1182_
*3969 _1183_
*3970 _1184_
*3971 _1185_
*3972 _1186_
*3973 _1187_
*3974 _1188_
*3975 _1189_
*3976 _1190_
*3977 _1191_
*3978 _1192_
*3979 _1193_
*3980 _1194_
*3981 _1195_
*3982 _1196_
*3983 _1197_
*3984 _1198_
*3985 _1199_
*3986 _1200_
*3987 _1201_
*3988 _1202_
*3989 _1203_
*3990 _1204_
*3991 _1205_
*3992 _1206_
*3993 _1207_
*3994 _1208_
*3995 _1209_
*3996 _1210_
*3997 _1211_
*3998 _1212_
*3999 _1213_
*4000 _1214_
*4001 _1215_
*4002 _1216_
*4003 _1217_
*4004 _1218_
*4005 _1219_
*4006 _1220_
*4007 _1221_
*4008 _1222_
*4009 _1223_
*4010 _1224_
*4011 _1225_
*4012 _1226_
*4013 _1227_
*4014 _1228_
*4015 _1229_
*4016 _1230_
*4017 _1231_
*4018 _1232_
*4019 _1233_
*4020 _1234_
*4021 _1235_
*4022 _1236_
*4023 _1237_
*4024 _1238_
*4025 _1239_
*4026 _1240_
*4027 _1241_
*4028 _1242_
*4029 _1243_
*4030 _1244_
*4031 _1245_
*4032 _1246_
*4033 _1247_
*4034 _1248_
*4035 _1249_
*4036 _1250_
*4037 _1251_
*4038 _1252_
*4039 _1253_
*4040 _1254_
*4041 _1255_
*4042 _1256_
*4043 _1257_
*4044 _1258_
*4045 _1259_
*4046 _1260_
*4047 _1261_
*4048 _1262_
*4049 _1263_
*4050 _1264_
*4051 _1265_
*4052 _1266_
*4053 _1267_
*4054 _1268_
*4055 _1269_
*4056 _1270_
*4057 _1271_
*4058 _1272_
*4059 _1273_
*4060 _1274_
*4061 _1275_
*4062 _1276_
*4063 _1277_
*4064 _1278_
*4065 _1283_
*4066 _1284_
*4067 _1285_
*4068 _1286_
*4069 _1287_
*4070 _1288_
*4071 _1289_
*4072 _1289__129
*4073 _1290_
*4074 _1290__130
*4075 clkbuf_0_i_clk
*4076 clkbuf_2_0__f_i_clk
*4077 clkbuf_2_1__f_i_clk
*4078 clkbuf_2_2__f_i_clk
*4079 clkbuf_2_3__f_i_clk
*4080 clkbuf_leaf_0_i_clk
*4081 clkbuf_leaf_10_i_clk
*4082 clkbuf_leaf_11_i_clk
*4083 clkbuf_leaf_12_i_clk
*4084 clkbuf_leaf_13_i_clk
*4085 clkbuf_leaf_14_i_clk
*4086 clkbuf_leaf_15_i_clk
*4087 clkbuf_leaf_16_i_clk
*4088 clkbuf_leaf_17_i_clk
*4089 clkbuf_leaf_18_i_clk
*4090 clkbuf_leaf_19_i_clk
*4091 clkbuf_leaf_1_i_clk
*4092 clkbuf_leaf_20_i_clk
*4093 clkbuf_leaf_2_i_clk
*4094 clkbuf_leaf_3_i_clk
*4095 clkbuf_leaf_4_i_clk
*4096 clkbuf_leaf_5_i_clk
*4097 clkbuf_leaf_6_i_clk
*4098 clkbuf_leaf_7_i_clk
*4099 clkbuf_leaf_8_i_clk
*4100 clkbuf_leaf_9_i_clk
*4101 clkload0
*4102 clkload1
*4103 clkload10
*4104 clkload11
*4105 clkload2
*4106 clkload3
*4107 clkload4
*4108 clkload5
*4109 clkload6
*4110 clkload7
*4111 clkload8
*4112 clkload9
*4113 fanout100
*4114 fanout101
*4115 fanout103
*4116 fanout105
*4117 fanout106
*4118 fanout107
*4119 fanout109
*4120 fanout110
*4121 fanout111
*4122 fanout112
*4123 fanout113
*4124 fanout114
*4125 fanout116
*4126 fanout118
*4127 fanout119
*4128 fanout120
*4129 fanout121
*4130 fanout122
*4131 fanout123
*4132 fanout124
*4133 fanout125
*4134 fanout126
*4135 fanout127
*4136 fanout128
*4137 fanout62
*4138 fanout63
*4139 fanout64
*4140 fanout65
*4141 fanout66
*4142 fanout67
*4143 fanout68
*4144 fanout69
*4145 fanout70
*4146 fanout71
*4147 fanout72
*4148 fanout73
*4149 fanout74
*4150 fanout75
*4151 fanout76
*4152 fanout77
*4153 fanout78
*4154 fanout79
*4155 fanout80
*4156 fanout81
*4157 fanout82
*4158 fanout83
*4159 fanout84
*4160 fanout85
*4161 fanout86
*4162 fanout87
*4163 fanout88
*4164 fanout89
*4165 fanout90
*4166 fanout91
*4167 fanout92
*4168 fanout93
*4169 fanout94
*4170 fanout95
*4171 fanout97
*4172 fanout98
*4173 hold132
*4174 hold133
*4175 hold134
*4176 hold135
*4177 hold136
*4178 hold137
*4179 hold138
*4180 hold139
*4181 hold140
*4182 hold141
*4183 hold142
*4184 hold143
*4185 hold144
*4186 hold145
*4187 hold146
*4188 hold147
*4189 hold148
*4190 hold149
*4191 hold150
*4192 hold151
*4193 hold152
*4194 hold153
*4195 hold154
*4196 hold155
*4197 hold156
*4198 hold157
*4199 hold158
*4200 hold159
*4201 hold160
*4202 hold161
*4203 hold162
*4204 hold163
*4205 hold164
*4206 hold165
*4207 hold166
*4208 hold167
*4209 hold168
*4210 hold169
*4211 hold170
*4212 hold171
*4213 hold172
*4214 hold173
*4215 hold174
*4216 hold175
*4217 hold176
*4218 hold177
*4219 hold178
*4220 hold179
*4221 hold180
*4222 hold181
*4223 hold182
*4224 hold183
*4225 hold184
*4226 hold185
*4227 hold186
*4228 hold187
*4229 hold188
*4230 hold189
*4231 hold190
*4232 hold191
*4233 hold192
*4234 hold193
*4235 hold194
*4236 hold195
*4237 hold196
*4238 hold197
*4239 hold198
*4240 hold199
*4241 hold200
*4242 hold201
*4243 hold202
*4244 hold203
*4245 hold204
*4246 hold205
*4247 hold206
*4248 hold207
*4249 hold208
*4250 hold209
*4251 hold210
*4252 hold211
*4253 hold212
*4254 hold213
*4255 hold214
*4256 hold215
*4257 hold216
*4258 hold217
*4259 hold218
*4260 hold219
*4261 hold220
*4262 hold221
*4263 hold222
*4264 hold223
*4265 hold224
*4266 hold225
*4267 hold226
*4268 hold227
*4269 hold228
*4270 hold229
*4271 hold230
*4272 hold231
*4273 hold232
*4274 hold233
*4275 hold234
*4276 hold235
*4277 hold236
*4278 hold237
*4279 hold238
*4280 hold239
*4281 hold240
*4282 hold241
*4283 hold242
*4284 hold243
*4285 hold244
*4286 hold245
*4287 hold246
*4288 hold247
*4289 hold248
*4290 hold249
*4291 hold250
*4292 hold251
*4293 hold252
*4294 hold253
*4295 hold254
*4296 hold255
*4297 hold256
*4298 hold257
*4299 hold258
*4300 hold259
*4301 hold260
*4302 hold261
*4303 hold262
*4304 hold263
*4305 hold264
*4306 hold265
*4307 hold266
*4308 hold267
*4309 hold268
*4310 hold269
*4311 hold270
*4312 hold271
*4313 hold272
*4314 hold273
*4315 hold274
*4316 hold275
*4317 hold276
*4318 hold277
*4319 hold278
*4320 hold279
*4321 hold280
*4322 hold281
*4323 hold282
*4324 hold283
*4325 hold284
*4326 hold285
*4327 hold286
*4328 hold287
*4329 hold288
*4330 hold289
*4331 i2c_master_controller_top
*4332 i2c_master_controller_top_131
*4333 input1
*4334 input10
*4335 input11
*4336 input12
*4337 input13
*4338 input14
*4339 input15
*4340 input16
*4341 input17
*4342 input18
*4343 input19
*4344 input2
*4345 input20
*4346 input21
*4347 input22
*4348 input23
*4349 input24
*4350 input25
*4351 input26
*4352 input27
*4353 input28
*4354 input29
*4355 input3
*4356 input30
*4357 input31
*4358 input32
*4359 input33
*4360 input34
*4361 input35
*4362 input36
*4363 input37
*4364 input38
*4365 input39
*4366 input4
*4367 input40
*4368 input41
*4369 input42
*4370 input43
*4371 input5
*4372 input6
*4373 input7
*4374 input8
*4375 input9
*4376 load_slew102
*4377 load_slew104
*4378 load_slew108
*4379 load_slew115
*4380 load_slew117
*4381 load_slew96
*4382 load_slew99
*4383 output44
*4384 output45
*4385 output46
*4386 output47
*4387 output48
*4388 output49
*4389 output50
*4390 output51
*4391 output52
*4392 output53
*4393 output54
*4394 output55
*4395 output56
*4396 output57
*4397 output58
*4398 output59
*4399 output60
*4400 output61

*PORTS
i_byte_cnt_reg[0] I
i_byte_cnt_reg[1] I
i_byte_cnt_reg[2] I
i_byte_cnt_reg[3] I
i_byte_cnt_reg[4] I
i_byte_cnt_reg[5] I
i_byte_cnt_reg[6] I
i_byte_cnt_reg[7] I
i_clk I
i_clk_div_lsb[0] I
i_clk_div_lsb[1] I
i_clk_div_lsb[2] I
i_clk_div_lsb[3] I
i_clk_div_lsb[4] I
i_clk_div_lsb[5] I
i_clk_div_lsb[6] I
i_clk_div_lsb[7] I
i_config_reg[0] I
i_config_reg[1] I
i_config_reg[2] I
i_config_reg[3] I
i_config_reg[4] I
i_config_reg[5] I
i_mode_reg[0] I
i_mode_reg[1] I
i_mode_reg[2] I
i_mode_reg[3] I
i_mode_reg[4] I
i_mode_reg[5] I
i_mode_reg[6] I
i_mode_reg[7] I
i_rst_n I
i_slave_addr_reg[0] I
i_slave_addr_reg[1] I
i_slave_addr_reg[2] I
i_slave_addr_reg[3] I
i_slave_addr_reg[4] I
i_slave_addr_reg[5] I
i_slave_addr_reg[6] I
i_transmit_data[0] I
i_transmit_data[1] I
i_transmit_data[2] I
i_transmit_data[3] I
i_transmit_data[4] I
i_transmit_data[5] I
i_transmit_data[6] I
i_transmit_data[7] I
io_scl I
io_sda I
o_cmd_status_reg[0] O
o_cmd_status_reg[1] O
o_cmd_status_reg[2] O
o_cmd_status_reg[3] O
o_cmd_status_reg[4] O
o_cmd_status_reg[5] O
o_cmd_status_reg[6] O
o_cmd_status_reg[7] O
o_int_n O
o_receive_data[0] O
o_receive_data[1] O
o_receive_data[2] O
o_receive_data[3] O
o_receive_data[4] O
o_receive_data[5] O
o_receive_data[6] O
o_receive_data[7] O
o_received_data_valid O
o_start_ack O
o_transmit_data_request O

*D_NET *3 0.0023048
*CONN
*P i_byte_cnt_reg[0] I
*I *4333:A I *D sky130_fd_sc_hd__clkdlybuf4s25_1
*CAP
1 i_byte_cnt_reg[0] 0.000842183
2 *4333:A 0
3 *3:11 0.000842183
4 *3:11 *5:13 0.000185587
5 *3:11 *9:11 0
6 *3:11 *277:8 0.000228599
7 *3:11 *279:10 4.75766e-05
8 *3:11 *619:63 0
9 *3:11 *840:8 8.62876e-05
10 *3:11 *884:12 7.23822e-05
11 *3:11 *909:63 0
*RES
1 i_byte_cnt_reg[0] *3:11 32.0017 
2 *3:11 *4333:A 23 
*END

*D_NET *4 0.00236141
*CONN
*P i_byte_cnt_reg[1] I
*I *4344:A I *D sky130_fd_sc_hd__clkdlybuf4s25_1
*CAP
1 i_byte_cnt_reg[1] 0.000863287
2 *4344:A 0
3 *4:15 0.000863287
4 *4:15 o_receive_data[7] 0.000259808
5 *4:15 *8:13 0.000259808
6 *4:15 *10:11 0
7 *4:15 *67:8 7.44354e-05
8 *4:15 *870:16 4.07902e-05
*RES
1 i_byte_cnt_reg[1] *4:15 39.4818 
2 *4:15 *4344:A 23 
*END

*D_NET *5 0.00108771
*CONN
*P i_byte_cnt_reg[2] I
*I *4355:A I *D sky130_fd_sc_hd__clkdlybuf4s25_1
*CAP
1 i_byte_cnt_reg[2] 0.00045106
2 *4355:A 0
3 *5:13 0.00045106
4 *5:13 *9:11 0
5 *3:11 *5:13 0.000185587
*RES
1 i_byte_cnt_reg[2] *5:13 30.0064 
2 *5:13 *4355:A 23 
*END

*D_NET *6 0.00205576
*CONN
*P i_byte_cnt_reg[3] I
*I *4366:A I *D sky130_fd_sc_hd__clkdlybuf4s25_1
*CAP
1 i_byte_cnt_reg[3] 0.000625499
2 *4366:A 0
3 *6:13 0.000625499
4 *6:13 o_receive_data[6] 0.000415604
5 *6:13 *10:11 0.000389156
6 *6:13 *284:10 0
7 *6:13 *895:14 0
*RES
1 i_byte_cnt_reg[3] *6:13 33.3654 
2 *6:13 *4366:A 23 
*END

*D_NET *7 0.00174663
*CONN
*P i_byte_cnt_reg[4] I
*I *4371:A I *D sky130_fd_sc_hd__clkdlybuf4s25_1
*CAP
1 i_byte_cnt_reg[4] 0.000795152
2 *4371:A 0
3 *7:13 0.000795152
4 *7:13 *9:11 0.000156329
*RES
1 i_byte_cnt_reg[4] *7:13 38.1441 
2 *7:13 *4371:A 23 
*END

*D_NET *8 0.00441058
*CONN
*P i_byte_cnt_reg[5] I
*I *4372:A I *D sky130_fd_sc_hd__clkdlybuf4s25_1
*CAP
1 i_byte_cnt_reg[5] 0.0010352
2 *4372:A 0
3 *8:13 0.0010352
4 *8:13 o_receive_data[6] 0.000710436
5 *8:13 o_receive_data[7] 7.59926e-05
6 *8:13 *3873:CLK 0.000220931
7 *8:13 *10:11 0.00070496
8 *8:13 *68:8 0
9 *8:13 *619:59 0.000125802
10 *8:13 *619:63 0.000114656
11 *8:13 *623:33 0.0001276
12 *8:13 *873:12 0
13 *8:13 *895:14 0
14 *4:15 *8:13 0.000259808
*RES
1 i_byte_cnt_reg[5] *8:13 47.3743 
2 *8:13 *4372:A 23 
*END

*D_NET *9 0.00198834
*CONN
*P i_byte_cnt_reg[6] I
*I *4373:A I *D sky130_fd_sc_hd__clkdlybuf4s25_1
*CAP
1 i_byte_cnt_reg[6] 0.000882641
2 *4373:A 0
3 *9:11 0.000882641
4 *9:11 *4303:A 6.67264e-05
5 *9:11 *277:8 0
6 *9:11 *619:63 0
7 *3:11 *9:11 0
8 *5:13 *9:11 0
9 *7:13 *9:11 0.000156329
*RES
1 i_byte_cnt_reg[6] *9:11 35.5404 
2 *9:11 *4373:A 23 
*END

*D_NET *10 0.00288002
*CONN
*P i_byte_cnt_reg[7] I
*I *4374:A I *D sky130_fd_sc_hd__clkdlybuf4s25_1
*CAP
1 i_byte_cnt_reg[7] 0.000674618
2 *4374:A 0
3 *10:11 0.000674618
4 *10:11 o_receive_data[6] 3.34818e-06
5 *10:11 *3873:CLK 0.000223153
6 *10:11 *623:33 0.000210163
7 *4:15 *10:11 0
8 *6:13 *10:11 0.000389156
9 *8:13 *10:11 0.00070496
*RES
1 i_byte_cnt_reg[7] *10:11 38.7097 
2 *10:11 *4374:A 23 
*END

*D_NET *11 0.0203725
*CONN
*P i_clk I
*I *4075:A I *D sky130_fd_sc_hd__clkbuf_16
*CAP
1 i_clk 0.00295854
2 *4075:A 0.000135317
3 *11:14 0.00177671
4 *11:10 0.00466382
5 *11:8 0.00598097
6 *4075:A *120:10 1.75203e-05
7 *4075:A *359:16 0
8 *11:8 *3505:A 0.000126703
9 *11:8 *4347:A 0.000378829
10 *11:10 *3359:A 1.02201e-05
11 *11:10 *3677:B 9.87069e-06
12 *11:10 *3716:A 6.94816e-05
13 *11:10 *3748:A1 0.000374785
14 *11:10 *3766:A2 0
15 *11:10 *3850:A2 0.000104977
16 *11:10 *3918:CLK 0
17 *11:10 *3921:CLK 0.000333955
18 *11:10 *3982:CLK 1.3856e-05
19 *11:10 *4041:CLK 1.15098e-05
20 *11:10 *4042:CLK 0
21 *11:10 *4053:RESET_B 0
22 *11:10 *51:12 0.000146006
23 *11:10 *176:10 0.000228424
24 *11:10 *261:10 7.66426e-05
25 *11:10 *327:14 7.12971e-05
26 *11:10 *328:8 7.56585e-05
27 *11:10 *340:10 6.7678e-05
28 *11:10 *354:30 0.000153821
29 *11:10 *392:10 0.00018659
30 *11:10 *392:25 0.00022744
31 *11:10 *392:29 0.000240853
32 *11:10 *392:44 0.000106558
33 *11:10 *396:24 2.97816e-06
34 *11:10 *396:57 4.7585e-06
35 *11:10 *396:76 1.12383e-05
36 *11:10 *396:87 0
37 *11:10 *557:8 0
38 *11:10 *606:12 0
39 *11:10 *622:78 3.20038e-06
40 *11:10 *622:80 2.01505e-06
41 *11:10 *625:86 9.92213e-05
42 *11:10 *667:10 0
43 *11:10 *726:10 7.90384e-05
44 *11:10 *785:25 0
45 *11:10 *876:139 0.000111694
46 *11:10 *877:14 0
47 *11:10 *877:83 4.03011e-06
48 *11:10 *890:25 0
49 *11:10 *891:10 0.000115703
50 *11:10 *891:34 0.000293361
51 *11:10 *907:32 0
52 *11:10 *939:30 5.81045e-06
53 *11:10 *943:21 8.59774e-05
54 *11:10 *1031:10 0
55 *11:10 *1042:10 4.49383e-05
56 *11:10 *1042:25 3.74169e-05
57 *11:10 *1045:43 4.25525e-05
58 *11:14 *3909:CLK 0.000156589
59 *11:14 *72:10 2.85254e-05
60 *11:14 *120:10 1.85359e-05
61 *11:14 *359:16 0.000450689
62 *11:14 *907:32 0.000226235
*RES
1 i_clk *11:8 16.5157 
2 *11:8 *11:10 70.3975 
3 *11:10 *11:14 42.7105 
4 *11:14 *4075:A 25.4909 
*END

*D_NET *13 0.00269964
*CONN
*P i_clk_div_lsb[1] I
*I *4375:A I *D sky130_fd_sc_hd__clkdlybuf4s25_1
*CAP
1 i_clk_div_lsb[1] 0.000804036
2 *4375:A 0
3 *13:19 0.000804036
4 *13:19 *3405:A 0
5 *13:19 *3410:A1 5.91196e-05
6 *13:19 *3410:A2 0
7 *13:19 *3410:D1 0.000155665
8 *13:19 *4392:A 0.000105399
9 *13:19 *14:13 0.000401267
10 *13:19 *15:13 1.98425e-05
11 *13:19 *16:11 0
12 *13:19 *17:13 0
13 *13:19 *631:27 0.000115847
14 *13:19 *642:14 1.32966e-05
15 *13:19 *865:23 0.000125253
16 *13:19 *906:12 9.5877e-05
*RES
1 i_clk_div_lsb[1] *13:19 32.3568 
2 *13:19 *4375:A 23 
*END

*D_NET *14 0.00300755
*CONN
*P i_clk_div_lsb[2] I
*I *4334:A I *D sky130_fd_sc_hd__clkdlybuf4s25_1
*CAP
1 i_clk_div_lsb[2] 0.000579018
2 *4334:A 0
3 *14:13 0.000579018
4 *14:13 o_receive_data[1] 0.000569054
5 *14:13 o_receive_data[4] 0.00033121
6 *14:13 *15:13 0.000547985
7 *13:19 *14:13 0.000401267
*RES
1 i_clk_div_lsb[2] *14:13 36.2477 
2 *14:13 *4334:A 23 
*END

*D_NET *15 0.00360522
*CONN
*P i_clk_div_lsb[3] I
*I *4335:A I *D sky130_fd_sc_hd__clkdlybuf4s25_1
*CAP
1 i_clk_div_lsb[3] 0.000649714
2 *4335:A 0
3 *15:13 0.000649714
4 *15:13 o_receive_data[1] 0.000467813
5 *15:13 *17:13 0.0010797
6 *15:13 *18:15 0.000141954
7 *15:13 *414:23 0
8 *15:13 *642:14 0
9 *15:13 *868:26 4.85008e-05
10 *13:19 *15:13 1.98425e-05
11 *14:13 *15:13 0.000547985
*RES
1 i_clk_div_lsb[3] *15:13 38.4287 
2 *15:13 *4335:A 23 
*END

*D_NET *16 0.00223277
*CONN
*P i_clk_div_lsb[4] I
*I *4336:A I *D sky130_fd_sc_hd__clkdlybuf4s25_1
*CAP
1 i_clk_div_lsb[4] 0.000588647
2 *4336:A 0
3 *16:11 0.000588647
4 *16:11 *17:13 0.000477623
5 *16:11 *642:14 0.000290503
6 *16:11 *865:23 0.000287351
7 *13:19 *16:11 0
*RES
1 i_clk_div_lsb[4] *16:11 28.8324 
2 *16:11 *4336:A 23 
*END

*D_NET *17 0.00302454
*CONN
*P i_clk_div_lsb[5] I
*I *4337:A I *D sky130_fd_sc_hd__clkdlybuf4s25_1
*CAP
1 i_clk_div_lsb[5] 0.000583763
2 *4337:A 0
3 *17:13 0.000583763
4 *17:13 *631:10 3.22879e-05
5 *17:13 *642:14 0
6 *17:13 *865:23 6.46393e-05
7 *17:13 *868:26 0.000202763
8 *13:19 *17:13 0
9 *15:13 *17:13 0.0010797
10 *16:11 *17:13 0.000477623
*RES
1 i_clk_div_lsb[5] *17:13 35.1175 
2 *17:13 *4337:A 23 
*END

*D_NET *18 0.00159112
*CONN
*P i_clk_div_lsb[6] I
*I *4338:A I *D sky130_fd_sc_hd__clkdlybuf4s25_1
*CAP
1 i_clk_div_lsb[6] 0.000531669
2 *4338:A 0
3 *18:15 0.000531669
4 *18:15 *3406:B1 0
5 *18:15 *19:11 0.000311778
6 *18:15 *642:6 5.67058e-05
7 *18:15 *684:12 1.73399e-05
8 *15:13 *18:15 0.000141954
*RES
1 i_clk_div_lsb[6] *18:15 30.6014 
2 *18:15 *4338:A 23 
*END

*D_NET *19 0.00137453
*CONN
*P i_clk_div_lsb[7] I
*I *4339:A I *D sky130_fd_sc_hd__clkdlybuf4s25_1
*CAP
1 i_clk_div_lsb[7] 0.000531379
2 *4339:A 0
3 *19:11 0.000531379
4 *19:11 *3415:B1 0
5 *19:11 *4347:A 0
6 *19:11 *684:12 0
7 *18:15 *19:11 0.000311778
*RES
1 i_clk_div_lsb[7] *19:11 29.554 
2 *19:11 *4339:A 23 
*END

*D_NET *20 0.00203884
*CONN
*P i_config_reg[0] I
*I *4340:A I *D sky130_fd_sc_hd__clkdlybuf4s25_1
*CAP
1 i_config_reg[0] 0.00088096
2 *4340:A 0
3 *20:11 0.00088096
4 *20:11 o_received_data_valid 0
5 *20:11 *29:13 0
6 *20:11 *923:6 0.000276925
*RES
1 i_config_reg[0] *20:11 33.9121 
2 *20:11 *4340:A 23 
*END

*D_NET *21 0.00486217
*CONN
*P i_config_reg[1] I
*I *4341:A I *D sky130_fd_sc_hd__clkdlybuf4s25_1
*CAP
1 i_config_reg[1] 0.00126447
2 *4341:A 0
3 *21:17 0.00126447
4 *21:17 o_int_n 0.000146353
5 *21:17 *3876:RESET_B 0.000186513
6 *21:17 *3967:CLK 7.74215e-05
7 *21:17 *3969:CLK 0.000205676
8 *21:17 *4085:A 0.000275408
9 *21:17 *25:11 0
10 *21:17 *57:8 0.000796397
11 *21:17 *654:10 0
12 *21:17 *654:16 0
13 *21:17 *654:51 4.68274e-05
14 *21:17 *657:73 1.0092e-05
15 *21:17 *860:8 0.000311855
16 *21:17 *910:10 9.65502e-05
17 *21:17 *910:50 2.12234e-05
18 *21:17 *1013:29 0
19 *21:17 *1022:25 0.000158907
*RES
1 i_config_reg[1] *21:17 49.7586 
2 *21:17 *4341:A 23 
*END

*D_NET *22 0.00166011
*CONN
*P i_config_reg[2] I
*I *4342:A I *D sky130_fd_sc_hd__clkdlybuf4s25_1
*CAP
1 i_config_reg[2] 0.000474806
2 *4342:A 0
3 *22:9 0.000474806
4 *22:9 o_cmd_status_reg[3] 0.000237964
5 *22:9 o_cmd_status_reg[4] 0
6 *22:9 o_cmd_status_reg[6] 0
7 *22:9 o_cmd_status_reg[7] 0
8 *22:9 *23:7 0.000251699
9 *22:9 *58:8 0.000141954
10 *22:9 *860:16 7.88828e-05
*RES
1 i_config_reg[2] *22:9 29.0029 
2 *22:9 *4342:A 23 
*END

*D_NET *23 0.00681907
*CONN
*P i_config_reg[3] I
*I *4343:A I *D sky130_fd_sc_hd__clkdlybuf4s25_1
*CAP
1 i_config_reg[3] 0.000194662
2 *4343:A 0.000321412
3 *23:11 0.000973478
4 *23:7 0.000846728
5 *4343:A *4383:A 0
6 *4343:A *25:15 0
7 *4343:A *59:8 0
8 *23:7 o_cmd_status_reg[7] 0
9 *23:11 *25:11 0.00100975
10 *23:11 *55:18 0.000523722
11 *23:11 *59:12 0.00256182
12 *23:11 *60:14 0.000135799
13 *22:9 *23:7 0.000251699
*RES
1 i_config_reg[3] *23:7 21.09 
2 *23:7 *23:11 45.16 
3 *23:11 *4343:A 44.4836 
*END

*D_NET *24 0.00182394
*CONN
*P i_config_reg[4] I
*I *4345:A I *D sky130_fd_sc_hd__clkdlybuf4s25_1
*CAP
1 i_config_reg[4] 0.000799801
2 *4345:A 0
3 *24:15 0.000799801
4 *24:15 *3962:CLK 0.000224336
5 *24:15 *29:13 0
6 *24:15 *31:11 0
7 *24:15 *784:10 0
*RES
1 i_config_reg[4] *24:15 33.4979 
2 *24:15 *4345:A 23 
*END

*D_NET *25 0.0040389
*CONN
*P i_config_reg[5] I
*I *4346:A I *D sky130_fd_sc_hd__clkdlybuf4s25_1
*CAP
1 i_config_reg[5] 0.000424792
2 *4346:A 0
3 *25:15 0.000616562
4 *25:11 0.00104135
5 *25:11 o_cmd_status_reg[2] 3.13767e-05
6 *25:11 o_int_n 0
7 *25:11 *60:14 0.000573973
8 *25:15 *4383:A 0
9 *25:15 *613:45 0.000341097
10 *25:15 *666:8 0
11 *25:15 *672:14 0
12 *25:15 *863:18 0
13 *4343:A *25:15 0
14 *21:17 *25:11 0
15 *23:11 *25:11 0.00100975
*RES
1 i_config_reg[5] *25:11 46.8407 
2 *25:11 *25:15 27.47 
3 *25:15 *4346:A 23 
*END

*D_NET *26 0.00100939
*CONN
*P i_mode_reg[0] I
*I *4347:A I *D sky130_fd_sc_hd__clkdlybuf4s25_1
*CAP
1 i_mode_reg[0] 0.000315283
2 *4347:A 0.000315283
3 *4347:A *3415:B1 0
4 *4347:A *416:30 0
5 *11:8 *4347:A 0.000378829
6 *19:11 *4347:A 0
*RES
1 i_mode_reg[0] *4347:A 48.6804 
*END

*D_NET *27 0.00137599
*CONN
*P i_mode_reg[1] I
*I *4348:A I *D sky130_fd_sc_hd__clkdlybuf4s25_1
*CAP
1 i_mode_reg[1] 0.000687993
2 *4348:A 0
3 *27:9 0.000687993
*RES
1 i_mode_reg[1] *27:9 29.8418 
2 *27:9 *4348:A 23 
*END

*D_NET *29 0.00245847
*CONN
*P i_mode_reg[3] I
*I *4349:A I *D sky130_fd_sc_hd__clkdlybuf4s25_1
*CAP
1 i_mode_reg[3] 0.00122923
2 *4349:A 0
3 *29:13 0.00122923
4 *29:13 o_received_data_valid 0
5 *20:11 *29:13 0
6 *24:15 *29:13 0
*RES
1 i_mode_reg[3] *29:13 35.9629 
2 *29:13 *4349:A 23 
*END

*D_NET *31 0.00247422
*CONN
*P i_mode_reg[5] I
*I *4350:A I *D sky130_fd_sc_hd__clkdlybuf4s25_1
*CAP
1 i_mode_reg[5] 0.000887428
2 *4350:A 0
3 *31:11 0.000887428
4 *31:11 *41:11 3.08966e-05
5 *31:11 *784:10 4.6595e-05
6 *31:11 *795:8 0.000621874
7 *24:15 *31:11 0
*RES
1 i_mode_reg[5] *31:11 36.0457 
2 *31:11 *4350:A 23 
*END

*D_NET *32 0.0027051
*CONN
*P i_mode_reg[6] I
*I *4351:A I *D sky130_fd_sc_hd__clkdlybuf4s25_1
*CAP
1 i_mode_reg[6] 0.000697118
2 *4351:A 0
3 *32:13 0.000697118
4 *32:13 *4147:A 0.000140259
5 *32:13 *33:11 0.000446891
6 *32:13 *828:42 0.000423866
7 *32:13 *888:71 0.000299845
*RES
1 i_mode_reg[6] *32:13 35.1764 
2 *32:13 *4351:A 23 
*END

*D_NET *33 0.00212976
*CONN
*P i_mode_reg[7] I
*I *4352:A I *D sky130_fd_sc_hd__clkdlybuf4s25_1
*CAP
1 i_mode_reg[7] 0.000635413
2 *4352:A 0
3 *33:11 0.000635413
4 *33:11 *828:42 0.000122304
5 *33:11 *917:8 0.000289742
6 *32:13 *33:11 0.000446891
*RES
1 i_mode_reg[7] *33:11 33.8003 
2 *33:11 *4352:A 23 
*END

*D_NET *34 0.00103386
*CONN
*P i_rst_n I
*I *4353:A I *D sky130_fd_sc_hd__clkdlybuf4s25_1
*CAP
1 i_rst_n 0.000319256
2 *4353:A 0.000319256
3 *4353:A o_cmd_status_reg[0] 0.000395351
4 *4353:A *910:20 0
*RES
1 i_rst_n *4353:A 48.701 
*END

*D_NET *35 0.00639018
*CONN
*P i_slave_addr_reg[0] I
*I *4354:A I *D sky130_fd_sc_hd__clkdlybuf4s25_1
*CAP
1 i_slave_addr_reg[0] 0.00211133
2 *4354:A 0
3 *35:21 0.00211133
4 *35:21 *36:17 0
5 *35:21 *47:21 0.00210058
6 *35:21 *841:14 1.40949e-05
7 *35:21 *908:93 0
8 *35:21 *909:37 5.28413e-05
*RES
1 i_slave_addr_reg[0] *35:21 45.1938 
2 *35:21 *4354:A 38 
*END

*D_NET *36 0.0031379
*CONN
*P i_slave_addr_reg[1] I
*I *4356:A I *D sky130_fd_sc_hd__clkdlybuf4s25_1
*CAP
1 i_slave_addr_reg[1] 0.00130828
2 *4356:A 0
3 *36:17 0.00130828
4 *36:17 *3484:A2 0.000175104
5 *36:17 *3697:A1 5.50049e-05
6 *36:17 *39:15 0.000169683
7 *36:17 *45:15 0
8 *36:17 *46:15 0
9 *36:17 *71:10 2.26497e-05
10 *36:17 *427:67 0
11 *36:17 *449:12 2.05503e-05
12 *36:17 *620:12 0
13 *36:17 *620:21 5.50049e-05
14 *36:17 *848:18 2.33476e-05
15 *36:17 *849:14 0
16 *36:17 *875:43 0
17 *35:21 *36:17 0
*RES
1 i_slave_addr_reg[1] *36:17 41.2657 
2 *36:17 *4356:A 23 
*END

*D_NET *37 0.00362611
*CONN
*P i_slave_addr_reg[2] I
*I *4357:A I *D sky130_fd_sc_hd__clkdlybuf4s25_1
*CAP
1 i_slave_addr_reg[2] 0.00070778
2 *4357:A 0
3 *37:17 0.000216585
4 *37:9 0.000924365
5 *37:9 o_transmit_data_request 0.000541495
6 *37:9 *3629:S 1.34354e-05
7 *37:9 *3695:A0 1.12487e-05
8 *37:9 *3858:RESET_B 5.3304e-05
9 *37:9 *3861:CLK 0.00026808
10 *37:9 *850:26 0.000346058
11 *37:9 *912:10 0.000321414
12 *37:17 *3695:A0 0
13 *37:17 *427:43 1.7768e-05
14 *37:17 *441:16 0
15 *37:17 *447:14 1.7768e-05
16 *37:17 *854:26 0.000186813
*RES
1 i_slave_addr_reg[2] *37:9 36.0664 
2 *37:9 *37:17 33.5214 
3 *37:17 *4357:A 23 
*END

*D_NET *38 0.00093034
*CONN
*P i_slave_addr_reg[3] I
*I *4358:A I *D sky130_fd_sc_hd__clkdlybuf4s25_1
*CAP
1 i_slave_addr_reg[3] 0.00046517
2 *4358:A 0.00046517
3 *4358:A *848:8 0
*RES
1 i_slave_addr_reg[3] *4358:A 49.7369 
*END

*D_NET *39 0.00337854
*CONN
*P i_slave_addr_reg[4] I
*I *4359:A I *D sky130_fd_sc_hd__clkdlybuf4s25_1
*CAP
1 i_slave_addr_reg[4] 0.00103853
2 *4359:A 0
3 *39:15 0.000106257
4 *39:9 0.00114478
5 *39:9 *43:9 0
6 *39:9 *44:19 0
7 *39:9 *45:9 0.00091929
8 *39:9 *47:21 0
9 *36:17 *39:15 0.000169683
*RES
1 i_slave_addr_reg[4] *39:9 39.2771 
2 *39:9 *39:15 32.2579 
3 *39:15 *4359:A 23 
*END

*D_NET *40 0.00250855
*CONN
*P i_slave_addr_reg[5] I
*I *4360:A I *D sky130_fd_sc_hd__clkdlybuf4s25_1
*CAP
1 i_slave_addr_reg[5] 0.000947191
2 *4360:A 0
3 *40:9 0.000947191
4 *40:9 *3632:A0 3.22879e-05
5 *40:9 *3632:A1 0.00014196
6 *40:9 *48:15 0
7 *40:9 *49:11 0
8 *40:9 *270:10 2.93845e-05
9 *40:9 *271:10 6.17437e-06
10 *40:9 *845:6 0.000140259
11 *40:9 *845:10 0
12 *40:9 *847:12 2.81216e-05
13 *40:9 *847:20 3.33304e-05
14 *40:9 *908:18 0.000185428
15 *40:9 *908:32 1.72202e-05
*RES
1 i_slave_addr_reg[5] *40:9 35.9836 
2 *40:9 *4360:A 23 
*END

*D_NET *41 0.00144006
*CONN
*P i_slave_addr_reg[6] I
*I *4361:A I *D sky130_fd_sc_hd__clkdlybuf4s25_1
*CAP
1 i_slave_addr_reg[6] 0.000462437
2 *4361:A 0
3 *41:11 0.000462437
4 *41:11 *42:9 0.000484292
5 *31:11 *41:11 3.08966e-05
*RES
1 i_slave_addr_reg[6] *41:11 28.195 
2 *41:11 *4361:A 23 
*END

*D_NET *42 0.00202567
*CONN
*P i_transmit_data[0] I
*I *4362:A I *D sky130_fd_sc_hd__clkdlybuf4s25_1
*CAP
1 i_transmit_data[0] 0.000566898
2 *4362:A 0
3 *42:9 0.000566898
4 *42:9 *49:11 0.0002263
5 *42:9 *795:8 0.000128391
6 *42:9 *847:12 5.2894e-05
7 *41:11 *42:9 0.000484292
*RES
1 i_transmit_data[0] *42:9 31.8614 
2 *42:9 *4362:A 23 
*END

*D_NET *43 0.0063125
*CONN
*P i_transmit_data[1] I
*I *4363:A I *D sky130_fd_sc_hd__clkdlybuf4s25_1
*CAP
1 i_transmit_data[1] 0.00119175
2 *4363:A 0
3 *43:13 0.00112076
4 *43:9 0.00231251
5 *43:9 *44:19 0.000275907
6 *43:9 *46:15 0
7 *43:13 *46:15 1.28508e-05
8 *43:13 *266:10 0.000332366
9 *43:13 *813:12 0
10 *43:13 *839:14 0
11 *43:13 *908:73 0.000220956
12 *43:13 *908:77 0.000459888
13 *43:13 *909:37 0.000385512
14 *39:9 *43:9 0
*RES
1 i_transmit_data[1] *43:9 40.9964 
2 *43:9 *43:13 40.8514 
3 *43:13 *4363:A 38 
*END

*D_NET *44 0.00445019
*CONN
*P i_transmit_data[2] I
*I *4364:A I *D sky130_fd_sc_hd__clkdlybuf4s25_1
*CAP
1 i_transmit_data[2] 0.00133778
2 *4364:A 0
3 *44:19 0.00133778
4 *44:19 *46:15 0
5 *44:19 *47:21 0
6 *44:19 *813:12 5.67058e-05
7 *44:19 *839:14 0.000120867
8 *44:19 *844:10 0.000235232
9 *44:19 *849:6 0.00068677
10 *44:19 *850:18 0.000366856
11 *44:19 *908:122 3.22879e-05
12 *39:9 *44:19 0
13 *43:9 *44:19 0.000275907
*RES
1 i_transmit_data[2] *44:19 49.7171 
2 *44:19 *4364:A 23 
*END

*D_NET *45 0.00467333
*CONN
*P i_transmit_data[3] I
*I *4365:A I *D sky130_fd_sc_hd__clkdlybuf4s25_1
*CAP
1 i_transmit_data[3] 0.00152888
2 *4365:A 0
3 *45:15 0.000104674
4 *45:9 0.00163356
5 *45:9 o_transmit_data_request 0.000444552
6 *45:15 *46:15 4.23714e-05
7 *36:17 *45:15 0
8 *39:9 *45:9 0.00091929
*RES
1 i_transmit_data[3] *45:9 43.4407 
2 *45:9 *45:15 31.9057 
3 *45:15 *4365:A 23 
*END

*D_NET *46 0.00503895
*CONN
*P i_transmit_data[4] I
*I *4367:A I *D sky130_fd_sc_hd__clkdlybuf4s25_1
*CAP
1 i_transmit_data[4] 0.0021474
2 *4367:A 0
3 *46:15 0.0021474
4 *46:15 o_transmit_data_request 0.000495489
5 *46:15 *4321:A 0.000168717
6 *46:15 *449:20 0
7 *46:15 *839:14 2.47132e-05
8 *46:15 *848:18 0
9 *36:17 *46:15 0
10 *43:9 *46:15 0
11 *43:13 *46:15 1.28508e-05
12 *44:19 *46:15 0
13 *45:15 *46:15 4.23714e-05
*RES
1 i_transmit_data[4] *46:15 49.9759 
2 *46:15 *4367:A 23 
*END

*D_NET *47 0.00814689
*CONN
*P i_transmit_data[5] I
*I *4368:A I *D sky130_fd_sc_hd__clkdlybuf4s25_1
*CAP
1 i_transmit_data[5] 0.00290598
2 *4368:A 0
3 *47:21 0.00290598
4 *47:21 *310:8 3.67392e-05
5 *47:21 *442:14 5.17321e-05
6 *47:21 *853:10 0.000124763
7 *47:21 *982:48 2.11066e-05
8 *35:21 *47:21 0.00210058
9 *39:9 *47:21 0
10 *44:19 *47:21 0
*RES
1 i_transmit_data[5] *47:21 49.024 
2 *47:21 *4368:A 38 
*END

*D_NET *48 0.00337511
*CONN
*P i_transmit_data[6] I
*I *4369:A I *D sky130_fd_sc_hd__clkdlybuf4s25_1
*CAP
1 i_transmit_data[6] 0.00138365
2 *4369:A 0
3 *48:15 0.00138365
4 *48:15 *3629:A0 9.84794e-05
5 *48:15 *3629:A1 5.50106e-05
6 *48:15 *3629:S 3.22879e-05
7 *48:15 *49:11 6.64204e-05
8 *48:15 *854:14 0.000271805
9 *48:15 *855:10 7.05156e-05
10 *48:15 *912:10 1.32939e-05
11 *40:9 *48:15 0
*RES
1 i_transmit_data[6] *48:15 43.7307 
2 *48:15 *4369:A 23 
*END

*D_NET *49 0.00211715
*CONN
*P i_transmit_data[7] I
*I *4370:A I *D sky130_fd_sc_hd__clkdlybuf4s25_1
*CAP
1 i_transmit_data[7] 0.000865687
2 *4370:A 0
3 *49:11 0.000865687
4 *49:11 *847:12 9.30575e-05
5 *40:9 *49:11 0
6 *42:9 *49:11 0.0002263
7 *48:15 *49:11 6.64204e-05
*RES
1 i_transmit_data[7] *49:11 33.9121 
2 *49:11 *4370:A 23 
*END

*D_NET *50 0.00347676
*CONN
*P io_scl I
*I *3360:A I *D sky130_fd_sc_hd__inv_2
*I *4071:Z O *D sky130_fd_sc_hd__ebufn_2
*CAP
1 io_scl 0.00122457
2 *3360:A 0.000203442
3 *4071:Z 0.000255268
4 *50:8 0.00168328
5 *50:8 *264:8 5.45887e-05
6 *50:8 *629:8 0
7 *50:8 *670:10 5.561e-05
*RES
1 *4071:Z *50:8 43.4271 
2 *50:8 *3360:A 41.48 
3 *50:8 io_scl 25.4889 
*END

*D_NET *51 0.007282
*CONN
*P io_sda I
*I *3359:A I *D sky130_fd_sc_hd__inv_2
*I *4073:Z O *D sky130_fd_sc_hd__ebufn_2
*CAP
1 io_sda 0.0026273
2 *3359:A 0.0001306
3 *4073:Z 0.000245907
4 *51:12 0.00300381
5 io_sda o_receive_data[0] 0.000412324
6 io_sda o_receive_data[5] 0.000481577
7 *3359:A *4042:CLK 3.98859e-05
8 *3359:A *4053:RESET_B 1.05658e-05
9 *3359:A *622:17 6.72184e-06
10 *51:12 *4053:RESET_B 0.000134792
11 *51:12 *889:57 3.22879e-05
12 *11:10 *3359:A 1.02201e-05
13 *11:10 *51:12 0.000146006
*RES
1 *4073:Z *51:12 44.8461 
2 *51:12 io_sda 16.1723 
3 *51:12 *3359:A 40.4339 
*END

*D_NET *52 0.000919635
*CONN
*P o_cmd_status_reg[0] O
*I *4331:LO O *D sky130_fd_sc_hd__conb_1
*CAP
1 o_cmd_status_reg[0] 0.000262142
2 *4331:LO 0.000262142
3 *4353:A o_cmd_status_reg[0] 0.000395351
*RES
1 *4331:LO o_cmd_status_reg[0] 47.6445 
*END

*D_NET *53 0.000990507
*CONN
*P o_cmd_status_reg[1] O
*I *4332:LO O *D sky130_fd_sc_hd__conb_1
*CAP
1 o_cmd_status_reg[1] 4.8641e-05
2 *4332:LO 0.000446613
3 *53:10 0.000495254
*RES
1 *4332:LO *53:10 46.0682 
2 *53:10 o_cmd_status_reg[1] 8.18667 
*END

*D_NET *54 0.00319225
*CONN
*P o_cmd_status_reg[2] O
*I *4383:X O *D sky130_fd_sc_hd__clkdlybuf4s25_1
*CAP
1 o_cmd_status_reg[2] 1.6638e-05
2 *4383:X 0.000515383
3 *54:12 0.00104813
4 *54:8 0.00154687
5 o_cmd_status_reg[2] o_int_n 3.38526e-05
6 *54:8 *60:14 0
7 *25:11 o_cmd_status_reg[2] 3.13767e-05
*RES
1 *4383:X *54:8 49.0614 
2 *54:8 *54:12 36.1079 
3 *54:12 o_cmd_status_reg[2] 15.8079 
*END

*D_NET *55 0.00606942
*CONN
*P o_cmd_status_reg[3] O
*I *4384:X O *D sky130_fd_sc_hd__clkdlybuf4s25_1
*CAP
1 o_cmd_status_reg[3] 9.2133e-05
2 *4384:X 6.09728e-05
3 *55:18 0.00158716
4 *55:8 0.001556
5 o_cmd_status_reg[3] o_cmd_status_reg[4] 0.00024044
6 *55:8 *543:25 3.82058e-06
7 *55:18 o_cmd_status_reg[6] 0
8 *55:18 *3880:RESET_B 0.000215382
9 *55:18 *409:20 0
10 *55:18 *410:12 0.00111756
11 *55:18 *648:16 7.97499e-05
12 *55:18 *718:10 0.000319553
13 *55:18 *858:8 0
14 *55:18 *992:10 3.49691e-05
15 *22:9 o_cmd_status_reg[3] 0.000237964
16 *23:11 *55:18 0.000523722
*RES
1 *4384:X *55:8 38.6214 
2 *55:8 *55:18 49.3857 
3 *55:18 o_cmd_status_reg[3] 20.7379 
*END

*D_NET *56 0.00250243
*CONN
*P o_cmd_status_reg[4] O
*I *4385:X O *D sky130_fd_sc_hd__clkdlybuf4s25_1
*CAP
1 o_cmd_status_reg[4] 0.000468673
2 *4385:X 0.000392114
3 *56:8 0.000860787
4 o_cmd_status_reg[4] *69:8 0
5 *56:8 *58:8 0.000528927
6 *56:8 *860:16 1.14876e-05
7 o_cmd_status_reg[3] o_cmd_status_reg[4] 0.00024044
8 *22:9 o_cmd_status_reg[4] 0
*RES
1 *4385:X *56:8 44.3386 
2 *56:8 o_cmd_status_reg[4] 11.7243 
*END

*D_NET *57 0.00411281
*CONN
*P o_cmd_status_reg[5] O
*I *4386:X O *D sky130_fd_sc_hd__clkdlybuf4s25_1
*CAP
1 o_cmd_status_reg[5] 0.000546319
2 *4386:X 0.00035343
3 *57:8 0.000899749
4 o_cmd_status_reg[5] o_cmd_status_reg[6] 0.000274197
5 o_cmd_status_reg[5] *59:12 0.000878423
6 *57:8 *910:10 0.000364295
7 *21:17 *57:8 0.000796397
*RES
1 *4386:X *57:8 48.7093 
2 *57:8 o_cmd_status_reg[5] 46.4679 
*END

*D_NET *58 0.00287611
*CONN
*P o_cmd_status_reg[6] O
*I *4387:X O *D sky130_fd_sc_hd__clkdlybuf4s25_1
*CAP
1 o_cmd_status_reg[6] 0.000421262
2 *4387:X 0.000288512
3 *58:8 0.000709774
4 o_cmd_status_reg[6] o_cmd_status_reg[7] 0.000260462
5 o_cmd_status_reg[6] *992:10 2.76611e-06
6 *58:8 *860:16 0.000248262
7 o_cmd_status_reg[5] o_cmd_status_reg[6] 0.000274197
8 *22:9 o_cmd_status_reg[6] 0
9 *22:9 *58:8 0.000141954
10 *55:18 o_cmd_status_reg[6] 0
11 *56:8 *58:8 0.000528927
*RES
1 *4387:X *58:8 47.1971 
2 *58:8 o_cmd_status_reg[6] 12.0764 
*END

*D_NET *59 0.00718155
*CONN
*P o_cmd_status_reg[7] O
*I *4388:X O *D sky130_fd_sc_hd__clkdlybuf4s25_1
*CAP
1 o_cmd_status_reg[7] 0.000215401
2 *4388:X 0.000272064
3 *59:12 0.00106956
4 *59:8 0.00112622
5 *59:8 *4383:A 7.8128e-05
6 *59:8 *60:14 0.000626421
7 *59:12 *60:14 9.30575e-05
8 o_cmd_status_reg[5] *59:12 0.000878423
9 o_cmd_status_reg[6] o_cmd_status_reg[7] 0.000260462
10 *4343:A *59:8 0
11 *22:9 o_cmd_status_reg[7] 0
12 *23:7 o_cmd_status_reg[7] 0
13 *23:11 *59:12 0.00256182
*RES
1 *4388:X *59:8 46.2443 
2 *59:8 *59:12 46.5893 
3 *59:12 o_cmd_status_reg[7] 21.4421 
*END

*D_NET *60 0.00453699
*CONN
*P o_int_n O
*I *4389:X O *D sky130_fd_sc_hd__clkdlybuf4s25_1
*CAP
1 o_int_n 0.000149231
2 *4389:X 0.000279083
3 *60:14 0.00115625
4 *60:8 0.00128611
5 *60:8 *863:18 3.7122e-06
6 *60:14 *1011:42 5.31444e-05
7 o_cmd_status_reg[2] o_int_n 3.38526e-05
8 *21:17 o_int_n 0.000146353
9 *23:11 *60:14 0.000135799
10 *25:11 o_int_n 0
11 *25:11 *60:14 0.000573973
12 *54:8 *60:14 0
13 *59:8 *60:14 0.000626421
14 *59:12 *60:14 9.30575e-05
*RES
1 *4389:X *60:8 41.48 
2 *60:8 *60:14 43.3786 
3 *60:14 o_int_n 20.0336 
*END

*D_NET *61 0.00187716
*CONN
*P o_receive_data[0] O
*I *4390:X O *D sky130_fd_sc_hd__clkdlybuf4s25_1
*CAP
1 o_receive_data[0] 0.000568065
2 *4390:X 0.000568065
3 o_receive_data[0] o_receive_data[6] 0.000244358
4 o_receive_data[0] *3647:A0 5.50106e-05
5 o_receive_data[0] *623:60 2.11157e-05
6 o_receive_data[0] *811:10 8.22421e-06
7 o_receive_data[0] *909:82 0
8 io_sda o_receive_data[0] 0.000412324
*RES
1 *4390:X o_receive_data[0] 49.6193 
*END

*D_NET *62 0.00577669
*CONN
*P o_receive_data[1] O
*I *4391:X O *D sky130_fd_sc_hd__clkdlybuf4s25_1
*CAP
1 o_receive_data[1] 0.000992766
2 *4391:X 8.63479e-05
3 *62:8 0.00107911
4 o_receive_data[1] o_receive_data[2] 0.00109226
5 o_receive_data[1] o_receive_data[3] 0.000196319
6 o_receive_data[1] o_receive_data[4] 0.00113472
7 o_receive_data[1] o_receive_data[5] 0
8 o_receive_data[1] *868:12 0
9 o_receive_data[1] *868:26 5.62424e-05
10 o_receive_data[1] *940:12 0.000102052
11 *14:13 o_receive_data[1] 0.000569054
12 *15:13 o_receive_data[1] 0.000467813
*RES
1 *4391:X *62:8 39.0979 
2 *62:8 o_receive_data[1] 36.9107 
*END

*D_NET *63 0.00376752
*CONN
*P o_receive_data[2] O
*I *4392:X O *D sky130_fd_sc_hd__clkdlybuf4s25_1
*CAP
1 o_receive_data[2] 0.000656766
2 *4392:X 0
3 *63:6 0.000656766
4 o_receive_data[2] o_receive_data[3] 0.000366675
5 o_receive_data[2] *867:12 1.17182e-05
6 o_receive_data[2] *867:16 0.000833579
7 o_receive_data[2] *868:26 7.53077e-05
8 o_receive_data[2] *940:12 7.44517e-05
9 o_receive_data[1] o_receive_data[2] 0.00109226
*RES
1 *4392:X *63:6 38 
2 *63:6 o_receive_data[2] 23.9673 
*END

*D_NET *64 0.00542655
*CONN
*P o_receive_data[3] O
*I *4393:X O *D sky130_fd_sc_hd__clkdlybuf4s25_1
*CAP
1 o_receive_data[3] 0.000617902
2 *4393:X 0.00078528
3 *64:6 0.00140318
4 o_receive_data[3] o_receive_data[4] 0.00101301
5 *64:6 *4205:A 5.3304e-05
6 *64:6 *4393:A 0.000550728
7 *64:6 *163:10 0.000172983
8 *64:6 *700:10 0.000267167
9 o_receive_data[1] o_receive_data[3] 0.000196319
10 o_receive_data[2] o_receive_data[3] 0.000366675
*RES
1 *4393:X *64:6 39.3436 
2 *64:6 o_receive_data[3] 37.5674 
*END

*D_NET *65 0.00464423
*CONN
*P o_receive_data[4] O
*I *4394:X O *D sky130_fd_sc_hd__clkdlybuf4s25_1
*CAP
1 o_receive_data[4] 0.00108264
2 *4394:X 0
3 *65:6 0.00108264
4 o_receive_data[4] o_receive_data[5] 0
5 o_receive_data[1] o_receive_data[4] 0.00113472
6 o_receive_data[3] o_receive_data[4] 0.00101301
7 *14:13 o_receive_data[4] 0.00033121
*RES
1 *4394:X *65:6 38 
2 *65:6 o_receive_data[4] 34.9783 
*END

*D_NET *66 0.00467943
*CONN
*P o_receive_data[5] O
*I *4395:X O *D sky130_fd_sc_hd__clkdlybuf4s25_1
*CAP
1 o_receive_data[5] 0.00117388
2 *4395:X 0
3 *66:6 0.00117388
4 o_receive_data[5] *3670:A0 0.000149239
5 o_receive_data[5] *3673:A 0.000201483
6 o_receive_data[5] *3889:CLK 0.000101071
7 o_receive_data[5] *295:14 4.38096e-05
8 o_receive_data[5] *624:59 2.5415e-05
9 o_receive_data[5] *694:14 0.000748214
10 o_receive_data[5] *889:126 0.000580849
11 io_sda o_receive_data[5] 0.000481577
12 o_receive_data[1] o_receive_data[5] 0
13 o_receive_data[4] o_receive_data[5] 0
*RES
1 *4395:X *66:6 38 
2 *66:6 o_receive_data[5] 24.1043 
*END

*D_NET *67 0.0035781
*CONN
*P o_receive_data[6] O
*I *4396:X O *D sky130_fd_sc_hd__clkdlybuf4s25_1
*CAP
1 o_receive_data[6] 0.000682016
2 *4396:X 0.000118634
3 *67:8 0.00080065
4 o_receive_data[6] *68:8 0
5 o_receive_data[6] *282:10 5.80963e-05
6 o_receive_data[6] *284:10 0.000423859
7 o_receive_data[6] *623:33 4.66645e-05
8 o_receive_data[6] *895:14 0
9 o_receive_data[0] o_receive_data[6] 0.000244358
10 *4:15 *67:8 7.44354e-05
11 *6:13 o_receive_data[6] 0.000415604
12 *8:13 o_receive_data[6] 0.000710436
13 *10:11 o_receive_data[6] 3.34818e-06
*RES
1 *4396:X *67:8 39.5743 
2 *67:8 o_receive_data[6] 23.263 
*END

*D_NET *68 0.00293172
*CONN
*P o_receive_data[7] O
*I *4397:X O *D sky130_fd_sc_hd__clkdlybuf4s25_1
*CAP
1 o_receive_data[7] 0.000527432
2 *4397:X 0.000395772
3 *68:8 0.000923204
4 *68:8 *282:10 3.56537e-05
5 *68:8 *895:14 0.000713859
6 o_receive_data[6] *68:8 0
7 *4:15 o_receive_data[7] 0.000259808
8 *8:13 o_receive_data[7] 7.59926e-05
9 *8:13 *68:8 0
*RES
1 *4397:X *68:8 47.4768 
2 *68:8 o_receive_data[7] 9.98987 
*END

*D_NET *69 0.00350435
*CONN
*P o_received_data_valid O
*I *4398:X O *D sky130_fd_sc_hd__clkdlybuf4s25_1
*CAP
1 o_received_data_valid 4.69479e-05
2 *4398:X 0.000471744
3 *69:12 0.00108599
4 *69:8 0.00151078
5 *69:8 *70:8 0.000388887
6 o_cmd_status_reg[4] *69:8 0
7 *20:11 o_received_data_valid 0
8 *29:13 o_received_data_valid 0
*RES
1 *4398:X *69:8 49.7657 
2 *69:8 *69:12 36.5843 
3 *69:12 o_received_data_valid 16.2221 
*END

*D_NET *70 0.00283266
*CONN
*P o_start_ack O
*I *4399:X O *D sky130_fd_sc_hd__clkdlybuf4s25_1
*CAP
1 o_start_ack 0.00089963
2 *4399:X 0.000322257
3 *70:8 0.00122189
4 *70:8 *654:22 0
5 *70:8 *872:22 0
6 *69:8 *70:8 0.000388887
*RES
1 *4399:X *70:8 45.8921 
2 *70:8 o_start_ack 48.85 
*END

*D_NET *71 0.00590494
*CONN
*P o_transmit_data_request O
*I *4400:X O *D sky130_fd_sc_hd__clkdlybuf4s25_1
*CAP
1 o_transmit_data_request 0.00202669
2 *4400:X 1.57412e-05
3 *71:10 0.00204244
4 o_transmit_data_request *449:20 0
5 o_transmit_data_request *854:26 0
6 o_transmit_data_request *908:32 0.000246107
7 o_transmit_data_request *912:10 6.97776e-05
8 *36:17 *71:10 2.26497e-05
9 *37:9 o_transmit_data_request 0.000541495
10 *45:9 o_transmit_data_request 0.000444552
11 *46:15 o_transmit_data_request 0.000495489
*RES
1 *4400:X *71:10 46.3211 
2 *71:10 o_transmit_data_request 26.1136 
*END

*D_NET *72 0.00162419
*CONN
*I *3471:B1 I *D sky130_fd_sc_hd__a21o_2
*I *3984:D I *D sky130_fd_sc_hd__dfrtp_2
*I *3402:X O *D sky130_fd_sc_hd__and2_2
*CAP
1 *3471:B1 0
2 *3984:D 0.000120336
3 *3402:X 0.000396673
4 *72:10 0.000517009
5 *3984:D *3979:CLK 2.76611e-06
6 *3984:D *621:10 6.03737e-05
7 *3984:D *907:36 0
8 *3984:D *935:20 8.51329e-05
9 *72:10 *831:10 0.000111045
10 *72:10 *907:36 0
11 *72:10 *939:12 0.00030233
12 *11:14 *72:10 2.85254e-05
*RES
1 *3402:X *72:10 46.6379 
2 *72:10 *3984:D 40.9621 
3 *72:10 *3471:B1 38 
*END

*D_NET *73 0.00362251
*CONN
*I *3469:B1 I *D sky130_fd_sc_hd__a21o_2
*I *3983:D I *D sky130_fd_sc_hd__dfrtp_2
*I *3401:X O *D sky130_fd_sc_hd__and2_2
*CAP
1 *3469:B1 0
2 *3983:D 0
3 *3401:X 0.000133041
4 *73:27 0.000435393
5 *73:14 0.000180245
6 *73:6 0.000748679
7 *73:6 *707:10 5.50049e-05
8 *73:6 *749:12 0.000148688
9 *73:14 *636:14 0.000238194
10 *73:14 *905:20 2.93747e-05
11 *73:14 *936:29 0
12 *73:14 *966:10 2.30292e-05
13 *73:27 *3958:RESET_B 0.000283088
14 *73:27 *109:14 0.000159568
15 *73:27 *604:89 0.000136486
16 *73:27 *604:101 2.86716e-05
17 *73:27 *646:43 0.00083615
18 *73:27 *749:12 0.00013359
19 *73:27 *961:72 5.3304e-05
*RES
1 *3401:X *73:6 26.0036 
2 *73:6 *73:14 33.9357 
3 *73:14 *3983:D 23 
4 *73:6 *73:27 44.065 
5 *73:27 *3469:B1 23 
*END

*D_NET *74 0.00207606
*CONN
*I *3932:D I *D sky130_fd_sc_hd__dfrtp_2
*I *3400:X O *D sky130_fd_sc_hd__and2_2
*CAP
1 *3932:D 0.000576613
2 *3400:X 0.000302339
3 *74:8 0.000878952
4 *3932:D *3432:A2 0
5 *3932:D *3937:CLK 0
6 *3932:D *101:12 0
7 *3932:D *360:73 0
8 *3932:D *611:102 0
9 *3932:D *708:10 0
10 *74:8 *3399:A 1.41077e-05
11 *74:8 *368:8 0.000272383
12 *74:8 *1067:70 3.16665e-05
*RES
1 *3400:X *74:8 42.4329 
2 *74:8 *3932:D 48.005 
*END

*D_NET *75 0.00112222
*CONN
*I *3957:D I *D sky130_fd_sc_hd__dfstp_2
*I *3471:X O *D sky130_fd_sc_hd__a21o_2
*CAP
1 *3957:D 5.145e-05
2 *3471:X 0.000304444
3 *75:10 0.000355894
4 *75:10 *3343:A 1.57571e-05
5 *75:10 *3905:RESET_B 7.75329e-06
6 *75:10 *353:10 0.000169674
7 *75:10 *376:10 0.00014196
8 *75:10 *621:10 2.93845e-05
9 *75:10 *636:74 4.59027e-05
*RES
1 *3471:X *75:10 44.6907 
2 *75:10 *3957:D 38.6214 
*END

*D_NET *76 0.000829948
*CONN
*I *4241:A I *D sky130_fd_sc_hd__dlygate4sd3_1
*I *3470:X O *D sky130_fd_sc_hd__a22o_2
*CAP
1 *4241:A 0
2 *3470:X 0.000297389
3 *76:10 0.000297389
4 *76:10 *3470:A1 3.02378e-05
5 *76:10 *362:25 1.56662e-06
6 *76:10 *370:14 0.000136486
7 *76:10 *880:10 6.68793e-05
*RES
1 *3470:X *76:10 42.9093 
2 *76:10 *4241:A 38 
*END

*D_NET *77 0.000633979
*CONN
*I *3955:D I *D sky130_fd_sc_hd__dfstp_2
*I *3469:X O *D sky130_fd_sc_hd__a21o_2
*CAP
1 *3955:D 0.000128527
2 *3469:X 4.6575e-05
3 *77:8 0.000175102
4 *77:8 *3958:RESET_B 0.000141888
5 *77:8 *604:101 0.000141888
*RES
1 *3469:X *77:8 39.9057 
2 *77:8 *3955:D 40.0507 
*END

*D_NET *78 0.00288294
*CONN
*I *4302:A I *D sky130_fd_sc_hd__dlygate4sd3_1
*I *3468:X O *D sky130_fd_sc_hd__a22o_2
*CAP
1 *4302:A 0
2 *3468:X 0.000206912
3 *78:14 0.000575262
4 *78:8 0.000782174
5 *78:8 *3451:A1 5.508e-05
6 *78:8 *3468:B2 0.000116564
7 *78:8 *362:25 0.000138444
8 *78:8 *960:27 9.58714e-05
9 *78:8 *978:18 0.000262864
10 *78:14 *3956:CLK 0
11 *78:14 *617:124 0
12 *78:14 *638:59 0.000415415
13 *78:14 *766:14 6.25829e-05
14 *78:14 *808:8 4.58924e-05
15 *78:14 *835:10 0
16 *78:14 *905:140 3.70094e-05
17 *78:14 *958:12 3.35885e-06
18 *78:14 *958:18 8.55061e-05
19 *78:14 *993:14 0
*RES
1 *3468:X *78:8 43.3857 
2 *78:8 *78:14 28.34 
3 *78:14 *4302:A 23 
*END

*D_NET *79 0.000914323
*CONN
*I *3945:D I *D sky130_fd_sc_hd__dfstp_2
*I *3467:X O *D sky130_fd_sc_hd__a22o_2
*CAP
1 *3945:D 0
2 *3467:X 0.000319141
3 *79:10 0.000319141
4 *79:10 *3456:A1 0
5 *79:10 *3467:A1 8.92328e-05
6 *79:10 *3680:B2 7.8128e-05
7 *79:10 *3951:RESET_B 0
8 *79:10 *558:10 0
9 *79:10 *1000:10 0
10 *79:10 *1006:22 0.000108681
*RES
1 *3467:X *79:10 43.7327 
2 *79:10 *3945:D 38 
*END

*D_NET *80 0.00169073
*CONN
*I *3946:D I *D sky130_fd_sc_hd__dfrtp_2
*I *3466:Y O *D sky130_fd_sc_hd__nor2_2
*CAP
1 *3946:D 7.23201e-05
2 *3466:Y 0.000316831
3 *80:8 0.000389151
4 *3946:D *3462:B1 0.000272383
5 *3946:D *3946:CLK 8.1796e-05
6 *80:8 *638:37 0.000558249
*RES
1 *3466:Y *80:8 45.54 
2 *80:8 *3946:D 41.0036 
*END

*D_NET *81 0.000422066
*CONN
*I *3947:D I *D sky130_fd_sc_hd__dfrtp_2
*I *3462:X O *D sky130_fd_sc_hd__a22o_2
*CAP
1 *3947:D 3.23287e-05
2 *3462:X 0.000136662
3 *81:8 0.000168991
4 *3947:D *426:16 1.73399e-05
5 *81:8 *3458:B 0
6 *81:8 *3462:A1 3.39231e-05
7 *81:8 *3462:A2 1.44546e-05
8 *81:8 *638:37 0
9 *81:8 *1002:16 1.83667e-05
*RES
1 *3462:X *81:8 40.9621 
2 *81:8 *3947:D 38.6214 
*END

*D_NET *82 0.000469606
*CONN
*I *3948:D I *D sky130_fd_sc_hd__dfrtp_2
*I *3461:X O *D sky130_fd_sc_hd__a221o_2
*CAP
1 *3948:D 0.000120443
2 *3461:X 0.000120443
3 *3948:D *3461:A1 6.17437e-06
4 *3948:D *3743:A 9.8601e-05
5 *3948:D *1003:12 0.000123944
*RES
1 *3461:X *3948:D 49.5007 
*END

*D_NET *83 0.000708554
*CONN
*I *3949:D I *D sky130_fd_sc_hd__dfrtp_2
*I *3459:X O *D sky130_fd_sc_hd__a21o_2
*CAP
1 *3949:D 0.000123478
2 *3459:X 4.66032e-05
3 *83:8 0.000170082
4 *3949:D *875:18 8.46337e-05
5 *83:8 *109:14 0.000141879
6 *83:8 *604:76 0.000141879
*RES
1 *3459:X *83:8 39.9057 
2 *83:8 *3949:D 40.5271 
*END

*D_NET *84 0.00096656
*CONN
*I *3950:D I *D sky130_fd_sc_hd__dfrtp_2
*I *3456:X O *D sky130_fd_sc_hd__a22o_2
*CAP
1 *3950:D 0.000267407
2 *3456:X 5.45485e-05
3 *84:8 0.000321956
4 *3950:D *3945:CLK 0.000123944
5 *3950:D *616:58 7.40397e-05
6 *84:8 *3456:A1 7.6144e-05
7 *84:8 *838:12 3.83778e-05
8 *84:8 *1000:10 1.01436e-05
*RES
1 *3456:X *84:8 39.2014 
2 *84:8 *3950:D 41.8632 
*END

*D_NET *85 0.00168846
*CONN
*I *3951:D I *D sky130_fd_sc_hd__dfrtp_2
*I *3455:X O *D sky130_fd_sc_hd__a21o_2
*CAP
1 *3951:D 0.000565271
2 *3455:X 0.000114664
3 *85:8 0.000679935
4 *3951:D *3823:B1 6.17437e-06
5 *3951:D *3951:RESET_B 0.000120167
6 *3951:D *1006:10 0.000105861
7 *85:8 *111:10 9.63918e-05
8 *85:8 *651:25 0
*RES
1 *3455:X *85:8 40.61 
2 *85:8 *3951:D 48.6264 
*END

*D_NET *86 0.00205048
*CONN
*I *3952:D I *D sky130_fd_sc_hd__dfrtp_2
*I *3453:X O *D sky130_fd_sc_hd__a22o_2
*CAP
1 *3952:D 0.000792831
2 *3453:X 6.48721e-05
3 *86:8 0.000857703
4 *3952:D *1007:10 0.000110389
5 *3952:D *1007:43 0.000141954
6 *86:8 *3448:A 0
7 *86:8 *618:134 8.27285e-05
*RES
1 *3453:X *86:8 39.2014 
2 *86:8 *3952:D 48.2121 
*END

*D_NET *87 0.000636394
*CONN
*I *4256:A I *D sky130_fd_sc_hd__dlygate4sd3_1
*I *3451:X O *D sky130_fd_sc_hd__a22o_2
*CAP
1 *4256:A 9.39804e-05
2 *3451:X 9.39804e-05
3 *4256:A *3451:A1 2.76351e-05
4 *4256:A *3451:A2 4.30505e-05
5 *4256:A *3451:B1 3.34129e-05
6 *4256:A *978:18 0.00031495
7 *4256:A *1003:76 2.93845e-05
*RES
1 *3451:X *4256:A 49.9771 
*END

*D_NET *88 0.00115697
*CONN
*I *3954:D I *D sky130_fd_sc_hd__dfrtp_2
*I *3450:X O *D sky130_fd_sc_hd__a21o_2
*CAP
1 *3954:D 0
2 *3450:X 0.000299568
3 *88:10 0.000299568
4 *88:10 *3979:CLK 6.17437e-06
5 *88:10 *3979:D 0.000185434
6 *88:10 *3979:RESET_B 0
7 *88:10 *114:10 0
8 *88:10 *617:32 0.000222113
9 *88:10 *755:12 0.00014411
*RES
1 *3450:X *88:10 45.1257 
2 *88:10 *3954:D 38 
*END

*D_NET *89 0.00276901
*CONN
*I *3942:D I *D sky130_fd_sc_hd__dfstp_2
*I *3442:X O *D sky130_fd_sc_hd__o21a_2
*CAP
1 *3942:D 0
2 *3442:X 0
3 *89:12 0.00068515
4 *89:6 0.00068515
5 *89:12 *3442:A2 0.000119174
6 *89:12 *3792:A2 0
7 *89:12 *203:8 0.000197479
8 *89:12 *645:59 0.000407227
9 *89:12 *645:70 0.00046356
10 *89:12 *713:20 5.58873e-06
11 *89:12 *753:12 0.000150675
12 *89:12 *889:34 5.50106e-05
13 *89:12 *892:23 0
14 *89:12 *993:38 0
*RES
1 *3442:X *89:6 38 
2 *89:6 *89:12 31.6129 
3 *89:12 *3942:D 23 
*END

*D_NET *90 0.000662188
*CONN
*I *3943:D I *D sky130_fd_sc_hd__dfrtp_2
*I *3441:Y O *D sky130_fd_sc_hd__nor2_2
*CAP
1 *3943:D 0.000253302
2 *3441:Y 0.000253302
3 *3943:D *627:42 6.37845e-05
4 *3943:D *627:44 9.17998e-05
*RES
1 *3441:Y *3943:D 49.9771 
*END

*D_NET *91 0.00249906
*CONN
*I *3441:A I *D sky130_fd_sc_hd__nor2_2
*I *3944:D I *D sky130_fd_sc_hd__dfrtp_2
*I *3439:X O *D sky130_fd_sc_hd__and2_2
*CAP
1 *3441:A 0
2 *3944:D 0.000426856
3 *3439:X 0.000191049
4 *91:10 0.000617905
5 *3944:D *3944:CLK 4.96717e-05
6 *3944:D *627:55 0.00010404
7 *3944:D *627:59 3.31127e-05
8 *3944:D *713:20 0.000191166
9 *3944:D *763:12 0.000450183
10 *91:10 *360:33 0
11 *91:10 *689:6 0.000137651
12 *91:10 *713:20 0.000137637
13 *91:10 *763:12 0.000159787
*RES
1 *3439:X *91:10 41.8321 
2 *91:10 *3944:D 46.6586 
3 *91:10 *3441:A 38 
*END

*D_NET *92 0.0014247
*CONN
*I *3938:D I *D sky130_fd_sc_hd__dfstp_2
*I *3438:X O *D sky130_fd_sc_hd__a22o_2
*CAP
1 *3938:D 0.000119757
2 *3438:X 0.000210527
3 *92:8 0.000330284
4 *3938:D *3527:A1 0.000144221
5 *3938:D *478:10 5.2894e-05
6 *92:8 *763:12 0
7 *92:8 *764:8 3.70094e-05
8 *92:8 *878:124 0.000459638
9 *92:8 *1063:29 7.03663e-05
*RES
1 *3438:X *92:8 44.1314 
2 *92:8 *3938:D 41.0036 
*END

*D_NET *93 0.000441105
*CONN
*I *4214:A I *D sky130_fd_sc_hd__dlygate4sd3_1
*I *3437:X O *D sky130_fd_sc_hd__a22o_2
*CAP
1 *4214:A 0.000220552
2 *3437:X 0.000220552
*RES
1 *3437:X *4214:A 49.5007 
*END

*D_NET *94 0.00156272
*CONN
*I *3940:D I *D sky130_fd_sc_hd__dfrtp_2
*I *3526:B1 I *D sky130_fd_sc_hd__o21ai_2
*I *3436:X O *D sky130_fd_sc_hd__a22o_2
*CAP
1 *3940:D 0.000320648
2 *3526:B1 0.000121575
3 *3436:X 8.62389e-05
4 *94:10 0.000442223
5 *94:8 8.62389e-05
6 *3526:B1 *1030:71 0.000182826
7 *3526:B1 *1064:10 5.2894e-05
8 *3940:D *628:27 5.41385e-05
9 *3940:D *1064:10 6.7063e-05
10 *94:8 *1030:16 0.000114092
11 *94:8 *1030:18 3.47781e-05
*RES
1 *3436:X *94:8 39.9057 
2 *94:8 *94:10 15 
3 *94:10 *3526:B1 26.0243 
4 *94:10 *3940:D 29.3386 
*END

*D_NET *95 0.00084683
*CONN
*I *3941:D I *D sky130_fd_sc_hd__dfrtp_2
*I *3435:X O *D sky130_fd_sc_hd__a2bb2o_2
*CAP
1 *3941:D 0
2 *3435:X 0.000371597
3 *95:10 0.000371597
4 *95:10 *200:8 0
5 *95:10 *606:35 0
6 *95:10 *644:14 0.000103637
7 *95:10 *644:55 0
*RES
1 *3435:X *95:10 43.0336 
2 *95:10 *3941:D 38 
*END

*D_NET *96 0.000640271
*CONN
*I *4265:A I *D sky130_fd_sc_hd__dlygate4sd3_1
*I *3433:X O *D sky130_fd_sc_hd__a22o_2
*CAP
1 *4265:A 0
2 *3433:X 0.000164336
3 *96:10 0.000164336
4 *96:10 *369:10 0.000138727
5 *96:10 *603:55 0.000117868
6 *96:10 *996:8 0
7 *96:10 *1093:32 5.50049e-05
*RES
1 *3433:X *96:10 41.9357 
2 *96:10 *4265:A 38 
*END

*D_NET *97 0.000678267
*CONN
*I *3933:D I *D sky130_fd_sc_hd__dfrtp_2
*I *3432:X O *D sky130_fd_sc_hd__a21o_2
*CAP
1 *3933:D 0
2 *3432:X 0.000278542
3 *97:6 0.000278542
4 *97:6 *3520:A 6.17437e-06
5 *97:6 *3933:CLK 0.00011501
*RES
1 *3432:X *97:6 27.4329 
2 *97:6 *3933:D 23 
*END

*D_NET *98 0.000701975
*CONN
*I *3934:D I *D sky130_fd_sc_hd__dfrtp_2
*I *3430:X O *D sky130_fd_sc_hd__a22o_2
*CAP
1 *3934:D 0
2 *3430:X 0.000206188
3 *98:10 0.000206188
4 *98:10 *3824:B1 5.50049e-05
5 *98:10 *4120:A 9.5877e-05
6 *98:10 *686:10 0.000138718
7 *98:10 *1093:46 0
*RES
1 *3430:X *98:10 41.48 
2 *98:10 *3934:D 38 
*END

*D_NET *99 0.000877717
*CONN
*I *4233:A I *D sky130_fd_sc_hd__dlygate4sd3_1
*I *3429:X O *D sky130_fd_sc_hd__a22o_2
*CAP
1 *4233:A 0
2 *3429:X 0.000245798
3 *99:10 0.000245798
4 *99:10 *3431:B 4.66047e-05
5 *99:10 *3783:A2 5.3304e-05
6 *99:10 *883:85 0.000141879
7 *99:10 *898:67 0.000141879
8 *99:10 *911:30 2.45549e-06
*RES
1 *3429:X *99:10 42.4329 
2 *99:10 *4233:A 38 
*END

*D_NET *100 0.00199298
*CONN
*I *4236:A I *D sky130_fd_sc_hd__dlygate4sd3_1
*I *3428:X O *D sky130_fd_sc_hd__a21o_2
*CAP
1 *4236:A 0.000168886
2 *3428:X 0.0002061
3 *100:10 0.000374986
4 *4236:A *643:26 0.000139346
5 *4236:A *880:61 0.00026808
6 *4236:A *880:91 0.000298215
7 *4236:A *894:72 0.000123944
8 *4236:A *911:62 8.56157e-05
9 *100:10 *3428:B1 5.3304e-05
10 *100:10 *3846:B1 4.05745e-05
11 *100:10 *360:22 1.01436e-05
12 *100:10 *687:8 3.88504e-05
13 *100:10 *894:51 1.14452e-05
14 *100:10 *894:60 6.16439e-05
15 *100:10 *894:111 0.000111852
*RES
1 *3428:X *100:10 41.8321 
2 *100:10 *4236:A 44.3386 
*END

*D_NET *101 0.00280143
*CONN
*I *4216:A I *D sky130_fd_sc_hd__dlygate4sd3_1
*I *3427:X O *D sky130_fd_sc_hd__a22o_2
*CAP
1 *4216:A 0
2 *3427:X 0
3 *101:12 0.000855672
4 *101:6 0.000855672
5 *101:12 *3335:A 0.000167452
6 *101:12 *3781:B1 0
7 *101:12 *3937:CLK 9.28739e-05
8 *101:12 *4212:A 0.000314157
9 *101:12 *423:36 9.45591e-05
10 *101:12 *611:102 4.6318e-06
11 *101:12 *711:19 0
12 *101:12 *883:103 0
13 *101:12 *1070:10 6.16439e-05
14 *101:12 *1090:10 0
15 *101:12 *1094:10 0.000354769
16 *3932:D *101:12 0
*RES
1 *3427:X *101:6 38 
2 *101:6 *101:12 33.9329 
3 *101:12 *4216:A 23 
*END

*D_NET *102 0.00193839
*CONN
*I *4199:A I *D sky130_fd_sc_hd__dlygate4sd3_1
*I *3426:Y O *D sky130_fd_sc_hd__a211oi_2
*CAP
1 *4199:A 0
2 *3426:Y 0.000685921
3 *102:10 0.000685921
4 *102:10 *4022:CLK 0.000177909
5 *102:10 *152:8 0.000177914
6 *102:10 *611:132 0.000114856
7 *102:10 *611:138 0
8 *102:10 *692:6 9.58714e-05
*RES
1 *3426:Y *102:10 49.5379 
2 *102:10 *4199:A 38 
*END

*D_NET *103 0.000730154
*CONN
*I *3929:D I *D sky130_fd_sc_hd__dfrtp_2
*I *3424:X O *D sky130_fd_sc_hd__a32o_2
*CAP
1 *3929:D 0.000184453
2 *3424:X 0.000130465
3 *103:8 0.000314918
4 *103:8 *144:8 0
5 *103:8 *188:8 6.10781e-05
6 *103:8 *889:10 0
7 *103:8 *911:20 3.92407e-05
*RES
1 *3424:X *103:8 40.61 
2 *103:8 *3929:D 41.0036 
*END

*D_NET *104 0.00132543
*CONN
*I *3930:D I *D sky130_fd_sc_hd__dfrtp_2
*I *3422:X O *D sky130_fd_sc_hd__o2bb2a_2
*CAP
1 *3930:D 0
2 *3422:X 0.000355611
3 *104:10 0.000355611
4 *104:10 *3778:B1 8.34394e-05
5 *104:10 *658:122 0.00030894
6 *104:10 *911:10 0.000110913
7 *104:10 *1096:8 0.000110913
*RES
1 *3422:X *104:10 43.9864 
2 *104:10 *3930:D 38 
*END

*D_NET *105 0.00550704
*CONN
*I *4039:D I *D sky130_fd_sc_hd__dfrtp_2
*I *3422:B1 I *D sky130_fd_sc_hd__o2bb2a_2
*I *3426:B1 I *D sky130_fd_sc_hd__a211oi_2
*I *3397:X O *D sky130_fd_sc_hd__and2_2
*CAP
1 *4039:D 0.000297117
2 *3422:B1 4.64935e-05
3 *3426:B1 0.000102682
4 *3397:X 0.000683478
5 *105:21 0.000734221
6 *105:8 0.00117677
7 *3422:B1 *3422:B2 3.22879e-05
8 *3422:B1 *3778:B1 0.00014196
9 *3426:B1 *4198:A 9.58714e-05
10 *3426:B1 *187:8 0.000164291
11 *3426:B1 *692:6 4.96717e-05
12 *3426:B1 *997:27 0.000166513
13 *4039:D *4021:CLK 2.93845e-05
14 *4039:D *256:8 6.58373e-05
15 *4039:D *607:78 0
16 *4039:D *628:105 0
17 *4039:D *885:62 5.50106e-05
18 *105:8 *3397:B 7.88828e-05
19 *105:8 *4194:A 1.59094e-05
20 *105:21 *3422:A2_N 0.000163352
21 *105:21 *187:8 0.000330144
22 *105:21 *997:27 0.000897678
23 *105:21 *1114:36 0.000179487
*RES
1 *3397:X *105:8 45.7679 
2 *105:8 *3426:B1 41.3557 
3 *105:8 *105:21 12.1179 
4 *105:21 *3422:B1 39.5743 
5 *105:21 *4039:D 44.0486 
*END

*D_NET *106 0.00516359
*CONN
*I *3965:D I *D sky130_fd_sc_hd__dfrtp_2
*I *3485:X O *D sky130_fd_sc_hd__or4_2
*CAP
1 *3965:D 0
2 *3485:X 0.00136448
3 *106:18 0.000385518
4 *106:10 0.00175
5 *106:10 *3689:A1 2.10502e-05
6 *106:10 *3866:CLK 3.46302e-05
7 *106:10 *434:73 1.47795e-05
8 *106:10 *446:10 0.000190782
9 *106:10 *448:18 0.000380848
10 *106:10 *924:8 0.000121803
11 *106:10 *924:27 7.06196e-05
12 *106:10 *924:35 4.86751e-05
13 *106:18 *3862:RESET_B 7.85313e-05
14 *106:18 *3965:CLK 8.60475e-05
15 *106:18 *618:105 0.000282662
16 *106:18 *634:24 3.31053e-05
17 *106:18 *638:10 0.000140949
18 *106:18 *872:6 0.000128401
19 *106:18 *908:10 3.07161e-05
*RES
1 *3485:X *106:10 43.7971 
2 *106:10 *106:18 39.9843 
3 *106:18 *3965:D 23 
*END

*D_NET *107 0.00305609
*CONN
*I *3973:D I *D sky130_fd_sc_hd__dfrtp_2
*I *3519:X O *D sky130_fd_sc_hd__and2_2
*CAP
1 *3973:D 0
2 *3519:X 0.00112308
3 *107:12 7.59234e-05
4 *107:6 0.001199
5 *107:6 *3894:D 0.000183733
6 *107:6 *3894:RESET_B 0.000265762
7 *107:6 *4013:CLK 7.44257e-05
8 *107:6 *4189:A 5.05471e-05
9 *107:6 *682:8 2.80078e-05
10 *107:12 *605:50 0
11 *107:12 *1014:10 5.56203e-05
*RES
1 *3519:X *107:6 38.3907 
2 *107:6 *107:12 31.5536 
3 *107:12 *3973:D 23 
*END

*D_NET *108 0.000990441
*CONN
*I *3976:D I *D sky130_fd_sc_hd__dfrtp_2
*I *3518:X O *D sky130_fd_sc_hd__a21o_2
*CAP
1 *3976:D 0
2 *3518:X 0.000320807
3 *108:10 0.000320807
4 *108:10 *302:8 0
5 *108:10 *433:38 0.00032159
6 *108:10 *1000:29 2.7237e-05
*RES
1 *3518:X *108:10 43.945 
2 *108:10 *3976:D 38 
*END

*D_NET *109 0.0107762
*CONN
*I *3449:A1 I *D sky130_fd_sc_hd__o21a_2
*I *3465:B1 I *D sky130_fd_sc_hd__a21oi_2
*I *3977:D I *D sky130_fd_sc_hd__dfrtp_2
*I *3444:X O *D sky130_fd_sc_hd__and2_2
*CAP
1 *3449:A1 3.148e-05
2 *3465:B1 0
3 *3977:D 0
4 *3444:X 0.000919044
5 *109:34 0.00071902
6 *109:28 0.00124511
7 *109:14 0.00140669
8 *109:6 0.00176816
9 *3449:A1 *426:40 5.50049e-05
10 *3449:A1 *1004:18 6.17437e-06
11 *109:6 *617:18 1.59094e-05
12 *109:6 *617:24 0.000145038
13 *109:6 *617:26 9.62666e-05
14 *109:6 *617:32 2.18409e-05
15 *109:6 *933:20 0.000568892
16 *109:6 *965:46 3.53115e-05
17 *109:14 *114:10 0
18 *109:14 *426:40 3.47781e-05
19 *109:14 *603:27 0
20 *109:14 *604:76 9.69326e-05
21 *109:14 *604:89 0.000853733
22 *109:14 *604:101 0.000331074
23 *109:14 *636:14 0.000178377
24 *109:14 *638:76 0
25 *109:14 *875:18 0
26 *109:14 *1009:8 6.93553e-05
27 *109:28 *3448:A 5.01534e-05
28 *109:28 *3904:RESET_B 0.000206318
29 *109:28 *363:32 0
30 *109:28 *426:40 3.91699e-05
31 *109:28 *428:30 4.65949e-05
32 *109:28 *429:10 5.50049e-05
33 *109:28 *430:10 0.000135359
34 *109:28 *435:82 1.13812e-05
35 *109:28 *618:134 0
36 *109:28 *1004:18 0.000125413
37 *109:28 *1004:26 0.000184582
38 *109:28 *1007:10 9.41704e-05
39 *109:28 *1007:14 8.48502e-06
40 *109:34 *3448:A 0.000208304
41 *109:34 *3638:A0 0.000207948
42 *109:34 *275:10 0
43 *109:34 *435:82 0.000162263
44 *109:34 *924:19 3.96108e-05
45 *109:34 *924:51 0.000166192
46 *109:34 *981:27 0.000135616
47 *73:27 *109:14 0.000159568
48 *83:8 *109:14 0.000141879
*RES
1 *3444:X *109:6 36.485 
2 *109:6 *109:14 37.1643 
3 *109:14 *109:28 41.1236 
4 *109:28 *109:34 31.2814 
5 *109:34 *3977:D 23 
6 *109:28 *3465:B1 38 
7 *109:14 *3449:A1 38.6214 
*END

*D_NET *110 0.00305885
*CONN
*I *3980:D I *D sky130_fd_sc_hd__dfrtp_2
*I *3523:X O *D sky130_fd_sc_hd__mux2_1
*CAP
1 *3980:D 0
2 *3523:X 0
3 *110:12 0.000657812
4 *110:6 0.000657812
5 *110:12 *3340:A 0.000129412
6 *110:12 *3950:RESET_B 0.000221174
7 *110:12 *3980:RESET_B 0.000399822
8 *110:12 *236:10 7.75329e-06
9 *110:12 *651:25 0.000373351
10 *110:12 *651:69 0.000227807
11 *110:12 *778:8 4.334e-05
12 *110:12 *883:36 6.17437e-06
13 *110:12 *991:10 0.000200013
14 *110:12 *1095:10 0.000134383
*RES
1 *3523:X *110:6 38 
2 *110:6 *110:12 33.0421 
3 *110:12 *3980:D 23 
*END

*D_NET *111 0.00847311
*CONN
*I *3975:D I *D sky130_fd_sc_hd__dfrtp_2
*I *3455:B1 I *D sky130_fd_sc_hd__a21o_2
*I *3454:X O *D sky130_fd_sc_hd__o21a_2
*CAP
1 *3975:D 0
2 *3455:B1 0
3 *3454:X 0.000569985
4 *111:23 0.0011889
5 *111:10 0.00221843
6 *111:8 0.00159952
7 *111:8 *3454:A2 0.000139346
8 *111:8 *4077:A 1.44499e-05
9 *111:8 *603:43 3.01144e-05
10 *111:10 *3825:A1 0
11 *111:10 *3950:RESET_B 0
12 *111:10 *374:32 0.000188142
13 *111:10 *616:10 0
14 *111:10 *616:21 0
15 *111:10 *651:25 0
16 *111:10 *736:23 0
17 *111:10 *838:12 0.00012829
18 *111:10 *990:35 0.000348456
19 *111:10 *1003:18 0
20 *111:10 *1003:53 0
21 *111:10 *1003:76 0
22 *111:10 *1006:10 0
23 *111:23 *3427:A1 0.000378492
24 *111:23 *3825:A1 0
25 *111:23 *3975:CLK 0.00019369
26 *111:23 *4020:CLK 0.000111148
27 *111:23 *360:73 0.000143446
28 *111:23 *411:8 0
29 *111:23 *423:10 0.000138718
30 *111:23 *423:28 1.47563e-05
31 *111:23 *611:10 0.000158134
32 *111:23 *611:12 0.00021622
33 *111:23 *611:14 9.04083e-05
34 *111:23 *611:52 7.91596e-05
35 *111:23 *658:105 0
36 *111:23 *708:10 0.00033609
37 *111:23 *711:19 0
38 *111:23 *883:85 6.17437e-06
39 *111:23 *1006:10 0
40 *111:23 *1089:20 8.46456e-05
41 *85:8 *111:10 9.63918e-05
*RES
1 *3454:X *111:8 45.2914 
2 *111:8 *111:10 20.5693 
3 *111:10 *3455:B1 38 
4 *111:10 *111:23 43.5029 
5 *111:23 *3975:D 23 
*END

*D_NET *112 0.00209551
*CONN
*I *3974:D I *D sky130_fd_sc_hd__dfrtp_2
*I *3525:X O *D sky130_fd_sc_hd__mux2_1
*CAP
1 *3974:D 0.000304618
2 *3525:X 0.000212611
3 *112:8 0.000517229
4 *3974:D *617:18 0.000266894
5 *112:8 *3468:A2 0.000324751
6 *112:8 *3525:A1 4.08537e-05
7 *112:8 *617:18 0.000139647
8 *112:8 *749:12 0.000138718
9 *112:8 *905:16 8.45324e-05
10 *112:8 *907:65 6.56523e-05
*RES
1 *3525:X *112:8 45.1879 
2 *112:8 *3974:D 44.5043 
*END

*D_NET *113 0.0025869
*CONN
*I *3972:D I *D sky130_fd_sc_hd__dfrtp_2
*I *3459:B1 I *D sky130_fd_sc_hd__a21o_2
*I *3458:X O *D sky130_fd_sc_hd__and3_2
*CAP
1 *3972:D 0
2 *3459:B1 0.000112772
3 *3458:X 0.000258687
4 *113:23 0.000223011
5 *113:8 0.00059447
6 *3459:B1 *3459:A1 0.000228001
7 *3459:B1 *3459:A2 0.000247338
8 *113:8 *3459:A1 0.000164373
9 *113:8 *3459:A2 2.64616e-05
10 *113:8 *3462:A2 0
11 *113:8 *3524:A2 2.18409e-05
12 *113:8 *364:12 5.46873e-05
13 *113:8 *477:8 0.000267178
14 *113:23 *3949:RESET_B 0
15 *113:23 *3972:CLK 2.93666e-05
16 *113:23 *364:31 6.25829e-05
17 *113:23 *646:37 0
18 *113:23 *646:43 0
19 *113:23 *875:18 0.00010404
20 *113:23 *1004:12 0.000192087
*RES
1 *3458:X *113:8 28.8829 
2 *113:8 *3459:B1 26.9771 
3 *113:8 *113:23 35.075 
4 *113:23 *3972:D 23 
*END

*D_NET *114 0.00430441
*CONN
*I *3450:B1 I *D sky130_fd_sc_hd__a21o_2
*I *3979:D I *D sky130_fd_sc_hd__dfrtp_2
*I *3449:X O *D sky130_fd_sc_hd__o21a_2
*CAP
1 *3450:B1 2.3752e-05
2 *3979:D 0.000330692
3 *3449:X 0.000156397
4 *114:10 0.00139977
5 *114:8 0.00120173
6 *3450:B1 *3450:A1 2.76611e-06
7 *3450:B1 *372:8 1.14452e-05
8 *3450:B1 *617:93 0
9 *3450:B1 *933:20 5.46706e-05
10 *3979:D *3979:CLK 5.10686e-05
11 *114:10 *3401:B 0.000148736
12 *114:10 *3450:A1 5.40866e-05
13 *114:10 *3949:CLK 0
14 *114:10 *638:76 0
15 *114:10 *707:10 0.000110532
16 *114:10 *755:12 0
17 *114:10 *755:22 0
18 *114:10 *875:18 0
19 *114:10 *905:28 0.000435013
20 *114:10 *933:20 0.000108681
21 *114:10 *936:29 0
22 *114:10 *961:10 2.96369e-05
23 *88:10 *3979:D 0.000185434
24 *88:10 *114:10 0
25 *109:14 *114:10 0
*RES
1 *3449:X *114:8 40.0507 
2 *114:8 *114:10 20.9214 
3 *114:10 *3979:D 42.93 
4 *114:10 *3450:B1 38.8493 
*END

*D_NET *115 0.000494763
*CONN
*I *4045:D I *D sky130_fd_sc_hd__dfrtp_2
*I *3360:Y O *D sky130_fd_sc_hd__inv_2
*CAP
1 *4045:D 0.000161435
2 *3360:Y 6.55146e-05
3 *115:8 0.000226949
4 *115:8 *629:8 4.08641e-05
*RES
1 *3360:Y *115:8 39.2014 
2 *115:8 *4045:D 40.118 
*END

*D_NET *116 0.00114785
*CONN
*I *4042:D I *D sky130_fd_sc_hd__dfrtp_2
*I *3359:Y O *D sky130_fd_sc_hd__inv_2
*CAP
1 *4042:D 0
2 *3359:Y 0.000417361
3 *116:10 0.000417361
4 *116:10 *3663:B 6.73366e-05
5 *116:10 *3749:S 0.000119429
6 *116:10 *641:37 0
7 *116:10 *907:10 6.07929e-05
8 *116:10 *907:16 5.41288e-05
9 *116:10 *907:102 0
10 *116:10 *934:28 1.14452e-05
*RES
1 *3359:Y *116:10 44.3386 
2 *116:10 *4042:D 38 
*END

*D_NET *117 0.00261586
*CONN
*I *3997:D I *D sky130_fd_sc_hd__dfrtp_2
*I *3515:X O *D sky130_fd_sc_hd__and3b_2
*CAP
1 *3997:D 0
2 *3515:X 6.87913e-05
3 *117:12 0.000984438
4 *117:8 0.00105323
5 *117:8 *396:24 0
6 *117:8 *476:8 2.54046e-05
7 *117:12 *3381:A1 2.31797e-05
8 *117:12 *3997:CLK 0.000387324
9 *117:12 *4098:A 1.98462e-06
10 *117:12 *625:92 7.15126e-05
*RES
1 *3515:X *117:8 39.2014 
2 *117:8 *117:12 28.863 
3 *117:12 *3997:D 23 
*END

*D_NET *118 0.000701363
*CONN
*I *3986:D I *D sky130_fd_sc_hd__dfrtp_2
*I *3528:X O *D sky130_fd_sc_hd__a21o_2
*CAP
1 *3986:D 3.09722e-05
2 *3528:X 0.000239845
3 *118:8 0.000270817
4 *3986:D *893:31 2.93747e-05
5 *118:8 *626:21 0.000111998
6 *118:8 *645:114 0
7 *118:8 *993:58 1.83564e-05
*RES
1 *3528:X *118:8 43.075 
2 *118:8 *3986:D 38.6214 
*END

*D_NET *119 0.00147963
*CONN
*I *4253:A I *D sky130_fd_sc_hd__dlygate4sd3_1
*I *3526:Y O *D sky130_fd_sc_hd__o21ai_2
*CAP
1 *4253:A 0
2 *3526:Y 0.000479793
3 *119:10 0.000479793
4 *119:10 *3436:B1 0.000166522
5 *119:10 *879:37 0.000119828
6 *119:10 *893:55 3.70187e-05
7 *119:10 *1030:16 5.56203e-05
8 *119:10 *1030:71 0.000141052
*RES
1 *3526:Y *119:10 47.1143 
2 *119:10 *4253:A 38 
*END

*D_NET *120 0.00368507
*CONN
*I *4019:D I *D sky130_fd_sc_hd__dfrtp_2
*I *3362:A1 I *D sky130_fd_sc_hd__mux2_1
*I *3361:Y O *D sky130_fd_sc_hd__nor2_2
*CAP
1 *4019:D 0
2 *3362:A1 0
3 *3361:Y 0.000289577
4 *120:27 0.000427045
5 *120:12 0.000427045
6 *120:10 0.000289577
7 *120:10 *719:8 0.000172894
8 *120:10 *993:14 2.19539e-05
9 *120:10 *1067:28 2.05503e-05
10 *120:10 *1067:42 0.00042016
11 *120:27 *4154:A 0.000105808
12 *120:27 *365:16 0.000441978
13 *120:27 *616:46 7.88828e-05
14 *120:27 *617:124 0.000333286
15 *120:27 *696:6 9.67842e-05
16 *120:27 *880:10 9.58714e-05
17 *120:27 *993:14 0.000408129
18 *120:27 *1067:42 1.94685e-05
19 *4075:A *120:10 1.75203e-05
20 *11:14 *120:10 1.85359e-05
*RES
1 *3361:Y *120:10 45.3536 
2 *120:10 *120:12 15 
3 *120:12 *3362:A1 23 
4 *120:12 *120:27 42.8636 
5 *120:27 *4019:D 23 
*END

*D_NET *121 0.000412703
*CONN
*I *3854:D I *D sky130_fd_sc_hd__dfstp_2
*I *3355:Y O *D sky130_fd_sc_hd__inv_2
*CAP
1 *3854:D 0
2 *3355:Y 0.000178849
3 *121:10 0.000178849
4 *121:10 *660:31 0
5 *121:10 *900:20 5.50049e-05
*RES
1 *3355:Y *121:10 40.8793 
2 *121:10 *3854:D 38 
*END

*D_NET *122 0.000719547
*CONN
*I *4188:A I *D sky130_fd_sc_hd__dlygate4sd3_1
*I *3516:Y O *D sky130_fd_sc_hd__nor2_2
*CAP
1 *4188:A 0
2 *3516:Y 0.000278468
3 *122:10 0.000278468
4 *122:10 *3855:CLK 5.25997e-05
5 *122:10 *172:8 0
6 *122:10 *274:10 0
7 *122:10 *660:27 5.50049e-05
8 *122:10 *685:18 0
9 *122:10 *900:18 5.50049e-05
*RES
1 *3516:Y *122:10 43.6964 
2 *122:10 *4188:A 38 
*END

*D_NET *123 0.000586691
*CONN
*I *4316:A I *D sky130_fd_sc_hd__dlygate4sd3_1
*I *3520:X O *D sky130_fd_sc_hd__and2_2
*CAP
1 *4316:A 0
2 *3520:X 0.000252827
3 *123:10 0.000252827
4 *123:10 *3433:A1 2.07242e-05
5 *123:10 *3520:A 6.17437e-06
6 *123:10 *996:8 0
7 *123:10 *1093:32 5.41385e-05
*RES
1 *3520:X *123:10 41.9564 
2 *123:10 *4316:A 38 
*END

*D_NET *124 0.000361687
*CONN
*I *4193:A I *D sky130_fd_sc_hd__dlygate4sd3_1
*I *3625:Y O *D sky130_fd_sc_hd__nor3_2
*CAP
1 *4193:A 4.2399e-05
2 *3625:Y 4.2399e-05
3 *4193:A *3428:B1 0.000138444
4 *4193:A *3846:B1 5.50049e-05
5 *4193:A *645:59 8.34394e-05
*RES
1 *3625:Y *4193:A 47.5743 
*END

*D_NET *125 0.000741513
*CONN
*I *4018:D I *D sky130_fd_sc_hd__dfrtp_2
*I *3521:X O *D sky130_fd_sc_hd__or2_2
*CAP
1 *4018:D 0
2 *3521:X 0.000202917
3 *125:8 0.000202917
4 *125:8 *423:36 0
5 *125:8 *607:58 1.14452e-05
6 *125:8 *658:36 9.98891e-05
7 *125:8 *662:80 0
8 *125:8 *883:128 0.000224345
*RES
1 *3521:X *125:8 43.075 
2 *125:8 *4018:D 38 
*END

*D_NET *126 0.000804142
*CONN
*I *3999:D I *D sky130_fd_sc_hd__dfrtp_2
*I *3529:Y O *D sky130_fd_sc_hd__o21ai_2
*CAP
1 *3999:D 0
2 *3529:Y 0.000339979
3 *126:10 0.000339979
4 *126:10 *3529:A2 0
5 *126:10 *3823:A1 0
6 *126:10 *3951:CLK 6.88885e-05
7 *126:10 *218:10 4.21594e-06
8 *126:10 *612:8 5.10805e-05
9 *126:10 *612:21 0
*RES
1 *3529:Y *126:10 44.4421 
2 *126:10 *3999:D 38 
*END

*D_NET *127 0.000965527
*CONN
*I *4009:D I *D sky130_fd_sc_hd__dfrtp_2
*I *3557:Y O *D sky130_fd_sc_hd__nor3_2
*CAP
1 *4009:D 3.02265e-05
2 *3557:Y 0.000202702
3 *127:8 0.000232928
4 *4009:D *3553:A1 3.22879e-05
5 *127:8 *904:111 0.000123336
6 *127:8 *904:126 0
7 *127:8 *1073:22 0.000114092
8 *127:8 *1086:36 0.000229955
*RES
1 *3557:Y *127:8 44.1314 
2 *127:8 *4009:D 38.6214 
*END

*D_NET *128 0.000559575
*CONN
*I *4010:D I *D sky130_fd_sc_hd__dfrtp_2
*I *3561:X O *D sky130_fd_sc_hd__o21a_2
*CAP
1 *4010:D 5.12706e-05
2 *3561:X 0.00010674
3 *128:8 0.00015801
4 *4010:D *3571:B1 0.000143655
5 *128:8 *493:18 9.98995e-05
6 *128:8 *613:103 0
7 *128:8 *613:118 0
*RES
1 *3561:X *128:8 40.61 
2 *128:8 *4010:D 39.5743 
*END

*D_NET *129 0.00179225
*CONN
*I *4011:D I *D sky130_fd_sc_hd__dfrtp_2
*I *3564:X O *D sky130_fd_sc_hd__and3_2
*CAP
1 *4011:D 0.000602164
2 *3564:X 0.000118359
3 *129:8 0.000720523
4 *4011:D *4326:A 0.000183733
5 *4011:D *381:10 0.000114846
6 *129:8 *389:34 0
7 *129:8 *457:8 5.26204e-05
*RES
1 *3564:X *129:8 40.2579 
2 *129:8 *4011:D 49.1029 
*END

*D_NET *130 0.000580688
*CONN
*I *4012:D I *D sky130_fd_sc_hd__dfrtp_2
*I *3567:Y O *D sky130_fd_sc_hd__a211oi_2
*CAP
1 *4012:D 0
2 *3567:Y 0.000261991
3 *130:10 0.000261991
4 *130:10 *3567:C1 5.67058e-05
5 *130:10 *503:10 0
6 *130:10 *654:72 0
*RES
1 *3567:Y *130:10 42.785 
2 *130:10 *4012:D 38 
*END

*D_NET *131 0.000606987
*CONN
*I *4013:D I *D sky130_fd_sc_hd__dfrtp_2
*I *3569:X O *D sky130_fd_sc_hd__o21a_2
*CAP
1 *4013:D 0
2 *3569:X 0.000176781
3 *131:10 0.000176781
4 *131:10 *3973:RESET_B 0.000139352
5 *131:10 *919:10 0.000114074
*RES
1 *3569:X *131:10 41.1279 
2 *131:10 *4013:D 38 
*END

*D_NET *132 0.000791789
*CONN
*I *4014:D I *D sky130_fd_sc_hd__dfrtp_2
*I *3572:Y O *D sky130_fd_sc_hd__nor2_2
*CAP
1 *4014:D 0.000120747
2 *3572:Y 6.55223e-05
3 *132:8 0.000186269
4 *4014:D *3570:A2 0.000141954
5 *4014:D *613:118 5.47927e-05
6 *132:8 *503:18 7.76364e-06
7 *132:8 *654:72 0
8 *132:8 *799:12 7.28526e-05
9 *132:8 *1076:43 0.000141888
*RES
1 *3572:Y *132:8 40.2579 
2 *132:8 *4014:D 41.0036 
*END

*D_NET *133 0.000351616
*CONN
*I *4000:D I *D sky130_fd_sc_hd__dfrtp_2
*I *3533:X O *D sky130_fd_sc_hd__and3_2
*CAP
1 *4000:D 0
2 *3533:X 0.000118766
3 *133:10 0.000118766
4 *133:10 *4001:CLK 0.000114083
*RES
1 *3533:X *133:10 40.175 
2 *133:10 *4000:D 38 
*END

*D_NET *134 0.000680103
*CONN
*I *4001:D I *D sky130_fd_sc_hd__dfrtp_2
*I *3535:Y O *D sky130_fd_sc_hd__a21oi_2
*CAP
1 *4001:D 0
2 *3535:Y 0.000174401
3 *134:10 0.000174401
4 *134:10 *3533:A 4.90891e-05
5 *134:10 *3535:A1 0.000141954
6 *134:10 *3535:A2 0.000140259
*RES
1 *3535:Y *134:10 41.8321 
2 *134:10 *4001:D 38 
*END

*D_NET *135 0.000591911
*CONN
*I *4002:D I *D sky130_fd_sc_hd__dfrtp_2
*I *3538:X O *D sky130_fd_sc_hd__and3b_2
*CAP
1 *4002:D 2.53581e-05
2 *3538:X 0.000121417
3 *135:8 0.000146775
4 *4002:D *3807:B1 0.000141954
5 *4002:D *142:12 8.1796e-05
6 *135:8 *882:75 0
7 *135:8 *1071:21 7.461e-05
*RES
1 *3538:X *135:8 40.2579 
2 *135:8 *4002:D 39.5743 
*END

*D_NET *136 0.000397697
*CONN
*I *4003:D I *D sky130_fd_sc_hd__dfrtp_2
*I *3541:X O *D sky130_fd_sc_hd__and3_2
*CAP
1 *4003:D 0
2 *3541:X 0.000113919
3 *136:10 0.000113919
4 *136:10 *3541:C 5.67058e-05
5 *136:10 *485:8 0.000113153
*RES
1 *3541:X *136:10 40.175 
2 *136:10 *4003:D 38 
*END

*D_NET *137 0.000977831
*CONN
*I *4004:D I *D sky130_fd_sc_hd__dfrtp_2
*I *3543:Y O *D sky130_fd_sc_hd__a211oi_2
*CAP
1 *4004:D 0
2 *3543:Y 0.000211013
3 *137:12 0.000211013
4 *137:12 *3489:B 0.000137651
5 *137:12 *3543:A1 0.00034232
6 *137:12 *4004:CLK 1.88405e-05
7 *137:12 *902:38 5.69933e-05
*RES
1 *3543:Y *137:12 29.2764 
2 *137:12 *4004:D 23 
*END

*D_NET *138 0.000532442
*CONN
*I *4005:D I *D sky130_fd_sc_hd__dfrtp_2
*I *3546:X O *D sky130_fd_sc_hd__and3_2
*CAP
1 *4005:D 2.24548e-05
2 *3546:X 0.000119334
3 *138:10 0.000141789
4 *4005:D *3347:A 5.50106e-05
5 *138:10 *3545:B 5.3304e-05
6 *138:10 *490:8 0.000110913
7 *138:10 *1083:10 2.96369e-05
*RES
1 *3546:X *138:10 40.175 
2 *138:10 *4005:D 38.6214 
*END

*D_NET *139 0.000305185
*CONN
*I *4293:A I *D sky130_fd_sc_hd__dlygate4sd3_1
*I *3549:Y O *D sky130_fd_sc_hd__a21oi_2
*CAP
1 *4293:A 4.24511e-05
2 *3549:Y 8.71949e-05
3 *139:8 0.000129646
4 *139:8 *380:10 4.58924e-05
5 *139:8 *896:146 0
*RES
1 *3549:Y *139:8 39.9057 
2 *139:8 *4293:A 38.6214 
*END

*D_NET *140 0.000377841
*CONN
*I *4007:D I *D sky130_fd_sc_hd__dfrtp_2
*I *3552:Y O *D sky130_fd_sc_hd__nor3_2
*CAP
1 *4007:D 0
2 *3552:Y 0.000118142
3 *140:10 0.000118142
4 *140:10 *3550:B1 0
5 *140:10 *492:10 0.000113153
6 *140:10 *493:55 5.37348e-06
7 *140:10 *493:68 2.30292e-05
*RES
1 *3552:Y *140:10 40.175 
2 *140:10 *4007:D 38 
*END

*D_NET *141 0.000245594
*CONN
*I *4008:D I *D sky130_fd_sc_hd__dfrtp_2
*I *3554:X O *D sky130_fd_sc_hd__o21a_2
*CAP
1 *4008:D 0
2 *3554:X 9.68685e-05
3 *141:8 9.68685e-05
4 *141:8 *613:82 5.18573e-05
*RES
1 *3554:X *141:8 39.5536 
2 *141:8 *4008:D 38 
*END

*D_NET *142 0.0039137
*CONN
*I *4015:D I *D sky130_fd_sc_hd__dfrtp_2
*I *3529:A2 I *D sky130_fd_sc_hd__o21ai_2
*I *3494:Y O *D sky130_fd_sc_hd__nor3_2
*CAP
1 *4015:D 0.000531437
2 *3529:A2 0.000211122
3 *3494:Y 0.000413176
4 *142:12 0.00115574
5 *3529:A2 *4002:CLK 0.000154138
6 *3529:A2 *4289:A 0
7 *3529:A2 *218:10 0
8 *3529:A2 *389:12 0
9 *3529:A2 *612:21 1.19692e-05
10 *3529:A2 *612:43 0.000195248
11 *3529:A2 *902:62 3.56537e-05
12 *4015:D *4002:CLK 3.70187e-05
13 *4015:D *484:8 2.45549e-06
14 *4015:D *611:27 7.44354e-05
15 *4015:D *882:75 0.000138718
16 *4015:D *898:6 1.32939e-05
17 *4015:D *902:62 6.88715e-05
18 *4015:D *1071:21 0
19 *142:12 *3488:D_N 4.9662e-05
20 *142:12 *3807:A1 2.64616e-05
21 *142:12 *3807:A2 0.000566072
22 *142:12 *3807:B1 0.000146432
23 *4002:D *142:12 8.1796e-05
24 *126:10 *3529:A2 0
*RES
1 *3494:Y *142:12 49.2686 
2 *142:12 *3529:A2 43.075 
3 *142:12 *4015:D 47.7771 
*END

*D_NET *143 0.000998476
*CONN
*I *4020:D I *D sky130_fd_sc_hd__dfrtp_2
*I *3522:X O *D sky130_fd_sc_hd__and2_2
*CAP
1 *4020:D 0.000286615
2 *3522:X 4.55227e-05
3 *143:8 0.000332138
4 *4020:D *3827:A1 9.58714e-05
5 *143:8 *3980:RESET_B 0.000114092
6 *143:8 *651:69 1.01436e-05
7 *143:8 *898:18 0.000114092
*RES
1 *3522:X *143:8 39.5536 
2 *143:8 *4020:D 42.4329 
*END

*D_NET *144 0.0015194
*CONN
*I *4195:A I *D sky130_fd_sc_hd__dlygate4sd3_1
*I *3517:Y O *D sky130_fd_sc_hd__nor2_2
*CAP
1 *4195:A 0.000468457
2 *3517:Y 0.000291244
3 *144:8 0.0007597
4 *144:8 *188:8 0
5 *144:8 *880:117 0
6 *144:8 *889:10 0
7 *103:8 *144:8 0
*RES
1 *3517:Y *144:8 43.075 
2 *144:8 *4195:A 45.7679 
*END

*D_NET *145 0.000776351
*CONN
*I *4021:D I *D sky130_fd_sc_hd__dfrtp_2
*I *3573:Y O *D sky130_fd_sc_hd__o21ai_2
*CAP
1 *4021:D 0
2 *3573:Y 0.000295461
3 *145:10 0.000295461
4 *145:10 *4037:D 0.000185428
5 *145:10 *161:10 0
6 *145:10 *787:10 0
7 *145:10 *899:60 0
*RES
1 *3573:Y *145:10 43.3857 
2 *145:10 *4021:D 38 
*END

*D_NET *146 0.00041059
*CONN
*I *4031:D I *D sky130_fd_sc_hd__dfrtp_2
*I *3601:Y O *D sky130_fd_sc_hd__nor3_2
*CAP
1 *4031:D 0.000175086
2 *3601:Y 0.000175086
3 *4031:D *3601:A 3.7122e-06
4 *4031:D *3601:C 0
5 *4031:D *4031:CLK 5.67058e-05
*RES
1 *3601:Y *4031:D 49.0243 
*END

*D_NET *147 0.000513953
*CONN
*I *4248:A I *D sky130_fd_sc_hd__dlygate4sd3_1
*I *3605:X O *D sky130_fd_sc_hd__o21a_2
*CAP
1 *4248:A 9.69303e-05
2 *3605:X 0.000110804
3 *147:8 0.000207734
4 *4248:A *887:119 9.84851e-05
*RES
1 *3605:X *147:8 39.9057 
2 *147:8 *4248:A 40.0507 
*END

*D_NET *148 0.000688826
*CONN
*I *4033:D I *D sky130_fd_sc_hd__dfrtp_2
*I *3608:X O *D sky130_fd_sc_hd__and3_2
*CAP
1 *4033:D 6.64146e-05
2 *3608:X 5.62067e-05
3 *148:8 0.000122621
4 *4033:D *609:12 9.91701e-05
5 *4033:D *1100:10 6.6978e-05
6 *148:8 *3608:C 0.000138718
7 *148:8 *662:67 0.000138718
*RES
1 *3608:X *148:8 39.9057 
2 *148:8 *4033:D 40.0507 
*END

*D_NET *149 0.000181348
*CONN
*I *4034:D I *D sky130_fd_sc_hd__dfrtp_2
*I *3611:Y O *D sky130_fd_sc_hd__a211oi_2
*CAP
1 *4034:D 0
2 *3611:Y 7.16044e-05
3 *149:8 7.16044e-05
4 *149:8 *253:8 0
5 *149:8 *609:20 3.81391e-05
6 *149:8 *662:67 0
*RES
1 *3611:Y *149:8 39.5536 
2 *149:8 *4034:D 38 
*END

*D_NET *150 0.0011315
*CONN
*I *4035:D I *D sky130_fd_sc_hd__dfrtp_2
*I *3613:X O *D sky130_fd_sc_hd__o21a_2
*CAP
1 *4035:D 0
2 *3613:X 0.000467301
3 *150:10 0.000467301
4 *150:10 *151:10 7.28526e-05
5 *150:10 *628:61 5.61414e-05
6 *150:10 *885:104 0
7 *150:10 *887:82 6.79006e-05
8 *150:10 *901:69 0
*RES
1 *3613:X *150:10 45.8507 
2 *150:10 *4035:D 38 
*END

*D_NET *151 0.000896347
*CONN
*I *4036:D I *D sky130_fd_sc_hd__dfrtp_2
*I *3616:Y O *D sky130_fd_sc_hd__nor2_2
*CAP
1 *4036:D 0
2 *3616:Y 0.000218929
3 *151:10 0.000218929
4 *151:10 *534:12 0.000111852
5 *151:10 *628:61 0
6 *151:10 *659:99 9.58714e-05
7 *151:10 *885:104 0.000177914
8 *150:10 *151:10 7.28526e-05
*RES
1 *3616:Y *151:10 43.8207 
2 *151:10 *4036:D 38 
*END

*D_NET *152 0.00147891
*CONN
*I *4022:D I *D sky130_fd_sc_hd__dfrtp_2
*I *3577:X O *D sky130_fd_sc_hd__and3_2
*CAP
1 *4022:D 0.00016428
2 *3577:X 0.000371072
3 *152:8 0.000535352
4 *4022:D *4022:CLK 0.000185434
5 *152:8 *3579:A2 4.48568e-05
6 *152:8 *611:138 0
7 *152:8 *662:41 0
8 *152:8 *662:80 0
9 *152:8 *899:26 0
10 *102:10 *152:8 0.000177914
*RES
1 *3577:X *152:8 45.8921 
2 *152:8 *4022:D 41.48 
*END

*D_NET *153 0.000717014
*CONN
*I *4023:D I *D sky130_fd_sc_hd__dfrtp_2
*I *3579:Y O *D sky130_fd_sc_hd__a21oi_2
*CAP
1 *4023:D 0
2 *3579:Y 0.000187168
3 *153:10 0.000187168
4 *153:10 *3579:A1 5.12254e-05
5 *153:10 *4024:CLK 0
6 *153:10 *242:8 0
7 *153:10 *382:10 5.56203e-05
8 *153:10 *610:47 0
9 *153:10 *662:33 1.14876e-05
10 *153:10 *662:80 0.000224345
*RES
1 *3579:Y *153:10 42.5364 
2 *153:10 *4023:D 38 
*END

*D_NET *154 0.000295871
*CONN
*I *4024:D I *D sky130_fd_sc_hd__dfrtp_2
*I *3582:X O *D sky130_fd_sc_hd__and3b_2
*CAP
1 *4024:D 0
2 *3582:X 0.000147935
3 *154:8 0.000147935
4 *154:8 *507:47 0
5 *154:8 *510:10 0
6 *154:8 *1104:10 0
*RES
1 *3582:X *154:8 40.2579 
2 *154:8 *4024:D 38 
*END

*D_NET *155 0.0017447
*CONN
*I *4025:D I *D sky130_fd_sc_hd__dfrtp_2
*I *3585:X O *D sky130_fd_sc_hd__and3_2
*CAP
1 *4025:D 3.65124e-05
2 *3585:X 0.000451762
3 *155:10 0.000488275
4 *4025:D *662:25 2.64616e-05
5 *155:10 *3351:A 0.000136486
6 *155:10 *3499:A_N 6.28488e-05
7 *155:10 *511:34 0.000139352
8 *155:10 *610:87 0.000346225
9 *155:10 *1107:60 2.44913e-05
10 *155:10 *1107:75 3.22879e-05
11 *155:10 *1109:46 0
*RES
1 *3585:X *155:10 46.6793 
2 *155:10 *4025:D 38.6214 
*END

*D_NET *156 0.000670708
*CONN
*I *4026:D I *D sky130_fd_sc_hd__dfrtp_2
*I *3587:Y O *D sky130_fd_sc_hd__a211oi_2
*CAP
1 *4026:D 0.00011829
2 *3587:Y 0.00011829
3 *4026:D *515:23 2.02872e-05
4 *4026:D *903:94 5.50049e-05
5 *4026:D *1108:6 5.08033e-05
6 *4026:D *1110:14 0.000308033
*RES
1 *3587:Y *4026:D 49.48 
*END

*D_NET *157 0.0020561
*CONN
*I *4027:D I *D sky130_fd_sc_hd__dfrtp_2
*I *3590:X O *D sky130_fd_sc_hd__and3_2
*CAP
1 *4027:D 0
2 *3590:X 0.000329296
3 *157:18 0.000352987
4 *157:10 0.000682282
5 *157:10 *609:54 7.37167e-05
6 *157:10 *1107:75 0.000141339
7 *157:10 *1109:28 5.37348e-06
8 *157:10 *1109:46 0.000143504
9 *157:18 *4027:CLK 0.000190759
10 *157:18 *247:10 0
11 *157:18 *609:54 0.000136841
*RES
1 *3590:X *157:10 43.3857 
2 *157:10 *157:18 35.6136 
3 *157:18 *4027:D 38 
*END

*D_NET *158 0.0010548
*CONN
*I *4028:D I *D sky130_fd_sc_hd__dfrtp_2
*I *3593:Y O *D sky130_fd_sc_hd__a21oi_2
*CAP
1 *4028:D 8.1911e-05
2 *3593:Y 0.000200095
3 *158:10 0.000282006
4 *4028:D *609:54 4.54722e-05
5 *158:10 *3352:A 0.000219383
6 *158:10 *609:43 0.000114083
7 *158:10 *1110:33 0.000111852
*RES
1 *3593:Y *158:10 42.0807 
2 *158:10 *4028:D 38.9995 
*END

*D_NET *159 0.000386245
*CONN
*I *4029:D I *D sky130_fd_sc_hd__dfrtp_2
*I *3596:Y O *D sky130_fd_sc_hd__nor3_2
*CAP
1 *4029:D 5.21196e-05
2 *3596:Y 5.21196e-05
3 *4029:D *521:42 9.91798e-05
4 *4029:D *1111:8 0.000182826
*RES
1 *3596:Y *4029:D 48.0507 
*END

*D_NET *160 0.00102578
*CONN
*I *4030:D I *D sky130_fd_sc_hd__dfrtp_2
*I *3598:X O *D sky130_fd_sc_hd__o21a_2
*CAP
1 *4030:D 0.000163424
2 *3598:X 0.000156218
3 *160:8 0.000319641
4 *160:8 *3597:A2 0.000123428
5 *160:8 *3598:B1 0.000192681
6 *160:8 *521:55 7.03869e-05
*RES
1 *3598:X *160:8 43.075 
2 *160:8 *4030:D 40.5271 
*END

*D_NET *161 0.00304634
*CONN
*I *3573:A2 I *D sky130_fd_sc_hd__o21ai_2
*I *4037:D I *D sky130_fd_sc_hd__dfrtp_2
*I *3504:Y O *D sky130_fd_sc_hd__nor3_2
*CAP
1 *3573:A2 0
2 *4037:D 0.000593215
3 *3504:Y 0.000687798
4 *161:12 0.000593215
5 *161:10 0.000687798
6 *4037:D *4037:CLK 7.20638e-05
7 *4037:D *899:47 6.55442e-05
8 *4037:D *899:60 5.30121e-05
9 *161:10 *787:10 6.4393e-05
10 *161:10 *1097:8 4.38756e-05
11 *145:10 *4037:D 0.000185428
12 *145:10 *161:10 0
*RES
1 *3504:Y *161:10 47.1971 
2 *161:10 *161:12 15 
3 *161:12 *4037:D 35.2629 
4 *161:12 *3573:A2 23 
*END

*D_NET *162 0.00326745
*CONN
*I *3987:D I *D sky130_fd_sc_hd__dfrtp_2
*I *3408:A1 I *D sky130_fd_sc_hd__o21ai_2
*I *3327:Y O *D sky130_fd_sc_hd__inv_2
*CAP
1 *3987:D 0
2 *3408:A1 0
3 *3327:Y 0.000408512
4 *162:16 0.000778053
5 *162:6 0.00118657
6 *162:6 *3327:A 0.000181125
7 *162:6 *3987:CLK 3.52937e-05
8 *162:6 *624:106 2.45549e-06
9 *162:16 *3405:A 0.000136486
10 *162:16 *3405:B 3.31683e-05
11 *162:16 *3408:A2 1.83408e-05
12 *162:16 *3410:A1 2.58197e-05
13 *162:16 *3410:C1 8.80821e-05
14 *162:16 *3410:D1 3.30896e-05
15 *162:16 *164:10 8.82787e-05
16 *162:16 *414:10 2.76611e-06
17 *162:16 *631:12 1.7387e-05
18 *162:16 *642:14 0
19 *162:16 *906:12 0.00023203
*RES
1 *3327:Y *162:6 29.3386 
2 *162:6 *162:16 42.4079 
3 *162:16 *3408:A1 23 
4 *162:6 *3987:D 23 
*END

*D_NET *163 0.00167006
*CONN
*I *3988:D I *D sky130_fd_sc_hd__dfrtp_2
*I *3405:X O *D sky130_fd_sc_hd__xor2_2
*CAP
1 *3988:D 4.67281e-05
2 *3405:X 0.000280071
3 *163:10 0.000326799
4 *3988:D *624:120 6.17437e-06
5 *163:10 *3507:B 0.000321267
6 *163:10 *4393:A 0.000187129
7 *163:10 *206:10 7.42401e-05
8 *163:10 *624:120 6.25829e-05
9 *163:10 *1055:8 0.000192087
10 *64:6 *163:10 0.000172983
*RES
1 *3405:X *163:10 47.425 
2 *163:10 *3988:D 38.6214 
*END

*D_NET *164 0.00144072
*CONN
*I *3989:D I *D sky130_fd_sc_hd__dfrtp_2
*I *3408:Y O *D sky130_fd_sc_hd__o21ai_2
*CAP
1 *3989:D 0
2 *3408:Y 0.000541085
3 *164:10 0.000541085
4 *164:10 *3405:B 0
5 *164:10 *3408:B1 0.000240888
6 *164:10 *206:10 0
7 *164:10 *624:91 0
8 *164:10 *700:10 0
9 *164:10 *906:12 2.93845e-05
10 *164:10 *1053:12 0
11 *162:16 *164:10 8.82787e-05
*RES
1 *3408:Y *164:10 48.8957 
2 *164:10 *3989:D 38 
*END

*D_NET *165 0.00145483
*CONN
*I *3990:D I *D sky130_fd_sc_hd__dfrtp_2
*I *3409:Y O *D sky130_fd_sc_hd__xnor2_2
*CAP
1 *3990:D 0
2 *3409:Y 0.000657457
3 *165:10 0.000657457
4 *165:10 *413:18 9.02985e-05
5 *165:10 *624:120 4.9613e-05
*RES
1 *3409:Y *165:10 46.845 
2 *165:10 *3990:D 38 
*END

*D_NET *166 0.000742429
*CONN
*I *3991:D I *D sky130_fd_sc_hd__dfrtp_2
*I *3412:Y O *D sky130_fd_sc_hd__nand2_2
*CAP
1 *3991:D 0.000194334
2 *3412:Y 0.000110804
3 *166:8 0.000305138
4 *3991:D *3991:CLK 0.000132154
5 *166:8 *641:107 0
6 *166:8 *876:78 0
7 *166:8 *906:48 0
*RES
1 *3412:Y *166:8 39.9057 
2 *166:8 *3991:D 41.9564 
*END

*D_NET *167 0.000288859
*CONN
*I *3992:D I *D sky130_fd_sc_hd__dfrtp_2
*I *3413:Y O *D sky130_fd_sc_hd__xnor2_2
*CAP
1 *3992:D 0.0001003
2 *3413:Y 0.0001003
3 *3992:D *625:29 5.88758e-05
4 *3992:D *625:41 2.93845e-05
*RES
1 *3413:Y *3992:D 48.0507 
*END

*D_NET *168 0.000313092
*CONN
*I *3993:D I *D sky130_fd_sc_hd__dfrtp_2
*I *3416:Y O *D sky130_fd_sc_hd__nand2_2
*CAP
1 *3993:D 9.0374e-05
2 *3416:Y 9.0374e-05
3 *3993:D *416:24 5.50049e-05
4 *3993:D *625:41 7.73389e-05
*RES
1 *3416:Y *3993:D 48.0507 
*END

*D_NET *169 0.000618288
*CONN
*I *3994:D I *D sky130_fd_sc_hd__dfrtp_2
*I *3419:Y O *D sky130_fd_sc_hd__nand2_2
*CAP
1 *3994:D 0
2 *3419:Y 0.000269703
3 *169:6 0.000269703
4 *169:6 *3994:CLK 7.88828e-05
*RES
1 *3419:Y *169:6 27.9093 
2 *169:6 *3994:D 23 
*END

*D_NET *170 0.00179831
*CONN
*I *3995:D I *D sky130_fd_sc_hd__dfrtp_2
*I *3420:Y O *D sky130_fd_sc_hd__xnor2_2
*CAP
1 *3995:D 0
2 *3420:Y 0.000595668
3 *170:12 0.000595668
4 *170:12 *3420:A 0.000505257
5 *170:12 *3800:A1 3.6415e-05
6 *170:12 *3995:CLK 6.52969e-05
*RES
1 *3420:Y *170:12 33.0879 
2 *170:12 *3995:D 23 
*END

*D_NET *171 0.000199136
*CONN
*I *3854:SET_B I *D sky130_fd_sc_hd__dfstp_2
*I *3626:X O *D sky130_fd_sc_hd__o21a_2
*CAP
1 *3854:SET_B 0
2 *3626:X 5.14505e-05
3 *171:8 5.14505e-05
4 *171:8 *459:8 3.81391e-05
5 *171:8 *660:31 5.80963e-05
*RES
1 *3626:X *171:8 39.5536 
2 *171:8 *3854:SET_B 15 
*END

*D_NET *172 0.000969242
*CONN
*I *3855:SET_B I *D sky130_fd_sc_hd__dfstp_2
*I *3762:X O *D sky130_fd_sc_hd__o21a_2
*CAP
1 *3855:SET_B 0
2 *3762:X 0.000371007
3 *172:8 0.000371007
4 *172:8 *274:10 0.000116314
5 *172:8 *485:8 0
6 *172:8 *661:19 0
7 *172:8 *685:18 0
8 *172:8 *897:54 0.000110913
9 *172:8 *902:96 0
10 *122:10 *172:8 0
*RES
1 *3762:X *172:8 45.1879 
2 *172:8 *3855:SET_B 15 
*END

*D_NET *173 0.00199112
*CONN
*I *4174:A I *D sky130_fd_sc_hd__dlygate4sd3_1
*I *3635:Y O *D sky130_fd_sc_hd__nor3_2
*CAP
1 *4174:A 0.000259921
2 *3635:Y 0.000344045
3 *173:10 0.000603965
4 *4174:A *856:8 0.000159888
5 *4174:A *1010:12 9.84794e-05
6 *173:10 *4180:A 0.000197911
7 *173:10 *272:30 0.00019688
8 *173:10 *542:22 0.000100477
9 *173:10 *672:8 2.95526e-05
*RES
1 *3635:Y *173:10 46.4307 
2 *173:10 *4174:A 43.3857 
*END

*D_NET *174 0.000516194
*CONN
*I *3915:RESET_B I *D sky130_fd_sc_hd__dfrtp_2
*I *3763:X O *D sky130_fd_sc_hd__o21a_2
*CAP
1 *3915:RESET_B 0
2 *3763:X 0.000173526
3 *174:8 0.000173526
4 *174:8 *911:10 0.000169142
5 *174:8 *1029:8 0
*RES
1 *3763:X *174:8 42.3707 
2 *174:8 *3915:RESET_B 15 
*END

*D_NET *175 0.00116696
*CONN
*I *3916:RESET_B I *D sky130_fd_sc_hd__dfrtp_2
*I *3764:X O *D sky130_fd_sc_hd__o21a_2
*CAP
1 *3916:RESET_B 0
2 *3764:X 0.000283096
3 *175:8 0.000283096
4 *175:8 *259:10 0.000196549
5 *175:8 *723:10 3.55887e-05
6 *175:8 *878:92 0.000304309
7 *175:8 *911:89 0
8 *175:8 *1034:25 6.43149e-05
*RES
1 *3764:X *175:8 46.2443 
2 *175:8 *3916:RESET_B 15 
*END

*D_NET *176 0.00077501
*CONN
*I *3917:RESET_B I *D sky130_fd_sc_hd__dfrtp_2
*I *3765:X O *D sky130_fd_sc_hd__o21a_2
*CAP
1 *3917:RESET_B 0
2 *3765:X 0.00024494
3 *176:10 0.00024494
4 *176:10 *877:8 5.67058e-05
5 *176:10 *877:14 0
6 *11:10 *176:10 0.000228424
*RES
1 *3765:X *176:10 44.0486 
2 *176:10 *3917:RESET_B 15 
*END

*D_NET *177 0.000534156
*CONN
*I *3918:RESET_B I *D sky130_fd_sc_hd__dfrtp_2
*I *3766:X O *D sky130_fd_sc_hd__o21a_2
*CAP
1 *3918:RESET_B 0
2 *3766:X 0.00015424
3 *177:10 0.00015424
4 *177:10 *3766:A2 0.000193388
5 *177:10 *715:10 3.22879e-05
6 *177:10 *1050:56 0
*RES
1 *3766:X *177:10 41.2314 
2 *177:10 *3918:RESET_B 15 
*END

*D_NET *178 0.00108495
*CONN
*I *3919:RESET_B I *D sky130_fd_sc_hd__dfrtp_2
*I *3767:X O *D sky130_fd_sc_hd__o21a_2
*CAP
1 *3919:RESET_B 3.90043e-05
2 *3767:X 0.000199925
3 *178:8 0.000238929
4 *3919:RESET_B *890:25 4.81382e-05
5 *3919:RESET_B *1043:8 3.17209e-05
6 *178:8 *3365:B 8.33724e-05
7 *178:8 *3383:A1 4.07715e-05
8 *178:8 *3383:A2 0.000265051
9 *178:8 *391:10 0.000108681
10 *178:8 *877:29 2.93562e-05
*RES
1 *3767:X *178:8 43.075 
2 *178:8 *3919:RESET_B 16.0254 
*END

*D_NET *179 0.000701788
*CONN
*I *3920:RESET_B I *D sky130_fd_sc_hd__dfrtp_2
*I *3768:X O *D sky130_fd_sc_hd__o21a_2
*CAP
1 *3920:RESET_B 0
2 *3768:X 0.000323391
3 *179:10 0.000323391
4 *179:10 *4237:A 0
5 *179:10 *392:29 0
6 *179:10 *394:12 5.50049e-05
7 *179:10 *403:8 0
8 *179:10 *891:62 0
9 *179:10 *1044:43 0
*RES
1 *3768:X *179:10 42.9921 
2 *179:10 *3920:RESET_B 15 
*END

*D_NET *180 0.000587673
*CONN
*I *3921:RESET_B I *D sky130_fd_sc_hd__dfrtp_2
*I *3769:X O *D sky130_fd_sc_hd__o21a_2
*CAP
1 *3921:RESET_B 9.4596e-05
2 *3769:X 5.82884e-05
3 *180:8 0.000152884
4 *3921:RESET_B *1045:6 0.000135338
5 *180:8 *877:65 3.56537e-05
6 *180:8 *891:72 0.000110913
*RES
1 *3769:X *180:8 39.5536 
2 *180:8 *3921:RESET_B 16.9782 
*END

*D_NET *181 0.000571974
*CONN
*I *3922:RESET_B I *D sky130_fd_sc_hd__dfrtp_2
*I *3770:X O *D sky130_fd_sc_hd__o21a_2
*CAP
1 *3922:RESET_B 6.25053e-05
2 *3770:X 7.86143e-05
3 *181:8 0.00014112
4 *3922:RESET_B *3505:A 0.000178813
5 *181:8 *331:10 0.000110922
*RES
1 *3770:X *181:8 39.5536 
2 *181:8 *3922:RESET_B 16.9782 
*END

*D_NET *182 0.0010523
*CONN
*I *3923:RESET_B I *D sky130_fd_sc_hd__dfrtp_2
*I *3771:X O *D sky130_fd_sc_hd__o21a_2
*CAP
1 *3923:RESET_B 0
2 *3771:X 0.000511463
3 *182:10 0.000511463
4 *182:10 *184:8 0
5 *182:10 *644:120 2.93747e-05
6 *182:10 *879:108 0
7 *182:10 *1047:20 0
8 *182:10 *1049:38 0
*RES
1 *3771:X *182:10 46.8657 
2 *182:10 *3923:RESET_B 15 
*END

*D_NET *183 0.000692144
*CONN
*I *3924:RESET_B I *D sky130_fd_sc_hd__dfrtp_2
*I *3772:X O *D sky130_fd_sc_hd__o21a_2
*CAP
1 *3924:RESET_B 0.000151146
2 *3772:X 0.000151146
3 *3924:RESET_B *3772:B1 5.97603e-05
4 *3924:RESET_B *893:80 0.000187129
5 *3924:RESET_B *1048:6 5.50106e-05
6 *3924:RESET_B *1048:10 8.79516e-05
*RES
1 *3772:X *3924:RESET_B 26.8839 
*END

*D_NET *184 0.000627476
*CONN
*I *3925:RESET_B I *D sky130_fd_sc_hd__dfrtp_2
*I *3773:X O *D sky130_fd_sc_hd__o21a_2
*CAP
1 *3925:RESET_B 0
2 *3773:X 0.000198728
3 *184:8 0.000198728
4 *184:8 *879:108 0.000143733
5 *184:8 *1047:8 8.62876e-05
6 *184:8 *1047:20 0
7 *182:10 *184:8 0
*RES
1 *3773:X *184:8 43.4271 
2 *184:8 *3925:RESET_B 15 
*END

*D_NET *185 0.00055361
*CONN
*I *3926:RESET_B I *D sky130_fd_sc_hd__dfrtp_2
*I *3774:X O *D sky130_fd_sc_hd__o21a_2
*CAP
1 *3926:RESET_B 0
2 *3774:X 0.000120181
3 *185:10 0.000120181
4 *185:10 *3774:B1 1.59094e-05
5 *185:10 *644:55 0.00019746
6 *185:10 *1051:30 9.98788e-05
*RES
1 *3774:X *185:10 41.2314 
2 *185:10 *3926:RESET_B 15 
*END

*D_NET *186 0.000881958
*CONN
*I *3927:RESET_B I *D sky130_fd_sc_hd__dfrtp_2
*I *3775:X O *D sky130_fd_sc_hd__o21a_2
*CAP
1 *3927:RESET_B 0
2 *3775:X 0.000154691
3 *186:8 0.000154691
4 *186:8 *3998:RESET_B 0
5 *186:8 *336:8 4.58924e-05
6 *186:8 *696:14 0.000114083
7 *186:8 *1067:42 0.000412601
*RES
1 *3775:X *186:8 43.4271 
2 *186:8 *3927:RESET_B 15 
*END

*D_NET *187 0.00139623
*CONN
*I *3928:SET_B I *D sky130_fd_sc_hd__dfstp_2
*I *3776:X O *D sky130_fd_sc_hd__o21a_2
*CAP
1 *3928:SET_B 0
2 *3776:X 0.000243516
3 *187:8 0.000243516
4 *187:8 *3426:C1 0.000110267
5 *187:8 *611:132 0.00014576
6 *187:8 *997:10 5.56203e-05
7 *187:8 *997:27 1.22906e-05
8 *187:8 *1114:36 6.48142e-05
9 *187:8 *1116:12 2.60152e-05
10 *3426:B1 *187:8 0.000164291
11 *105:21 *187:8 0.000330144
*RES
1 *3776:X *187:8 46.2443 
2 *187:8 *3928:SET_B 15 
*END

*D_NET *188 0.000338905
*CONN
*I *3929:RESET_B I *D sky130_fd_sc_hd__dfrtp_2
*I *3777:X O *D sky130_fd_sc_hd__o21a_2
*CAP
1 *3929:RESET_B 0
2 *3777:X 0.000107502
3 *188:8 0.000107502
4 *188:8 *889:10 6.28228e-05
5 *103:8 *188:8 6.10781e-05
6 *144:8 *188:8 0
*RES
1 *3777:X *188:8 40.61 
2 *188:8 *3929:RESET_B 15 
*END

*D_NET *189 0.000662012
*CONN
*I *3930:RESET_B I *D sky130_fd_sc_hd__dfrtp_2
*I *3778:X O *D sky130_fd_sc_hd__o21a_2
*CAP
1 *3930:RESET_B 0.000119816
2 *3778:X 8.33166e-05
3 *189:8 0.000203133
4 *3930:RESET_B *1096:29 0.000220082
5 *189:8 *3422:A2_N 0
6 *189:8 *885:28 3.5664e-05
*RES
1 *3778:X *189:8 39.5536 
2 *189:8 *3930:RESET_B 17.4546 
*END

*D_NET *190 0.000714253
*CONN
*I *3931:SET_B I *D sky130_fd_sc_hd__dfstp_2
*I *3779:X O *D sky130_fd_sc_hd__o21a_2
*CAP
1 *3931:SET_B 6.4405e-05
2 *3779:X 0.000240462
3 *190:10 0.000304867
4 *190:10 *3784:B1 4.95081e-05
5 *190:10 *603:55 0
6 *190:10 *894:83 5.50106e-05
7 *190:10 *1088:10 0
*RES
1 *3779:X *190:10 42.1843 
2 *190:10 *3931:SET_B 16.0254 
*END

*D_NET *191 0.000557192
*CONN
*I *3932:RESET_B I *D sky130_fd_sc_hd__dfrtp_2
*I *3780:X O *D sky130_fd_sc_hd__o21a_2
*CAP
1 *3932:RESET_B 5.60446e-05
2 *3780:X 7.94907e-05
3 *191:8 0.000135535
4 *3932:RESET_B *4018:CLK 4.81382e-05
5 *191:8 *423:36 5.30621e-05
6 *191:8 *607:33 9.64022e-05
7 *191:8 *1089:8 8.85189e-05
*RES
1 *3780:X *191:8 40.61 
2 *191:8 *3932:RESET_B 16.0254 
*END

*D_NET *192 0.000245807
*CONN
*I *3933:RESET_B I *D sky130_fd_sc_hd__dfrtp_2
*I *3781:X O *D sky130_fd_sc_hd__o21a_2
*CAP
1 *3933:RESET_B 0
2 *3781:X 9.35954e-05
3 *192:8 9.35954e-05
4 *192:8 *883:103 0
5 *192:8 *1094:10 5.86165e-05
*RES
1 *3781:X *192:8 40.2579 
2 *192:8 *3933:RESET_B 15 
*END

*D_NET *193 0.000904302
*CONN
*I *3934:RESET_B I *D sky130_fd_sc_hd__dfrtp_2
*I *3782:X O *D sky130_fd_sc_hd__o21a_2
*CAP
1 *3934:RESET_B 0
2 *3782:X 0.000205171
3 *193:10 0.000205171
4 *193:10 *4122:A 0.000163352
5 *193:10 *643:26 8.47345e-05
6 *193:10 *687:8 0.000139647
7 *193:10 *894:51 5.29212e-05
8 *193:10 *911:62 5.3304e-05
*RES
1 *3782:X *193:10 42.9921 
2 *193:10 *3934:RESET_B 15 
*END

*D_NET *194 0.000917795
*CONN
*I *3935:RESET_B I *D sky130_fd_sc_hd__dfrtp_2
*I *3783:X O *D sky130_fd_sc_hd__o21a_2
*CAP
1 *3935:RESET_B 0
2 *3783:X 0.000106586
3 *194:8 0.000106586
4 *194:8 *3431:B 0.00019654
5 *194:8 *898:46 1.14452e-05
6 *194:8 *898:67 0.000345555
7 *194:8 *911:30 9.21347e-06
8 *194:8 *1092:10 0.000141869
*RES
1 *3783:X *194:8 42.7229 
2 *194:8 *3935:RESET_B 15 
*END

*D_NET *195 0.000831915
*CONN
*I *3936:RESET_B I *D sky130_fd_sc_hd__dfrtp_2
*I *3784:X O *D sky130_fd_sc_hd__o21a_2
*CAP
1 *3936:RESET_B 0
2 *3784:X 0.000253934
3 *195:10 0.000253934
4 *195:10 *3936:CLK 7.75329e-06
5 *195:10 *603:55 0
6 *195:10 *627:10 4.59027e-05
7 *195:10 *767:10 0.000171906
8 *195:10 *894:72 9.84851e-05
*RES
1 *3784:X *195:10 43.4686 
2 *195:10 *3936:RESET_B 15 
*END

*D_NET *196 0.000840589
*CONN
*I *3937:RESET_B I *D sky130_fd_sc_hd__dfrtp_2
*I *3785:X O *D sky130_fd_sc_hd__o21a_2
*CAP
1 *3937:RESET_B 0.000122656
2 *3785:X 0.000115402
3 *196:10 0.000238058
4 *3937:RESET_B *3937:CLK 0.000144921
5 *3937:RESET_B *883:122 9.67842e-05
6 *196:10 *3785:A1 3.22879e-05
7 *196:10 *883:122 4.08537e-05
8 *196:10 *898:102 4.96264e-05
9 *196:10 *1090:10 0
*RES
1 *3785:X *196:10 40.175 
2 *196:10 *3937:RESET_B 17.9311 
*END

*D_NET *197 0.000216347
*CONN
*I *3938:SET_B I *D sky130_fd_sc_hd__dfstp_2
*I *3786:X O *D sky130_fd_sc_hd__o21a_2
*CAP
1 *3938:SET_B 0
2 *3786:X 6.13038e-05
3 *197:8 6.13038e-05
4 *197:8 *763:12 5.80963e-05
5 *197:8 *878:124 3.56433e-05
*RES
1 *3786:X *197:8 39.5536 
2 *197:8 *3938:SET_B 15 
*END

*D_NET *198 0.00158545
*CONN
*I *3939:RESET_B I *D sky130_fd_sc_hd__dfrtp_2
*I *3787:X O *D sky130_fd_sc_hd__o21a_2
*CAP
1 *3939:RESET_B 0.000342863
2 *3787:X 0.00012981
3 *198:10 0.000472673
4 *3939:RESET_B *3939:CLK 0.000181125
5 *3939:RESET_B *879:8 2.92911e-06
6 *198:10 *659:28 1.94693e-05
7 *198:10 *893:14 0.000216712
8 *198:10 *894:96 0.000219873
*RES
1 *3787:X *198:10 41.5836 
2 *198:10 *3939:RESET_B 20.0025 
*END

*D_NET *199 0.000881059
*CONN
*I *3940:RESET_B I *D sky130_fd_sc_hd__dfrtp_2
*I *3788:X O *D sky130_fd_sc_hd__o21a_2
*CAP
1 *3940:RESET_B 0
2 *3788:X 0.000381152
3 *199:8 0.000381152
4 *199:8 *3788:A1 0
5 *199:8 *3939:CLK 4.59027e-05
6 *199:8 *659:28 7.28526e-05
7 *199:8 *710:10 0
8 *199:8 *879:25 0
9 *199:8 *1030:18 0
10 *199:8 *1064:10 0
*RES
1 *3788:X *199:8 45.1879 
2 *199:8 *3940:RESET_B 15 
*END

*D_NET *200 0.000988983
*CONN
*I *3941:RESET_B I *D sky130_fd_sc_hd__dfrtp_2
*I *3789:X O *D sky130_fd_sc_hd__o21a_2
*CAP
1 *3941:RESET_B 0.000334598
2 *3789:X 6.4192e-05
3 *200:8 0.00039879
4 *3941:RESET_B *3941:CLK 0.000163502
5 *200:8 *606:35 2.79004e-05
6 *95:10 *200:8 0
*RES
1 *3789:X *200:8 39.2014 
2 *200:8 *3941:RESET_B 20.4789 
*END

*D_NET *201 0.00255498
*CONN
*I *3942:SET_B I *D sky130_fd_sc_hd__dfstp_2
*I *3790:X O *D sky130_fd_sc_hd__o21a_2
*CAP
1 *3942:SET_B 0.000425651
2 *3790:X 4.99221e-05
3 *201:8 0.000475573
4 *3942:SET_B *204:10 0.00041036
5 *3942:SET_B *627:40 0.000100533
6 *3942:SET_B *643:119 0.000118487
7 *3942:SET_B *878:33 6.64873e-05
8 *3942:SET_B *892:23 2.83386e-05
9 *3942:SET_B *993:38 0.000672538
10 *3942:SET_B *1030:28 0.000153784
11 *201:8 *878:43 5.3304e-05
*RES
1 *3790:X *201:8 38.6214 
2 *201:8 *3942:SET_B 27.8221 
*END

*D_NET *202 0.000938806
*CONN
*I *3943:RESET_B I *D sky130_fd_sc_hd__dfrtp_2
*I *3791:X O *D sky130_fd_sc_hd__o21a_2
*CAP
1 *3943:RESET_B 0
2 *3791:X 0.000246345
3 *202:10 0.000246345
4 *202:10 *3791:A1 5.50049e-05
5 *202:10 *645:148 0.000108681
6 *202:10 *878:33 0.000192375
7 *202:10 *1035:8 9.00542e-05
*RES
1 *3791:X *202:10 44.0486 
2 *202:10 *3943:RESET_B 15 
*END

*D_NET *203 0.000632838
*CONN
*I *3944:RESET_B I *D sky130_fd_sc_hd__dfrtp_2
*I *3792:X O *D sky130_fd_sc_hd__o21a_2
*CAP
1 *3944:RESET_B 0.000119765
2 *3792:X 9.79147e-05
3 *203:8 0.00021768
4 *203:8 *993:38 0
5 *89:12 *203:8 0.000197479
*RES
1 *3792:X *203:8 40.61 
2 *203:8 *3944:RESET_B 16.9782 
*END

*D_NET *204 0.0019519
*CONN
*I *3985:RESET_B I *D sky130_fd_sc_hd__dfrtp_2
*I *3793:X O *D sky130_fd_sc_hd__o21a_2
*CAP
1 *3985:RESET_B 0
2 *3793:X 0.000301576
3 *204:10 0.000301576
4 *204:10 *627:40 0.00046597
5 *204:10 *889:26 0.000445374
6 *204:10 *993:38 2.70469e-05
7 *3942:SET_B *204:10 0.00041036
*RES
1 *3793:X *204:10 49.0407 
2 *204:10 *3985:RESET_B 15 
*END

*D_NET *205 0.000255836
*CONN
*I *3986:RESET_B I *D sky130_fd_sc_hd__dfrtp_2
*I *3794:X O *D sky130_fd_sc_hd__o21a_2
*CAP
1 *3986:RESET_B 0
2 *3794:X 0.000127918
3 *205:8 0.000127918
4 *205:8 *879:37 0
5 *205:8 *879:59 0
6 *205:8 *1051:20 0
7 *205:8 *1052:8 0
*RES
1 *3794:X *205:8 40.2579 
2 *205:8 *3986:RESET_B 15 
*END

*D_NET *206 0.00117165
*CONN
*I *3987:RESET_B I *D sky130_fd_sc_hd__dfrtp_2
*I *3795:X O *D sky130_fd_sc_hd__o21a_2
*CAP
1 *3987:RESET_B 0
2 *3795:X 0.000391494
3 *206:10 0.000391494
4 *206:10 *3507:B 0.000277173
5 *206:10 *624:120 0
6 *206:10 *1053:12 3.7252e-05
7 *163:10 *206:10 7.42401e-05
8 *164:10 *206:10 0
*RES
1 *3795:X *206:10 44.6907 
2 *206:10 *3987:RESET_B 15 
*END

*D_NET *207 0.000355201
*CONN
*I *3988:RESET_B I *D sky130_fd_sc_hd__dfrtp_2
*I *3796:X O *D sky130_fd_sc_hd__o21a_2
*CAP
1 *3988:RESET_B 2.85133e-05
2 *3796:X 9.24742e-05
3 *207:8 0.000120988
4 *3988:RESET_B *890:25 2.56175e-05
5 *207:8 *469:8 0
6 *207:8 *890:29 8.76088e-05
*RES
1 *3796:X *207:8 40.2579 
2 *207:8 *3988:RESET_B 15.5489 
*END

*D_NET *208 0.000344256
*CONN
*I *3989:RESET_B I *D sky130_fd_sc_hd__dfrtp_2
*I *3797:X O *D sky130_fd_sc_hd__o21a_2
*CAP
1 *3989:RESET_B 0.000172128
2 *3797:X 0.000172128
*RES
1 *3797:X *3989:RESET_B 25.9311 
*END

*D_NET *209 0.000240566
*CONN
*I *3990:RESET_B I *D sky130_fd_sc_hd__dfrtp_2
*I *3798:X O *D sky130_fd_sc_hd__o21a_2
*CAP
1 *3990:RESET_B 0
2 *3798:X 6.21258e-05
3 *209:8 6.21258e-05
4 *209:8 *469:8 0
5 *209:8 *890:79 0.000116314
*RES
1 *3798:X *209:8 39.5536 
2 *209:8 *3990:RESET_B 15 
*END

*D_NET *210 0.000450902
*CONN
*I *3991:RESET_B I *D sky130_fd_sc_hd__dfrtp_2
*I *3799:X O *D sky130_fd_sc_hd__o21a_2
*CAP
1 *3991:RESET_B 0
2 *3799:X 0.000116085
3 *210:10 0.000116085
4 *210:10 *3414:A 2.64616e-05
5 *210:10 *625:21 8.29264e-05
6 *210:10 *641:107 0.000109343
7 *210:10 *906:48 0
*RES
1 *3799:X *210:10 40.175 
2 *210:10 *3991:RESET_B 15 
*END

*D_NET *211 0.000447852
*CONN
*I *3992:RESET_B I *D sky130_fd_sc_hd__dfrtp_2
*I *3800:X O *D sky130_fd_sc_hd__o21a_2
*CAP
1 *3992:RESET_B 0
2 *3800:X 0.000134074
3 *211:10 0.000134074
4 *211:10 *3800:B1 6.17437e-06
5 *211:10 *3995:CLK 3.05276e-05
6 *211:10 *625:53 3.0556e-05
7 *211:10 *641:124 0.000112446
*RES
1 *3800:X *211:10 40.6514 
2 *211:10 *3992:RESET_B 15 
*END

*D_NET *212 0.000505946
*CONN
*I *3993:RESET_B I *D sky130_fd_sc_hd__dfrtp_2
*I *3801:X O *D sky130_fd_sc_hd__o21a_2
*CAP
1 *3993:RESET_B 0.000180726
2 *3801:X 0.000180726
3 *3993:RESET_B *1059:10 0.000144494
*RES
1 *3801:X *3993:RESET_B 25.9311 
*END

*D_NET *213 0.000383204
*CONN
*I *3994:RESET_B I *D sky130_fd_sc_hd__dfrtp_2
*I *3802:X O *D sky130_fd_sc_hd__o21a_2
*CAP
1 *3994:RESET_B 0
2 *3802:X 9.17516e-05
3 *213:8 9.17516e-05
4 *213:8 *3802:B1 0.000199701
*RES
1 *3802:X *213:8 40.61 
2 *213:8 *3994:RESET_B 15 
*END

*D_NET *214 0.000574472
*CONN
*I *3995:RESET_B I *D sky130_fd_sc_hd__dfrtp_2
*I *3803:X O *D sky130_fd_sc_hd__o21a_2
*CAP
1 *3995:RESET_B 0
2 *3803:X 0.00012866
3 *214:10 0.00012866
4 *214:10 *3803:B1 2.64616e-05
5 *214:10 *387:14 0.000194309
6 *214:10 *646:63 9.63815e-05
*RES
1 *3803:X *214:10 41.2314 
2 *214:10 *3995:RESET_B 15 
*END

*D_NET *215 0.000183621
*CONN
*I *3996:SET_B I *D sky130_fd_sc_hd__dfstp_2
*I *3804:X O *D sky130_fd_sc_hd__o21a_2
*CAP
1 *3996:SET_B 0
2 *3804:X 9.18104e-05
3 *215:8 9.18104e-05
4 *215:8 *628:42 0
5 *215:8 *754:10 0
*RES
1 *3804:X *215:8 39.5536 
2 *215:8 *3996:SET_B 15 
*END

*D_NET *216 0.000344479
*CONN
*I *3997:RESET_B I *D sky130_fd_sc_hd__dfrtp_2
*I *3805:X O *D sky130_fd_sc_hd__o21a_2
*CAP
1 *3997:RESET_B 0
2 *3805:X 0.000115198
3 *216:10 0.000115198
4 *216:10 *644:77 0.000114083
5 *216:10 *877:48 0
*RES
1 *3805:X *216:10 40.175 
2 *216:10 *3997:RESET_B 15 
*END

*D_NET *217 0.00280939
*CONN
*I *3998:RESET_B I *D sky130_fd_sc_hd__dfrtp_2
*I *3806:X O *D sky130_fd_sc_hd__o21a_2
*CAP
1 *3998:RESET_B 0.000402622
2 *3806:X 0.000309198
3 *217:8 0.000711819
4 *3998:RESET_B *3430:B2 0.000326992
5 *3998:RESET_B *336:8 0
6 *3998:RESET_B *370:14 0.00051615
7 *3998:RESET_B *696:14 0
8 *3998:RESET_B *911:110 0
9 *3998:RESET_B *958:28 0.000137788
10 *3998:RESET_B *1067:42 0
11 *217:8 *3806:A1 0.000135037
12 *217:8 *880:21 0.000269781
13 *186:8 *3998:RESET_B 0
*RES
1 *3806:X *217:8 42.4329 
2 *217:8 *3998:RESET_B 26.0614 
*END

*D_NET *218 0.000689922
*CONN
*I *3999:RESET_B I *D sky130_fd_sc_hd__dfrtp_2
*I *3807:X O *D sky130_fd_sc_hd__o21a_2
*CAP
1 *3999:RESET_B 4.86799e-05
2 *3807:X 0.000199163
3 *218:10 0.000247843
4 *3999:RESET_B *3999:CLK 5.03716e-05
5 *218:10 *3823:A1 0
6 *218:10 *883:10 0
7 *218:10 *902:62 0.000139647
8 *3529:A2 *218:10 0
9 *126:10 *218:10 4.21594e-06
*RES
1 *3807:X *218:10 41.9357 
2 *218:10 *3999:RESET_B 16.0254 
*END

*D_NET *219 0.000479106
*CONN
*I *4000:RESET_B I *D sky130_fd_sc_hd__dfrtp_2
*I *3808:X O *D sky130_fd_sc_hd__o21a_2
*CAP
1 *4000:RESET_B 0.000232582
2 *3808:X 0.000232582
3 *4000:RESET_B *1078:8 1.39431e-05
*RES
1 *3808:X *4000:RESET_B 26.4075 
*END

*D_NET *220 0.000732698
*CONN
*I *4001:RESET_B I *D sky130_fd_sc_hd__dfrtp_2
*I *3809:X O *D sky130_fd_sc_hd__o21a_2
*CAP
1 *4001:RESET_B 0
2 *3809:X 0.00013767
3 *220:8 0.00013767
4 *220:8 *3532:A 2.5415e-05
5 *220:8 *882:58 3.70094e-05
6 *220:8 *1078:10 6.88819e-05
7 *220:8 *1087:10 0.000326053
*RES
1 *3809:X *220:8 42.3707 
2 *220:8 *4001:RESET_B 15 
*END

*D_NET *221 0.000367232
*CONN
*I *4002:RESET_B I *D sky130_fd_sc_hd__dfrtp_2
*I *3810:X O *D sky130_fd_sc_hd__o21a_2
*CAP
1 *4002:RESET_B 0
2 *3810:X 8.82558e-05
3 *221:8 8.82558e-05
4 *221:8 *3810:B1 9.53602e-05
5 *221:8 *479:10 9.53602e-05
*RES
1 *3810:X *221:8 40.61 
2 *221:8 *4002:RESET_B 15 
*END

*D_NET *222 0.000371256
*CONN
*I *4003:RESET_B I *D sky130_fd_sc_hd__dfrtp_2
*I *3811:X O *D sky130_fd_sc_hd__o21a_2
*CAP
1 *4003:RESET_B 0
2 *3811:X 0.000120833
3 *222:10 0.000120833
4 *222:10 *656:109 1.86674e-05
5 *222:10 *902:96 0.000110922
*RES
1 *3811:X *222:10 40.175 
2 *222:10 *4003:RESET_B 15 
*END

*D_NET *223 0.000352301
*CONN
*I *4004:RESET_B I *D sky130_fd_sc_hd__dfrtp_2
*I *3812:X O *D sky130_fd_sc_hd__o21a_2
*CAP
1 *4004:RESET_B 0
2 *3812:X 0.000116945
3 *223:10 0.000116945
4 *223:10 *656:89 3.21327e-05
5 *223:10 *1082:10 8.62783e-05
*RES
1 *3812:X *223:10 40.175 
2 *223:10 *4004:RESET_B 15 
*END

*D_NET *224 0.000945773
*CONN
*I *4005:RESET_B I *D sky130_fd_sc_hd__dfrtp_2
*I *3813:X O *D sky130_fd_sc_hd__o21a_2
*CAP
1 *4005:RESET_B 0
2 *3813:X 0.000238132
3 *224:10 0.000238132
4 *224:10 *225:10 4.83778e-05
5 *224:10 *656:78 0.000407199
6 *224:10 *657:53 1.39317e-05
7 *224:10 *1084:10 0
*RES
1 *3813:X *224:10 44.0486 
2 *224:10 *4005:RESET_B 15 
*END

*D_NET *225 0.0006655
*CONN
*I *4006:RESET_B I *D sky130_fd_sc_hd__dfrtp_2
*I *3814:X O *D sky130_fd_sc_hd__o21a_2
*CAP
1 *4006:RESET_B 0
2 *3814:X 0.000263624
3 *225:10 0.000263624
4 *225:10 *490:8 0
5 *225:10 *656:69 0
6 *225:10 *656:78 0
7 *225:10 *657:53 3.31683e-05
8 *225:10 *881:103 5.67058e-05
9 *224:10 *225:10 4.83778e-05
*RES
1 *3814:X *225:10 43.3443 
2 *225:10 *4006:RESET_B 15 
*END

*D_NET *226 0.000443974
*CONN
*I *4007:RESET_B I *D sky130_fd_sc_hd__dfrtp_2
*I *3815:X O *D sky130_fd_sc_hd__o21a_2
*CAP
1 *4007:RESET_B 0
2 *3815:X 5.32427e-05
3 *226:8 5.32427e-05
4 *226:8 *881:90 0.000168744
5 *226:8 *896:123 0.000168744
*RES
1 *3815:X *226:8 40.2579 
2 *226:8 *4007:RESET_B 15 
*END

*D_NET *227 0.00113327
*CONN
*I *4008:RESET_B I *D sky130_fd_sc_hd__dfrtp_2
*I *3816:X O *D sky130_fd_sc_hd__o21a_2
*CAP
1 *4008:RESET_B 0.00026625
2 *3816:X 8.87283e-05
3 *227:10 0.000354978
4 *4008:RESET_B *655:14 0.000149137
5 *4008:RESET_B *1086:8 4.90004e-05
6 *227:10 *494:8 8.57577e-05
7 *227:10 *613:82 8.36198e-05
8 *227:10 *881:23 5.58003e-05
*RES
1 *3816:X *227:10 39.8229 
2 *227:10 *4008:RESET_B 19.5261 
*END

*D_NET *228 0.00317845
*CONN
*I *4009:RESET_B I *D sky130_fd_sc_hd__dfrtp_2
*I *3817:X O *D sky130_fd_sc_hd__o21a_2
*CAP
1 *4009:RESET_B 0.000514002
2 *3817:X 0
3 *228:6 0.000514002
4 *4009:RESET_B *656:8 0
5 *4009:RESET_B *657:19 0.00084927
6 *4009:RESET_B *896:10 0.000497275
7 *4009:RESET_B *896:16 0.000803898
8 *4009:RESET_B *1118:10 0
*RES
1 *3817:X *228:6 38 
2 *228:6 *4009:RESET_B 32.4 
*END

*D_NET *229 0.00101244
*CONN
*I *4010:RESET_B I *D sky130_fd_sc_hd__dfrtp_2
*I *3818:X O *D sky130_fd_sc_hd__o21a_2
*CAP
1 *4010:RESET_B 0
2 *3818:X 0.000160931
3 *229:8 0.000160931
4 *229:8 *3554:A2 0.000222004
5 *229:8 *493:18 0.000187996
6 *229:8 *494:8 0.00019644
7 *229:8 *613:97 6.02277e-06
8 *229:8 *904:111 0
9 *229:8 *904:126 7.81176e-05
*RES
1 *3818:X *229:8 43.4271 
2 *229:8 *4010:RESET_B 15 
*END

*D_NET *230 0.000428613
*CONN
*I *4011:RESET_B I *D sky130_fd_sc_hd__dfrtp_2
*I *3819:X O *D sky130_fd_sc_hd__o21a_2
*CAP
1 *4011:RESET_B 0
2 *3819:X 6.65977e-05
3 *230:8 6.65977e-05
4 *230:8 *881:121 0.000196549
5 *230:8 *904:57 9.88678e-05
*RES
1 *3819:X *230:8 40.61 
2 *230:8 *4011:RESET_B 15 
*END

*D_NET *231 0.00168416
*CONN
*I *4012:RESET_B I *D sky130_fd_sc_hd__dfrtp_2
*I *3820:X O *D sky130_fd_sc_hd__o21a_2
*CAP
1 *4012:RESET_B 0
2 *3820:X 0.000251691
3 *231:10 0.000251691
4 *231:10 *3820:A2 5.61255e-06
5 *231:10 *3820:B1 9.67842e-05
6 *231:10 *605:82 0.000264559
7 *231:10 *881:121 0.000374991
8 *231:10 *904:57 0.000222123
9 *231:10 *904:63 0.000216712
*RES
1 *3820:X *231:10 46.7829 
2 *231:10 *4012:RESET_B 15 
*END

*D_NET *232 0.000569192
*CONN
*I *4013:RESET_B I *D sky130_fd_sc_hd__dfrtp_2
*I *3821:X O *D sky130_fd_sc_hd__o21a_2
*CAP
1 *4013:RESET_B 9.41912e-05
2 *3821:X 0.000166922
3 *232:8 0.000261114
4 *4013:RESET_B *1076:10 6.17437e-06
5 *232:8 *655:57 0
6 *232:8 *657:73 0
7 *232:8 *745:31 1.01436e-05
8 *232:8 *1076:10 3.0647e-05
*RES
1 *3821:X *232:8 41.3143 
2 *232:8 *4013:RESET_B 16.5018 
*END

*D_NET *233 0.00118527
*CONN
*I *4014:RESET_B I *D sky130_fd_sc_hd__dfrtp_2
*I *3822:X O *D sky130_fd_sc_hd__o21a_2
*CAP
1 *4014:RESET_B 6.21959e-05
2 *3822:X 0.000271743
3 *233:8 0.000333939
4 *4014:RESET_B *613:118 0.00013273
5 *4014:RESET_B *1077:8 1.05235e-05
6 *233:8 *3571:A1 0.000167443
7 *233:8 *896:73 0
8 *233:8 *1076:10 8.85189e-05
9 *233:8 *1077:27 0.000118174
*RES
1 *3822:X *233:8 43.4271 
2 *233:8 *4014:RESET_B 16.5018 
*END

*D_NET *234 0.00128461
*CONN
*I *4015:RESET_B I *D sky130_fd_sc_hd__dfrtp_2
*I *3823:X O *D sky130_fd_sc_hd__o21a_2
*CAP
1 *4015:RESET_B 0
2 *3823:X 0.000361429
3 *234:10 0.000361429
4 *234:10 *3781:B1 0.000117973
5 *234:10 *3823:A2 0
6 *234:10 *3823:B1 5.26204e-05
7 *234:10 *3951:CLK 0.00010018
8 *234:10 *239:8 2.82708e-05
9 *234:10 *888:43 0.000157309
10 *234:10 *888:55 0.000105399
11 *234:10 *898:126 0
*RES
1 *3823:X *234:10 46.2857 
2 *234:10 *4015:RESET_B 15 
*END

*D_NET *235 0.000848994
*CONN
*I *4016:SET_B I *D sky130_fd_sc_hd__dfstp_2
*I *3824:X O *D sky130_fd_sc_hd__o21a_2
*CAP
1 *4016:SET_B 0
2 *3824:X 9.52828e-05
3 *235:8 9.52828e-05
4 *235:8 *911:72 0.000329214
5 *235:8 *1067:8 0.000329214
*RES
1 *3824:X *235:8 42.3707 
2 *235:8 *4016:SET_B 15 
*END

*D_NET *236 0.00115899
*CONN
*I *4017:RESET_B I *D sky130_fd_sc_hd__dfrtp_2
*I *3825:X O *D sky130_fd_sc_hd__o21a_2
*CAP
1 *4017:RESET_B 4.08008e-05
2 *3825:X 0.000300367
3 *236:10 0.000341168
4 *236:10 *238:10 0
5 *236:10 *365:16 3.52383e-05
6 *236:10 *902:62 9.5877e-05
7 *236:10 *991:10 0.00033779
8 *110:12 *236:10 7.75329e-06
*RES
1 *3825:X *236:10 44.1729 
2 *236:10 *4017:RESET_B 15.5489 
*END

*D_NET *237 0.000615284
*CONN
*I *4018:RESET_B I *D sky130_fd_sc_hd__dfrtp_2
*I *3826:X O *D sky130_fd_sc_hd__o21a_2
*CAP
1 *4018:RESET_B 0
2 *3826:X 0.000251511
3 *237:10 0.000251511
4 *237:10 *610:25 0
5 *237:10 *658:10 7.66085e-05
6 *237:10 *658:36 3.56537e-05
*RES
1 *3826:X *237:10 42.9921 
2 *237:10 *4018:RESET_B 15 
*END

*D_NET *238 0.000522955
*CONN
*I *4019:RESET_B I *D sky130_fd_sc_hd__dfrtp_2
*I *3827:X O *D sky130_fd_sc_hd__o21a_2
*CAP
1 *4019:RESET_B 0
2 *3827:X 0.000233972
3 *238:10 0.000233972
4 *238:10 *3896:RESET_B 5.50106e-05
5 *238:10 *603:13 0
6 *238:10 *616:46 0
7 *238:10 *991:10 0
8 *236:10 *238:10 0
*RES
1 *3827:X *238:10 41.9357 
2 *238:10 *4019:RESET_B 15 
*END

*D_NET *239 0.00110339
*CONN
*I *4020:RESET_B I *D sky130_fd_sc_hd__dfrtp_2
*I *3828:X O *D sky130_fd_sc_hd__o21a_2
*CAP
1 *4020:RESET_B 0.000332202
2 *3828:X 8.00154e-05
3 *239:8 0.000412218
4 *4020:RESET_B *980:12 4.19048e-05
5 *239:8 *888:43 3.70094e-05
6 *239:8 *888:55 0.000105399
7 *239:8 *898:126 6.63698e-05
8 *234:10 *239:8 2.82708e-05
*RES
1 *3828:X *239:8 40.61 
2 *239:8 *4020:RESET_B 20.3132 
*END

*D_NET *240 0.000381673
*CONN
*I *4021:RESET_B I *D sky130_fd_sc_hd__dfrtp_2
*I *3829:X O *D sky130_fd_sc_hd__o21a_2
*CAP
1 *4021:RESET_B 0
2 *3829:X 9.0986e-05
3 *240:8 9.0986e-05
4 *240:8 *4283:A 0
5 *240:8 *787:10 0.000199701
6 *240:8 *903:12 0
7 *240:8 *1097:10 0
*RES
1 *3829:X *240:8 40.61 
2 *240:8 *4021:RESET_B 15 
*END

*D_NET *241 0.00100027
*CONN
*I *4022:RESET_B I *D sky130_fd_sc_hd__dfrtp_2
*I *3830:X O *D sky130_fd_sc_hd__o21a_2
*CAP
1 *4022:RESET_B 0
2 *3830:X 0.000183245
3 *241:8 0.000183245
4 *241:8 *242:8 0.000199701
5 *241:8 *610:47 0.000434074
6 *241:8 *662:80 0
*RES
1 *3830:X *241:8 43.7793 
2 *241:8 *4022:RESET_B 15 
*END

*D_NET *242 0.000625644
*CONN
*I *4023:RESET_B I *D sky130_fd_sc_hd__dfrtp_2
*I *3831:X O *D sky130_fd_sc_hd__o21a_2
*CAP
1 *4023:RESET_B 0
2 *3831:X 0.000181337
3 *242:8 0.000181337
4 *242:8 *610:47 6.32688e-05
5 *242:8 *662:80 0
6 *153:10 *242:8 0
7 *241:8 *242:8 0.000199701
*RES
1 *3831:X *242:8 42.3707 
2 *242:8 *4023:RESET_B 15 
*END

*D_NET *243 0.00129073
*CONN
*I *4024:RESET_B I *D sky130_fd_sc_hd__dfrtp_2
*I *3832:X O *D sky130_fd_sc_hd__o21a_2
*CAP
1 *4024:RESET_B 0
2 *3832:X 0.000340893
3 *243:10 0.000340893
4 *243:10 *460:10 5.33546e-05
5 *243:10 *887:24 5.67058e-05
6 *243:10 *901:40 0.000246757
7 *243:10 *901:51 8.33866e-05
8 *243:10 *1104:10 5.75972e-05
9 *243:10 *1105:21 0.000111138
*RES
1 *3832:X *243:10 46.8657 
2 *243:10 *4024:RESET_B 15 
*END

*D_NET *244 0.00104502
*CONN
*I *4025:RESET_B I *D sky130_fd_sc_hd__dfrtp_2
*I *3833:X O *D sky130_fd_sc_hd__o21a_2
*CAP
1 *4025:RESET_B 0
2 *3833:X 0.000312661
3 *244:8 0.000312661
4 *244:8 *383:10 0.000168744
5 *244:8 *459:8 8.05808e-05
6 *244:8 *610:19 7.03766e-05
7 *244:8 *660:64 8.16253e-05
8 *244:8 *1107:10 1.83667e-05
9 *244:8 *1109:46 0
*RES
1 *3833:X *244:8 45.1879 
2 *244:8 *4025:RESET_B 15 
*END

*D_NET *245 0.00100061
*CONN
*I *4026:RESET_B I *D sky130_fd_sc_hd__dfrtp_2
*I *3834:X O *D sky130_fd_sc_hd__o21a_2
*CAP
1 *4026:RESET_B 0
2 *3834:X 0.000237755
3 *245:10 0.000237755
4 *245:10 *609:75 0
5 *245:10 *661:30 0.000407208
6 *245:10 *806:8 8.85189e-05
7 *245:10 *902:96 2.93747e-05
*RES
1 *3834:X *245:10 44.0486 
2 *245:10 *4026:RESET_B 15 
*END

*D_NET *246 0.000503398
*CONN
*I *4027:RESET_B I *D sky130_fd_sc_hd__dfrtp_2
*I *3835:X O *D sky130_fd_sc_hd__o21a_2
*CAP
1 *4027:RESET_B 0
2 *3835:X 8.27177e-05
3 *246:8 8.27177e-05
4 *246:8 *661:30 0.00025214
5 *246:8 *886:87 8.58219e-05
*RES
1 *3835:X *246:8 41.3143 
2 *246:8 *4027:RESET_B 15 
*END

*D_NET *247 0.000885597
*CONN
*I *4028:RESET_B I *D sky130_fd_sc_hd__dfrtp_2
*I *3836:X O *D sky130_fd_sc_hd__o21a_2
*CAP
1 *4028:RESET_B 2.10138e-05
2 *3836:X 0.000396739
3 *247:10 0.000417753
4 *4028:RESET_B *1110:10 5.00902e-05
5 *247:10 *4027:CLK 0
6 *247:10 *511:46 0
7 *247:10 *609:75 0
8 *247:10 *661:30 0
9 *157:18 *247:10 0
*RES
1 *3836:X *247:10 44.525 
2 *247:10 *4028:RESET_B 15.5489 
*END

*D_NET *248 0.000641518
*CONN
*I *4029:RESET_B I *D sky130_fd_sc_hd__dfrtp_2
*I *3837:X O *D sky130_fd_sc_hd__o21a_2
*CAP
1 *4029:RESET_B 0
2 *3837:X 0.000134895
3 *248:8 0.000134895
4 *248:8 *3598:B1 0.000119735
5 *248:8 *661:83 0.000111045
6 *248:8 *1112:10 0.000140949
*RES
1 *3837:X *248:8 42.7229 
2 *248:8 *4029:RESET_B 15 
*END

*D_NET *249 0.000798987
*CONN
*I *4030:RESET_B I *D sky130_fd_sc_hd__dfrtp_2
*I *3838:X O *D sky130_fd_sc_hd__o21a_2
*CAP
1 *4030:RESET_B 0.00023707
2 *3838:X 0.000115829
3 *249:8 0.000352899
4 *4030:RESET_B *1112:10 9.31892e-05
5 *249:8 *886:111 0
*RES
1 *3838:X *249:8 39.9057 
2 *249:8 *4030:RESET_B 19.3604 
*END

*D_NET *250 0.000511932
*CONN
*I *4031:RESET_B I *D sky130_fd_sc_hd__dfrtp_2
*I *3839:X O *D sky130_fd_sc_hd__o21a_2
*CAP
1 *4031:RESET_B 0
2 *3839:X 0.000158816
3 *250:10 0.000158816
4 *250:10 *3599:A2 0
5 *250:10 *661:94 0.000194299
*RES
1 *3839:X *250:10 41.2314 
2 *250:10 *4031:RESET_B 15 
*END

*D_NET *251 0.000385992
*CONN
*I *4032:RESET_B I *D sky130_fd_sc_hd__dfrtp_2
*I *3840:X O *D sky130_fd_sc_hd__o21a_2
*CAP
1 *4032:RESET_B 0
2 *3840:X 0.000178309
3 *251:10 0.000178309
4 *251:10 *609:101 0
5 *251:10 *661:107 2.93747e-05
6 *251:10 *887:119 0
*RES
1 *3840:X *251:10 40.8793 
2 *251:10 *4032:RESET_B 15 
*END

*D_NET *252 0.000350945
*CONN
*I *4033:RESET_B I *D sky130_fd_sc_hd__dfrtp_2
*I *3841:X O *D sky130_fd_sc_hd__o21a_2
*CAP
1 *4033:RESET_B 2.14958e-05
2 *3841:X 0.000132771
3 *252:8 0.000154266
4 *4033:RESET_B *609:12 1.67944e-05
5 *4033:RESET_B *1100:10 2.56175e-05
6 *252:8 *466:12 0
7 *252:8 *901:107 0
*RES
1 *3841:X *252:8 40.2579 
2 *252:8 *4033:RESET_B 15.5489 
*END

*D_NET *253 0.000300995
*CONN
*I *4034:RESET_B I *D sky130_fd_sc_hd__dfrtp_2
*I *3842:X O *D sky130_fd_sc_hd__o21a_2
*CAP
1 *4034:RESET_B 0
2 *3842:X 9.93149e-05
3 *253:8 9.93149e-05
4 *253:8 *662:67 0.000102365
5 *149:8 *253:8 0
*RES
1 *3842:X *253:8 40.61 
2 *253:8 *4034:RESET_B 15 
*END

*D_NET *254 0.000636419
*CONN
*I *4035:RESET_B I *D sky130_fd_sc_hd__dfrtp_2
*I *3843:X O *D sky130_fd_sc_hd__o21a_2
*CAP
1 *4035:RESET_B 0
2 *3843:X 0.000209276
3 *254:10 0.000209276
4 *254:10 *3614:A2 6.17437e-06
5 *254:10 *3843:A2 3.7122e-06
6 *254:10 *255:8 0.000194299
7 *254:10 *531:38 0
8 *254:10 *533:10 1.36806e-05
*RES
1 *3843:X *254:10 41.7079 
2 *254:10 *4035:RESET_B 15 
*END

*D_NET *255 0.00123734
*CONN
*I *4036:RESET_B I *D sky130_fd_sc_hd__dfrtp_2
*I *3844:X O *D sky130_fd_sc_hd__o21a_2
*CAP
1 *4036:RESET_B 0
2 *3844:X 0.000248556
3 *255:8 0.000248556
4 *255:8 *3614:A1 0
5 *255:8 *3614:A2 0
6 *255:8 *3844:A2 0.000138727
7 *255:8 *531:38 0
8 *255:8 *899:116 0.000407199
9 *254:10 *255:8 0.000194299
*RES
1 *3844:X *255:8 45.1879 
2 *255:8 *4036:RESET_B 15 
*END

*D_NET *256 0.00114933
*CONN
*I *4037:RESET_B I *D sky130_fd_sc_hd__dfrtp_2
*I *3845:X O *D sky130_fd_sc_hd__o21a_2
*CAP
1 *4037:RESET_B 0
2 *3845:X 0.000284663
3 *256:8 0.000284663
4 *256:8 *262:8 0.000114092
5 *256:8 *628:93 5.62433e-06
6 *256:8 *628:97 4.83941e-05
7 *256:8 *628:105 1.19692e-05
8 *256:8 *628:127 1.02561e-05
9 *256:8 *885:62 0
10 *256:8 *885:93 0
11 *256:8 *899:82 0.000323831
12 *4039:D *256:8 6.58373e-05
*RES
1 *3845:X *256:8 45.1879 
2 *256:8 *4037:RESET_B 15 
*END

*D_NET *257 0.000543614
*CONN
*I *4038:SET_B I *D sky130_fd_sc_hd__dfstp_2
*I *3846:X O *D sky130_fd_sc_hd__o21a_2
*CAP
1 *4038:SET_B 0
2 *3846:X 0.000139876
3 *257:10 0.000139876
4 *257:10 *3390:A1 3.70187e-05
5 *257:10 *3398:A 0.00019747
6 *257:10 *3846:A1 0
7 *257:10 *3846:B1 2.93747e-05
*RES
1 *3846:X *257:10 41.2314 
2 *257:10 *4038:SET_B 15 
*END

*D_NET *258 0.000257834
*CONN
*I *4039:RESET_B I *D sky130_fd_sc_hd__dfrtp_2
*I *3847:X O *D sky130_fd_sc_hd__o21a_2
*CAP
1 *4039:RESET_B 0
2 *3847:X 6.35325e-05
3 *258:8 6.35325e-05
4 *258:8 *607:78 0.000116314
5 *258:8 *885:62 1.44546e-05
*RES
1 *3847:X *258:8 39.5536 
2 *258:8 *4039:RESET_B 15 
*END

*D_NET *259 0.000752646
*CONN
*I *4040:RESET_B I *D sky130_fd_sc_hd__dfrtp_2
*I *3848:X O *D sky130_fd_sc_hd__o21a_2
*CAP
1 *4040:RESET_B 3.60099e-05
2 *3848:X 0.000150922
3 *259:10 0.000186932
4 *4040:RESET_B *4040:CLK 2.33744e-05
5 *259:10 *892:62 9.84851e-05
6 *259:10 *911:89 6.03737e-05
7 *175:8 *259:10 0.000196549
*RES
1 *3848:X *259:10 41.7079 
2 *259:10 *4040:RESET_B 15.5489 
*END

*D_NET *260 0.000328076
*CONN
*I *4041:RESET_B I *D sky130_fd_sc_hd__dfrtp_2
*I *3849:X O *D sky130_fd_sc_hd__o21a_2
*CAP
1 *4041:RESET_B 0
2 *3849:X 8.19423e-05
3 *260:8 8.19423e-05
4 *260:8 *606:12 6.53342e-05
5 *260:8 *643:76 9.88575e-05
*RES
1 *3849:X *260:8 40.61 
2 *260:8 *4041:RESET_B 15 
*END

*D_NET *261 0.000356453
*CONN
*I *4042:RESET_B I *D sky130_fd_sc_hd__dfrtp_2
*I *3850:X O *D sky130_fd_sc_hd__o21a_2
*CAP
1 *4042:RESET_B 0
2 *3850:X 0.000139905
3 *261:10 0.000139905
4 *261:10 *785:25 0
5 *11:10 *261:10 7.66426e-05
*RES
1 *3850:X *261:10 40.5271 
2 *261:10 *4042:RESET_B 15 
*END

*D_NET *262 0.00140542
*CONN
*I *4043:RESET_B I *D sky130_fd_sc_hd__dfrtp_2
*I *3851:X O *D sky130_fd_sc_hd__o21a_2
*CAP
1 *4043:RESET_B 0.000358643
2 *3851:X 0.000214844
3 *262:8 0.000573487
4 *4043:RESET_B *659:6 3.81472e-05
5 *4043:RESET_B *659:16 2.38288e-05
6 *262:8 *607:86 5.56306e-05
7 *262:8 *628:91 1.4471e-05
8 *262:8 *659:58 0
9 *262:8 *885:93 0
10 *262:8 *899:82 1.22803e-05
11 *262:8 *901:57 0
12 *256:8 *262:8 0.000114092
*RES
1 *3851:X *262:8 42.3707 
2 *262:8 *4043:RESET_B 20.3132 
*END

*D_NET *263 0.000326763
*CONN
*I *4044:RESET_B I *D sky130_fd_sc_hd__dfrtp_2
*I *3852:X O *D sky130_fd_sc_hd__o21a_2
*CAP
1 *4044:RESET_B 0
2 *3852:X 0.000147237
3 *263:10 0.000147237
4 *263:10 *3391:A2 3.22879e-05
5 *263:10 *659:90 0
6 *263:10 *901:77 0
7 *263:10 *1028:8 0
*RES
1 *3852:X *263:10 40.5271 
2 *263:10 *4044:RESET_B 15 
*END

*D_NET *264 0.00031881
*CONN
*I *4045:RESET_B I *D sky130_fd_sc_hd__dfrtp_2
*I *3853:X O *D sky130_fd_sc_hd__o21a_2
*CAP
1 *4045:RESET_B 2.51449e-05
2 *3853:X 8.27711e-05
3 *264:8 0.000107916
4 *4045:RESET_B *670:10 4.83893e-05
5 *50:8 *264:8 5.45887e-05
*RES
1 *3853:X *264:8 39.5536 
2 *264:8 *4045:RESET_B 15.5489 
*END

*D_NET *265 0.00144404
*CONN
*I *3856:D I *D sky130_fd_sc_hd__dfrtp_2
*I *3627:X O *D sky130_fd_sc_hd__mux2_1
*CAP
1 *3856:D 0
2 *3627:X 0.000369165
3 *265:10 0.000369165
4 *265:10 *3857:CLK 6.63801e-05
5 *265:10 *839:14 0.000326983
6 *265:10 *849:6 0.000312348
*RES
1 *3627:X *265:10 45.8507 
2 *265:10 *3856:D 38 
*END

*D_NET *266 0.00130899
*CONN
*I *3857:D I *D sky130_fd_sc_hd__dfrtp_2
*I *3628:X O *D sky130_fd_sc_hd__mux2_1
*CAP
1 *3857:D 0
2 *3628:X 0.000315748
3 *266:10 0.000315748
4 *266:10 *813:12 0.000110521
5 *266:10 *852:20 8.30323e-06
6 *266:10 *908:73 0.0002263
7 *43:13 *266:10 0.000332366
*RES
1 *3628:X *266:10 45.3743 
2 *266:10 *3857:D 38 
*END

*D_NET *267 0.00132551
*CONN
*I *3858:D I *D sky130_fd_sc_hd__dfrtp_2
*I *3629:X O *D sky130_fd_sc_hd__mux2_1
*CAP
1 *3858:D 0
2 *3629:X 0.000331669
3 *267:10 0.000331669
4 *267:10 *3629:A1 0
5 *267:10 *427:55 6.63801e-05
6 *267:10 *824:8 0
7 *267:10 *844:14 0.000321709
8 *267:10 *850:18 0.000274078
*RES
1 *3629:X *267:10 45.3743 
2 *267:10 *3858:D 38 
*END

*D_NET *268 0.000715519
*CONN
*I *3859:D I *D sky130_fd_sc_hd__dfrtp_2
*I *3630:X O *D sky130_fd_sc_hd__mux2_1
*CAP
1 *3859:D 4.1307e-05
2 *3630:X 0.000149523
3 *268:10 0.00019083
4 *3859:D *3859:CLK 6.17437e-06
5 *3859:D *620:21 2.02872e-05
6 *268:10 *443:8 5.3304e-05
7 *268:10 *620:32 6.25829e-05
8 *268:10 *848:8 0.000191511
*RES
1 *3630:X *268:10 41.2314 
2 *268:10 *3859:D 38.6214 
*END

*D_NET *269 0.0010127
*CONN
*I *3860:D I *D sky130_fd_sc_hd__dfrtp_2
*I *3631:X O *D sky130_fd_sc_hd__mux2_1
*CAP
1 *3860:D 4.09304e-05
2 *3631:X 0.000172864
3 *269:8 0.000213794
4 *269:8 *568:12 0.000397305
5 *269:8 *853:22 0.000187807
*RES
1 *3631:X *269:8 43.4271 
2 *269:8 *3860:D 38.6214 
*END

*D_NET *270 0.00119797
*CONN
*I *3861:D I *D sky130_fd_sc_hd__dfrtp_2
*I *3632:X O *D sky130_fd_sc_hd__mux2_1
*CAP
1 *3861:D 0
2 *3632:X 0.000441628
3 *270:10 0.000441628
4 *270:10 *441:8 5.50049e-05
5 *270:10 *441:16 0.000114083
6 *270:10 *845:6 0.000116245
7 *270:10 *854:26 0
8 *40:9 *270:10 2.93845e-05
*RES
1 *3632:X *270:10 44.9393 
2 *270:10 *3861:D 38 
*END

*D_NET *271 0.000420917
*CONN
*I *3862:D I *D sky130_fd_sc_hd__dfrtp_2
*I *3633:X O *D sky130_fd_sc_hd__mux2_1
*CAP
1 *3862:D 0
2 *3633:X 0.000174593
3 *271:10 0.000174593
4 *271:10 *800:8 0
5 *271:10 *847:20 3.21327e-05
6 *271:10 *908:18 3.34247e-05
7 *40:9 *271:10 6.17437e-06
*RES
1 *3633:X *271:10 40.6514 
2 *271:10 *3862:D 38 
*END

*D_NET *272 0.00620528
*CONN
*I *4246:A I *D sky130_fd_sc_hd__dlygate4sd3_1
*I *3395:X O *D sky130_fd_sc_hd__or3_2
*CAP
1 *4246:A 0
2 *3395:X 0.000645151
3 *272:30 0.000657978
4 *272:20 0.000937933
5 *272:10 0.000925105
6 *272:10 *3821:A1 0.00049883
7 *272:10 *655:20 6.74232e-05
8 *272:10 *655:28 0.000409468
9 *272:10 *674:10 0.00031627
10 *272:10 *745:31 7.40805e-05
11 *272:10 *896:45 0.00041079
12 *272:10 *1013:29 0.000316273
13 *272:20 *881:23 9.66585e-05
14 *272:20 *881:29 0.000204796
15 *272:30 *3554:A2 5.28455e-05
16 *272:30 *542:22 0.000135534
17 *272:30 *655:70 5.91105e-05
18 *272:30 *665:10 0
19 *272:30 *896:39 1.50409e-05
20 *272:30 *921:26 0.000138718
21 *272:30 *1010:12 4.63956e-05
22 *272:30 *1118:10 0
23 *173:10 *272:30 0.00019688
*RES
1 *3395:X *272:10 39.9857 
2 *272:10 *272:20 49.0807 
3 *272:20 *272:30 29.21 
4 *272:30 *4246:A 23 
*END

*D_NET *273 0.000959844
*CONN
*I *3864:D I *D sky130_fd_sc_hd__dfrtp_2
*I *3636:X O *D sky130_fd_sc_hd__mux2_1
*CAP
1 *3864:D 0
2 *3636:X 0.000197949
3 *273:10 0.000197949
4 *273:10 *274:10 0.000138708
5 *273:10 *680:22 0.00036412
6 *273:10 *900:18 6.11183e-05
*RES
1 *3636:X *273:10 43.4686 
2 *273:10 *3864:D 38 
*END

*D_NET *274 0.00131755
*CONN
*I *3865:D I *D sky130_fd_sc_hd__dfrtp_2
*I *3637:X O *D sky130_fd_sc_hd__mux2_1
*CAP
1 *3865:D 3.6231e-05
2 *3637:X 0.000364098
3 *274:10 0.000400329
4 *3865:D *918:6 5.3304e-05
5 *274:10 *3855:CLK 0
6 *274:10 *610:98 0
7 *274:10 *661:19 0
8 *274:10 *681:12 5.67058e-05
9 *274:10 *900:18 0.000151857
10 *122:10 *274:10 0
11 *172:8 *274:10 0.000116314
12 *273:10 *274:10 0.000138708
*RES
1 *3637:X *274:10 45.8093 
2 *274:10 *3865:D 38.6214 
*END

*D_NET *275 0.00130273
*CONN
*I *3866:D I *D sky130_fd_sc_hd__dfrtp_2
*I *3638:X O *D sky130_fd_sc_hd__mux2_1
*CAP
1 *3866:D 0
2 *3638:X 0.000534301
3 *275:10 0.000534301
4 *275:10 *3638:A0 0
5 *275:10 *3862:CLK 0
6 *275:10 *3862:RESET_B 4.39278e-05
7 *275:10 *618:20 0
8 *275:10 *646:37 0.000190198
9 *109:34 *275:10 0
*RES
1 *3638:X *275:10 47.1143 
2 *275:10 *3866:D 38 
*END

*D_NET *276 0.000181348
*CONN
*I *3867:D I *D sky130_fd_sc_hd__dfrtp_2
*I *3639:X O *D sky130_fd_sc_hd__mux2_1
*CAP
1 *3867:D 0
2 *3639:X 7.16044e-05
3 *276:8 7.16044e-05
4 *276:8 *618:109 3.81391e-05
5 *276:8 *981:10 0
*RES
1 *3639:X *276:8 39.5536 
2 *276:8 *3867:D 38 
*END

*D_NET *277 0.0011523
*CONN
*I *3868:D I *D sky130_fd_sc_hd__dfrtp_2
*I *3640:X O *D sky130_fd_sc_hd__mux2_1
*CAP
1 *3868:D 4.01848e-05
2 *3640:X 0.000262671
3 *277:8 0.000302856
4 *277:8 *279:10 5.42758e-05
5 *277:8 *884:12 0.000263711
6 *3:11 *277:8 0.000228599
7 *9:11 *277:8 0
*RES
1 *3640:X *277:8 45.1879 
2 *277:8 *3868:D 38.6214 
*END

*D_NET *278 0.000472305
*CONN
*I *3869:D I *D sky130_fd_sc_hd__dfrtp_2
*I *3641:X O *D sky130_fd_sc_hd__mux2_1
*CAP
1 *3869:D 0
2 *3641:X 0.000164118
3 *278:10 0.000164118
4 *278:10 *3707:A 0
5 *278:10 *3869:CLK 6.7177e-06
6 *278:10 *3871:RESET_B 5.3304e-05
7 *278:10 *870:16 0
8 *278:10 *932:34 8.4047e-05
*RES
1 *3641:X *278:10 40.8793 
2 *278:10 *3869:D 38 
*END

*D_NET *279 0.000521926
*CONN
*I *3870:D I *D sky130_fd_sc_hd__dfrtp_2
*I *3642:X O *D sky130_fd_sc_hd__mux2_1
*CAP
1 *3870:D 0
2 *3642:X 0.000168232
3 *279:10 0.000168232
4 *279:10 *3642:A0 2.64616e-05
5 *279:10 *3642:A1 8.06804e-06
6 *279:10 *619:63 4.90803e-05
7 *3:11 *279:10 4.75766e-05
8 *277:8 *279:10 5.42758e-05
*RES
1 *3642:X *279:10 41.3557 
2 *279:10 *3870:D 38 
*END

*D_NET *280 0.000328023
*CONN
*I *3871:D I *D sky130_fd_sc_hd__dfrtp_2
*I *3643:X O *D sky130_fd_sc_hd__mux2_1
*CAP
1 *3871:D 0
2 *3643:X 8.19054e-05
3 *280:8 8.19054e-05
4 *280:8 *284:10 6.53445e-05
5 *280:8 *895:14 9.88678e-05
*RES
1 *3643:X *280:8 40.61 
2 *280:8 *3871:D 38 
*END

*D_NET *281 0.00154398
*CONN
*I *3872:D I *D sky130_fd_sc_hd__dfrtp_2
*I *3644:X O *D sky130_fd_sc_hd__mux2_1
*CAP
1 *3872:D 0.000336268
2 *3644:X 0.000116815
3 *281:8 0.000453083
4 *3872:D *862:20 0.000542165
5 *3872:D *929:10 5.47808e-05
6 *281:8 *4309:A 0
7 *281:8 *862:20 0
8 *281:8 *929:10 4.08641e-05
*RES
1 *3644:X *281:8 40.2579 
2 *281:8 *3872:D 47.1971 
*END

*D_NET *282 0.000305185
*CONN
*I *3873:D I *D sky130_fd_sc_hd__dfrtp_2
*I *3645:X O *D sky130_fd_sc_hd__mux2_1
*CAP
1 *3873:D 0
2 *3645:X 0.000105717
3 *282:10 0.000105717
4 o_receive_data[6] *282:10 5.80963e-05
5 *68:8 *282:10 3.56537e-05
*RES
1 *3645:X *282:10 40.175 
2 *282:10 *3873:D 38 
*END

*D_NET *283 0.000801606
*CONN
*I *3874:D I *D sky130_fd_sc_hd__dfrtp_2
*I *3646:X O *D sky130_fd_sc_hd__mux2_1
*CAP
1 *3874:D 0
2 *3646:X 0.000204509
3 *283:10 0.000204509
4 *283:10 *3868:CLK 1.01436e-05
5 *283:10 *608:33 0.00014411
6 *283:10 *608:42 0.00019747
7 *283:10 *862:8 4.08641e-05
8 *283:10 *884:12 0
*RES
1 *3646:X *283:10 42.9921 
2 *283:10 *3874:D 38 
*END

*D_NET *284 0.00121452
*CONN
*I *3875:D I *D sky130_fd_sc_hd__dfrtp_2
*I *3647:X O *D sky130_fd_sc_hd__mux2_1
*CAP
1 *3875:D 0
2 *3647:X 0.000362656
3 *284:10 0.000362656
4 *284:10 *895:14 0
5 o_receive_data[6] *284:10 0.000423859
6 *6:13 *284:10 0
7 *280:8 *284:10 6.53445e-05
*RES
1 *3647:X *284:10 46.2857 
2 *284:10 *3875:D 38 
*END

*D_NET *285 0.000704584
*CONN
*I *3876:D I *D sky130_fd_sc_hd__dfrtp_2
*I *3650:X O *D sky130_fd_sc_hd__o21a_2
*CAP
1 *3876:D 4.85683e-05
2 *3650:X 0.00019332
3 *285:8 0.000241888
4 *285:8 *613:10 8.64915e-05
5 *285:8 *706:12 0.000111941
6 *285:8 *1012:10 2.23754e-05
*RES
1 *3650:X *285:8 42.3707 
2 *285:8 *3876:D 38.6214 
*END

*D_NET *286 0.00138755
*CONN
*I *3877:D I *D sky130_fd_sc_hd__dfrtp_2
*I *3652:X O *D sky130_fd_sc_hd__o21a_2
*CAP
1 *3877:D 0
2 *3652:X 0.000443328
3 *286:10 0.000443328
4 *286:10 *3652:B1 2.95423e-05
5 *286:10 *4167:A 6.89359e-06
6 *286:10 *287:8 0.000186203
7 *286:10 *545:8 3.6608e-05
8 *286:10 *614:37 0
9 *286:10 *758:12 0.000178794
10 *286:10 *874:10 6.28488e-05
*RES
1 *3652:X *286:10 47.8186 
2 *286:10 *3877:D 38 
*END

*D_NET *287 0.00130936
*CONN
*I *3878:D I *D sky130_fd_sc_hd__dfrtp_2
*I *3654:X O *D sky130_fd_sc_hd__o21a_2
*CAP
1 *3878:D 0.00010673
2 *3654:X 0.000371796
3 *287:8 0.000478526
4 *3878:D *874:10 0.000103637
5 *287:8 *546:10 0
6 *287:8 *650:10 0
7 *287:8 *758:12 0
8 *287:8 *1017:10 6.24707e-05
9 *287:8 *1024:8 0
10 *286:10 *287:8 0.000186203
*RES
1 *3654:X *287:8 45.8921 
2 *287:8 *3878:D 40.5271 
*END

*D_NET *288 0.00133988
*CONN
*I *3879:D I *D sky130_fd_sc_hd__dfrtp_2
*I *3656:X O *D sky130_fd_sc_hd__o21a_2
*CAP
1 *3879:D 0
2 *3656:X 0.000337215
3 *288:10 0.000337215
4 *288:10 *3652:B1 1.35999e-05
5 *288:10 *3656:A1 2.02872e-05
6 *288:10 *3656:B1 4.69418e-05
7 *288:10 *4070:A 9.86777e-06
8 *288:10 *614:10 8.54174e-05
9 *288:10 *614:63 0.000128144
10 *288:10 *768:10 0.000141344
11 *288:10 *994:18 0.000139581
12 *288:10 *994:26 8.02685e-05
*RES
1 *3656:X *288:10 44.4421 
2 *288:10 *3879:D 38 
*END

*D_NET *289 0.00191176
*CONN
*I *3880:D I *D sky130_fd_sc_hd__dfrtp_2
*I *3658:X O *D sky130_fd_sc_hd__o21a_2
*CAP
1 *3880:D 5.63448e-05
2 *3658:X 0.000459908
3 *289:10 0.000516252
4 *3880:D *3880:CLK 7.59794e-05
5 *3880:D *1025:40 9.67842e-05
6 *289:10 *3654:B1 0.000100477
7 *289:10 *3879:CLK 1.59094e-05
8 *289:10 *547:8 0.000134433
9 *289:10 *614:10 1.4731e-05
10 *289:10 *614:12 1.97329e-05
11 *289:10 *768:10 1.09942e-05
12 *289:10 *910:72 8.70422e-05
13 *289:10 *994:18 0.000100522
14 *289:10 *994:26 0.000183412
15 *289:10 *1018:36 3.92407e-05
*RES
1 *3658:X *289:10 46.9071 
2 *289:10 *3880:D 39.5743 
*END

*D_NET *290 0.00117417
*CONN
*I *3881:D I *D sky130_fd_sc_hd__dfrtp_2
*I *3659:X O *D sky130_fd_sc_hd__mux2_1
*CAP
1 *3881:D 0
2 *3659:X 0.000246519
3 *290:10 0.000246519
4 *290:10 *718:10 0.000318008
5 *290:10 *910:60 4.51222e-05
6 *290:10 *992:10 0.000318008
*RES
1 *3659:X *290:10 43.945 
2 *290:10 *3881:D 38 
*END

*D_NET *291 0.00050759
*CONN
*I *3882:D I *D sky130_fd_sc_hd__dfrtp_2
*I *3660:X O *D sky130_fd_sc_hd__mux2_1
*CAP
1 *3882:D 0
2 *3660:X 0.000147588
3 *291:10 0.000147588
4 *291:10 *717:8 0.00014411
5 *291:10 *857:8 5.50106e-05
6 *291:10 *910:60 1.32939e-05
7 *291:10 *992:10 0
*RES
1 *3660:X *291:10 41.0036 
2 *291:10 *3882:D 38 
*END

*D_NET *292 0.00141893
*CONN
*I *3883:D I *D sky130_fd_sc_hd__dfstp_2
*I *3662:X O *D sky130_fd_sc_hd__a21o_2
*CAP
1 *3883:D 1.66872e-05
2 *3662:X 0.000258128
3 *292:8 0.000274815
4 *3883:D *354:22 2.93845e-05
5 *3883:D *643:43 2.30292e-05
6 *292:8 *3402:B 0.000351599
7 *292:8 *3662:B1 8.68081e-05
8 *292:8 *602:18 0.000378483
9 *292:8 *643:67 0
*RES
1 *3662:X *292:8 45.54 
2 *292:8 *3883:D 38.6214 
*END

*D_NET *293 0.000752753
*CONN
*I *3884:D I *D sky130_fd_sc_hd__dfxtp_2
*I *3664:X O *D sky130_fd_sc_hd__mux2_1
*CAP
1 *3884:D 1.66233e-05
2 *3664:X 0.00028557
3 *293:10 0.000302194
4 *293:10 *4049:RESET_B 8.06039e-05
5 *293:10 *4053:RESET_B 0
6 *293:10 *359:31 2.93845e-05
7 *293:10 *557:8 0
8 *293:10 *703:8 0
9 *293:10 *947:8 3.83778e-05
*RES
1 *3664:X *293:10 42.9921 
2 *293:10 *3884:D 38.1916 
*END

*D_NET *294 0.00200255
*CONN
*I *3885:D I *D sky130_fd_sc_hd__dfxtp_2
*I *3666:X O *D sky130_fd_sc_hd__mux2_1
*CAP
1 *3885:D 0.000170675
2 *3666:X 0.000295415
3 *294:14 0.00046609
4 *3885:D *3672:A1 0.000131077
5 *3885:D *297:10 0.000114083
6 *3885:D *623:77 0.000114083
7 *3885:D *701:12 9.18344e-05
8 *3885:D *940:6 4.9054e-06
9 *294:14 *3666:A0 0.00036315
10 *294:14 *359:87 2.06341e-05
11 *294:14 *701:12 0.000230604
*RES
1 *3666:X *294:14 45.4779 
2 *294:14 *3885:D 43.2666 
*END

*D_NET *295 0.0011662
*CONN
*I *3886:D I *D sky130_fd_sc_hd__dfxtp_2
*I *3668:X O *D sky130_fd_sc_hd__mux2_1
*CAP
1 *3886:D 1.58638e-05
2 *3668:X 0.000276202
3 *295:14 0.000292066
4 *295:14 *3672:A1 1.14452e-05
5 *295:14 *624:59 0.000169674
6 *295:14 *694:14 8.62876e-05
7 *295:14 *698:12 0.000267035
8 *295:14 *940:6 3.82058e-06
9 o_receive_data[5] *295:14 4.38096e-05
*RES
1 *3668:X *295:14 44.9393 
2 *295:14 *3886:D 38.1916 
*END

*D_NET *296 0.00135406
*CONN
*I *3887:D I *D sky130_fd_sc_hd__dfxtp_2
*I *3670:X O *D sky130_fd_sc_hd__mux2_1
*CAP
1 *3887:D 6.50651e-05
2 *3670:X 0.00019754
3 *296:10 0.000262606
4 *3887:D *624:59 7.10068e-06
5 *3887:D *889:126 0.000145305
6 *296:10 *698:12 0.000480278
7 *296:10 *701:12 0.000196168
*RES
1 *3670:X *296:10 44.1729 
2 *296:10 *3887:D 39.6209 
*END

*D_NET *297 0.000721229
*CONN
*I *3888:D I *D sky130_fd_sc_hd__dfxtp_2
*I *3672:X O *D sky130_fd_sc_hd__mux2_1
*CAP
1 *3888:D 1.26271e-05
2 *3672:X 0.000157127
3 *297:10 0.000169754
4 *3888:D *623:77 1.64354e-05
5 *297:10 *3672:A1 0.000111852
6 *297:10 *359:87 0.000139352
7 *3885:D *297:10 0.000114083
*RES
1 *3672:X *297:10 41.1279 
2 *297:10 *3888:D 38.1916 
*END

*D_NET *298 0.000728983
*CONN
*I *3889:D I *D sky130_fd_sc_hd__dfxtp_2
*I *3674:X O *D sky130_fd_sc_hd__mux2_1
*CAP
1 *3889:D 0.000128582
2 *3674:X 7.97676e-05
3 *298:8 0.00020835
4 *3889:D *3889:CLK 0.00027663
5 *298:8 *623:60 3.56537e-05
*RES
1 *3674:X *298:8 39.5536 
2 *298:8 *3889:D 41.0502 
*END

*D_NET *299 0.000538766
*CONN
*I *3890:D I *D sky130_fd_sc_hd__dfxtp_2
*I *3676:X O *D sky130_fd_sc_hd__mux2_1
*CAP
1 *3890:D 1.58638e-05
2 *3676:X 0.000143203
3 *299:10 0.000159067
4 *299:10 *3676:S 5.56279e-05
5 *299:10 *640:28 0.000165003
*RES
1 *3676:X *299:10 40.8793 
2 *299:10 *3890:D 38.1916 
*END

*D_NET *300 0.000540596
*CONN
*I *3891:D I *D sky130_fd_sc_hd__dfxtp_2
*I *3678:X O *D sky130_fd_sc_hd__mux2_1
*CAP
1 *3891:D 1.13183e-05
2 *3678:X 0.000159423
3 *300:10 0.000170741
4 *3891:D *640:14 1.64354e-05
5 *300:10 *623:115 4.58924e-05
6 *300:10 *641:10 8.26569e-05
7 *300:10 *646:61 0
8 *300:10 *971:59 5.41288e-05
*RES
1 *3678:X *300:10 41.3557 
2 *300:10 *3891:D 38.1916 
*END

*D_NET *301 0.00021966
*CONN
*I *4250:A I *D sky130_fd_sc_hd__dlygate4sd3_1
*I *3679:X O *D sky130_fd_sc_hd__a22o_2
*CAP
1 *4250:A 0.00010983
2 *3679:X 0.00010983
*RES
1 *3679:X *4250:A 47.595 
*END

*D_NET *302 0.000808904
*CONN
*I *3893:D I *D sky130_fd_sc_hd__dfrtp_2
*I *3681:Y O *D sky130_fd_sc_hd__nor2_2
*CAP
1 *3893:D 5.0586e-05
2 *3681:Y 0.000282889
3 *302:8 0.000333475
4 *3893:D *605:46 0.000141954
5 *302:8 *3893:RESET_B 0
6 *302:8 *652:16 0
7 *302:8 *1000:29 0
8 *108:10 *302:8 0
*RES
1 *3681:Y *302:8 43.075 
2 *302:8 *3893:D 39.5743 
*END

*D_NET *303 0.000992637
*CONN
*I *3894:D I *D sky130_fd_sc_hd__dfrtp_2
*I *3684:X O *D sky130_fd_sc_hd__a22o_2
*CAP
1 *3894:D 8.09457e-05
2 *3684:X 0.000196739
3 *303:8 0.000277685
4 *303:8 *3946:RESET_B 5.21024e-05
5 *303:8 *676:24 0.000197479
6 *303:8 *838:12 0
7 *303:8 *981:84 3.95159e-06
8 *107:6 *3894:D 0.000183733
*RES
1 *3684:X *303:8 42.3707 
2 *303:8 *3894:D 40.0507 
*END

*D_NET *304 0.000639832
*CONN
*I *3895:D I *D sky130_fd_sc_hd__dfrtp_2
*I *3685:X O *D sky130_fd_sc_hd__a22o_2
*CAP
1 *3895:D 0
2 *3685:X 0.000319916
3 *304:10 0.000319916
*RES
1 *3685:X *304:10 28.075 
2 *304:10 *3895:D 23 
*END

*D_NET *305 0.00120919
*CONN
*I *4202:A I *D sky130_fd_sc_hd__dlygate4sd3_1
*I *3686:X O *D sky130_fd_sc_hd__a21o_2
*CAP
1 *4202:A 0
2 *3686:X 0.000281747
3 *305:6 0.000281747
4 *305:6 *3686:A1 2.93747e-05
5 *305:6 *905:8 0.000560166
6 *305:6 *907:65 5.61579e-05
*RES
1 *3686:X *305:6 29.815 
2 *305:6 *4202:A 23 
*END

*D_NET *306 0.000739172
*CONN
*I *3897:D I *D sky130_fd_sc_hd__dfrtp_2
*I *3688:X O *D sky130_fd_sc_hd__o21a_2
*CAP
1 *3897:D 0
2 *3688:X 0.000317802
3 *306:10 0.000317802
4 *306:10 *3688:B1 3.71887e-05
5 *306:10 *618:68 6.63801e-05
6 *306:10 *729:10 0
*RES
1 *3688:X *306:10 43.8207 
2 *306:10 *3897:D 38 
*END

*D_NET *307 0.00159605
*CONN
*I *3898:D I *D sky130_fd_sc_hd__dfrtp_2
*I *3692:X O *D sky130_fd_sc_hd__a22o_2
*CAP
1 *3898:D 2.64034e-05
2 *3692:X 0.000296298
3 *307:10 0.000322701
4 *3898:D *562:14 8.68775e-05
5 *3898:D *562:22 5.82853e-05
6 *3898:D *569:24 8.26478e-05
7 *307:10 *3692:A1 5.68576e-05
8 *307:10 *4243:A 0.000242052
9 *307:10 *562:35 0.000137982
10 *307:10 *953:23 0.000285942
*RES
1 *3692:X *307:10 45.8507 
2 *307:10 *3898:D 39.5743 
*END

*D_NET *308 0.000681656
*CONN
*I *3899:D I *D sky130_fd_sc_hd__dfrtp_2
*I *3694:X O *D sky130_fd_sc_hd__a22o_2
*CAP
1 *3899:D 0
2 *3694:X 0.000194228
3 *308:10 0.000194228
4 *308:10 *3694:B1 0.000179812
5 *308:10 *562:35 0.000113389
*RES
1 *3694:X *308:10 41.5163 
2 *308:10 *3899:D 38 
*END

*D_NET *309 0.000962731
*CONN
*I *3900:D I *D sky130_fd_sc_hd__dfrtp_2
*I *3696:X O *D sky130_fd_sc_hd__a22o_2
*CAP
1 *3900:D 0
2 *3696:X 0.00023634
3 *309:10 0.00023634
4 *309:10 *3696:A2 0.000138747
5 *309:10 *434:43 3.67392e-05
6 *309:10 *562:22 6.33771e-05
7 *309:10 *564:14 7.92146e-05
8 *309:10 *569:24 0.000138859
9 *309:10 *632:12 3.31149e-05
*RES
1 *3696:X *309:10 42.8886 
2 *309:10 *3900:D 38 
*END

*D_NET *310 0.00106825
*CONN
*I *3901:D I *D sky130_fd_sc_hd__dfrtp_2
*I *3698:X O *D sky130_fd_sc_hd__o22a_2
*CAP
1 *3901:D 0.000134528
2 *3698:X 0.000196121
3 *310:8 0.00033065
4 *3901:D *3901:CLK 8.15864e-05
5 *3901:D *853:10 4.98295e-05
6 *310:8 *442:14 9.47208e-05
7 *310:8 *563:47 0.000144073
8 *47:21 *310:8 3.67392e-05
*RES
1 *3698:X *310:8 43.075 
2 *310:8 *3901:D 40.5271 
*END

*D_NET *311 0.00239591
*CONN
*I *3902:D I *D sky130_fd_sc_hd__dfrtp_2
*I *3700:X O *D sky130_fd_sc_hd__o22a_2
*CAP
1 *3902:D 0.000814467
2 *3700:X 4.97114e-05
3 *311:8 0.000864179
4 *3902:D *3902:CLK 3.28224e-05
5 *3902:D *3902:RESET_B 3.63221e-05
6 *3902:D *563:22 0.000491204
7 *311:8 *565:14 2.14486e-05
8 *311:8 *604:48 8.57577e-05
*RES
1 *3700:X *311:8 39.2014 
2 *311:8 *3902:D 48.6937 
*END

*D_NET *312 0.00208108
*CONN
*I *3903:D I *D sky130_fd_sc_hd__dfrtp_2
*I *3702:X O *D sky130_fd_sc_hd__o22a_2
*CAP
1 *3903:D 0.00023752
2 *3702:X 0.000418121
3 *312:10 0.000655641
4 *3903:D *3903:CLK 0.000106894
5 *312:10 *3698:A2 0.000297413
6 *312:10 *435:32 0.000293165
7 *312:10 *567:16 0
8 *312:10 *841:38 5.79559e-05
9 *312:10 *909:33 1.0092e-05
10 *312:10 *983:46 4.2812e-06
*RES
1 *3702:X *312:10 47.2179 
2 *312:10 *3903:D 41.0709 
*END

*D_NET *313 0.00103735
*CONN
*I *3904:D I *D sky130_fd_sc_hd__dfrtp_2
*I *3704:X O *D sky130_fd_sc_hd__o22a_2
*CAP
1 *3904:D 0
2 *3704:X 0.000382136
3 *313:10 0.000382136
4 *313:10 *563:6 0.000192342
5 *313:10 *729:10 8.07381e-05
*RES
1 *3704:X *313:10 44.4214 
2 *313:10 *3904:D 38 
*END

*D_NET *314 0.00129357
*CONN
*I *3905:D I *D sky130_fd_sc_hd__dfrtp_2
*I *3716:Y O *D sky130_fd_sc_hd__nor2_2
*CAP
1 *3905:D 0
2 *3716:Y 0.00036643
3 *314:10 0.00036643
4 *314:10 *359:125 6.3614e-05
5 *314:10 *640:14 2.93845e-05
6 *314:10 *705:10 0.000166513
7 *314:10 *789:8 7.03766e-05
8 *314:10 *871:8 9.85728e-05
9 *314:10 *907:26 9.14812e-05
10 *314:10 *971:59 4.07715e-05
*RES
1 *3716:Y *314:10 47.2593 
2 *314:10 *3905:D 38 
*END

*D_NET *315 0.00103187
*CONN
*I *3906:D I *D sky130_fd_sc_hd__dfrtp_2
*I *3721:X O *D sky130_fd_sc_hd__and3_2
*CAP
1 *3906:D 9.55608e-05
2 *3721:X 0.000310844
3 *315:10 0.000406404
4 *315:10 *3721:B 0
5 *315:10 *3906:RESET_B 8.16253e-05
6 *315:10 *4172:A 5.47808e-05
7 *315:10 *915:8 8.26569e-05
8 *315:10 *999:35 0
*RES
1 *3721:X *315:10 43.945 
2 *315:10 *3906:D 39.5743 
*END

*D_NET *316 0.000894644
*CONN
*I *3907:D I *D sky130_fd_sc_hd__dfrtp_2
*I *3724:X O *D sky130_fd_sc_hd__and3b_2
*CAP
1 *3907:D 0.00011627
2 *3724:X 8.34408e-05
3 *316:8 0.000199711
4 *3907:D *3907:CLK 6.17437e-06
5 *3907:D *916:32 5.52339e-05
6 *316:8 *580:10 0.000218023
7 *316:8 *632:22 0.000215791
*RES
1 *3724:X *316:8 40.9621 
2 *316:8 *3907:D 39.5743 
*END

*D_NET *317 0.00102769
*CONN
*I *3908:D I *D sky130_fd_sc_hd__dfrtp_2
*I *3727:X O *D sky130_fd_sc_hd__and3b_2
*CAP
1 *3908:D 0
2 *3727:X 0.000242973
3 *317:10 0.000242973
4 *317:10 *3907:CLK 5.3304e-05
5 *317:10 *580:10 0.000343064
6 *317:10 *582:87 0.000105175
7 *317:10 *588:16 0
8 *317:10 *588:29 1.7992e-05
9 *317:10 *588:49 2.76611e-06
10 *317:10 *632:22 1.94418e-05
*RES
1 *3727:X *317:10 44.0486 
2 *317:10 *3908:D 38 
*END

*D_NET *318 0.0011289
*CONN
*I *3909:D I *D sky130_fd_sc_hd__dfrtp_2
*I *3730:X O *D sky130_fd_sc_hd__and3_2
*CAP
1 *3909:D 0.000353991
2 *3730:X 0.00012305
3 *318:10 0.000477042
4 *318:10 *3730:A 2.32004e-05
5 *318:10 *3909:RESET_B 8.47413e-05
6 *318:10 *579:10 5.36457e-05
7 *318:10 *582:10 1.32314e-05
*RES
1 *3730:X *318:10 40.8793 
2 *318:10 *3909:D 43.3857 
*END

*D_NET *319 0.00144506
*CONN
*I *3910:D I *D sky130_fd_sc_hd__dfrtp_2
*I *3733:X O *D sky130_fd_sc_hd__and3b_2
*CAP
1 *3910:D 0.000210279
2 *3733:X 0.000242707
3 *319:10 0.000452986
4 *3910:D *3910:CLK 3.7039e-05
5 *319:10 *3731:B1 0.000146195
6 *319:10 *3733:C 0.000102389
7 *319:10 *619:14 0.000111148
8 *319:10 *619:34 5.72749e-05
9 *319:10 *916:32 8.50457e-05
*RES
1 *3733:X *319:10 44.2971 
2 *319:10 *3910:D 40.5893 
*END

*D_NET *320 0.00197809
*CONN
*I *3911:D I *D sky130_fd_sc_hd__dfrtp_2
*I *3736:X O *D sky130_fd_sc_hd__and3b_2
*CAP
1 *3911:D 0.000354496
2 *3736:X 0.000324628
3 *320:10 0.000679123
4 *3911:D *619:51 0.000136236
5 *320:10 *3735:B 0.000240721
6 *320:10 *3911:RESET_B 1.69484e-05
7 *320:10 *595:8 0.00018536
8 *320:10 *871:22 4.05745e-05
*RES
1 *3736:X *320:10 44.3179 
2 *320:10 *3911:D 42.93 
*END

*D_NET *321 0.00217287
*CONN
*I *3912:D I *D sky130_fd_sc_hd__dfrtp_2
*I *3739:X O *D sky130_fd_sc_hd__and3_2
*CAP
1 *3912:D 0.000500935
2 *3739:X 0.000226674
3 *321:8 0.000727609
4 *321:8 *3739:A 0
5 *321:8 *322:8 8.62783e-05
6 *321:8 *582:59 0
7 *321:8 *599:8 3.39335e-05
8 *321:8 *818:8 8.85189e-05
9 *321:8 *916:77 0.000508916
*RES
1 *3739:X *321:8 44.8357 
2 *321:8 *3912:D 43.9295 
*END

*D_NET *322 0.000598606
*CONN
*I *3913:D I *D sky130_fd_sc_hd__dfrtp_2
*I *3742:X O *D sky130_fd_sc_hd__and3_2
*CAP
1 *3913:D 0
2 *3742:X 0.00014434
3 *322:8 0.00014434
4 *322:8 *599:8 0.000165644
5 *322:8 *916:77 5.80038e-05
6 *322:8 *977:14 0
7 *321:8 *322:8 8.62783e-05
*RES
1 *3742:X *322:8 42.3707 
2 *322:8 *3913:D 38 
*END

*D_NET *323 0.00121143
*CONN
*I *3914:D I *D sky130_fd_sc_hd__dfrtp_2
*I *3744:X O *D sky130_fd_sc_hd__a21o_2
*CAP
1 *3914:D 0.00012836
2 *3744:X 0.000277797
3 *323:10 0.000406157
4 *323:10 *3914:RESET_B 1.94522e-05
5 *323:10 *600:8 7.73389e-05
6 *323:10 *603:13 0
7 *323:10 *993:89 0.00030233
8 *323:10 *1008:10 0
*RES
1 *3744:X *323:10 44.6493 
2 *323:10 *3914:D 40.0507 
*END

*D_NET *324 0.00101009
*CONN
*I *3915:D I *D sky130_fd_sc_hd__dfrtp_2
*I *3392:X O *D sky130_fd_sc_hd__o21a_2
*CAP
1 *3915:D 0
2 *3392:X 0.000380551
3 *324:10 0.000380551
4 *324:10 *732:10 0
5 *324:10 *894:96 0
6 *324:10 *911:10 0
7 *324:10 *1029:8 0.000248989
*RES
1 *3392:X *324:10 45.0014 
2 *324:10 *3915:D 38 
*END

*D_NET *325 0.0007557
*CONN
*I *3916:D I *D sky130_fd_sc_hd__dfrtp_2
*I *3390:X O *D sky130_fd_sc_hd__o21a_2
*CAP
1 *3916:D 0
2 *3390:X 0.000226838
3 *325:10 0.000226838
4 *325:10 *3390:A2 0.000165583
5 *325:10 *3390:B1 2.45549e-06
6 *325:10 *3846:A2 0.000125904
7 *325:10 *878:109 8.08139e-06
8 *325:10 *1034:14 0
*RES
1 *3390:X *325:10 42.4121 
2 *325:10 *3916:D 38 
*END

*D_NET *326 0.000595879
*CONN
*I *4220:A I *D sky130_fd_sc_hd__dlygate4sd3_1
*I *3388:Y O *D sky130_fd_sc_hd__a21oi_2
*CAP
1 *4220:A 0
2 *3388:Y 0.000251551
3 *326:10 0.000251551
4 *326:10 *606:45 3.98818e-05
5 *326:10 *715:10 5.2894e-05
*RES
1 *3388:Y *326:10 27.35 
2 *326:10 *4220:A 23 
*END

*D_NET *327 0.000967164
*CONN
*I *3918:D I *D sky130_fd_sc_hd__dfrtp_2
*I *3386:X O *D sky130_fd_sc_hd__and3b_2
*CAP
1 *3918:D 3.95203e-05
2 *3386:X 0.000267976
3 *327:14 0.000307496
4 *3918:D *876:6 6.17437e-06
5 *3918:D *876:18 2.93747e-05
6 *327:14 *3918:CLK 7.20518e-05
7 *327:14 *392:10 1.01436e-05
8 *327:14 *1041:73 8.62783e-05
9 *327:14 *1042:25 7.68515e-05
10 *11:10 *327:14 7.12971e-05
*RES
1 *3386:X *327:14 43.0543 
2 *327:14 *3918:D 38.6214 
*END

*D_NET *328 0.00037328
*CONN
*I *3919:D I *D sky130_fd_sc_hd__dfrtp_2
*I *3384:Y O *D sky130_fd_sc_hd__nor2_2
*CAP
1 *3919:D 1.24964e-05
2 *3384:Y 8.79231e-05
3 *328:8 0.00010042
4 *3919:D *877:29 3.22879e-05
5 *3919:D *890:25 5.50106e-05
6 *328:8 *890:25 9.48381e-06
7 *11:10 *328:8 7.56585e-05
*RES
1 *3384:Y *328:8 39.9057 
2 *328:8 *3919:D 38.6214 
*END

*D_NET *329 0.000689061
*CONN
*I *3920:D I *D sky130_fd_sc_hd__dfrtp_2
*I *3382:Y O *D sky130_fd_sc_hd__a21oi_2
*CAP
1 *3920:D 4.67219e-05
2 *3382:Y 9.13756e-05
3 *329:8 0.000138098
4 *3920:D *396:20 3.87132e-05
5 *3920:D *606:88 0.000139352
6 *329:8 *392:29 7.461e-05
7 *329:8 *403:8 0.000160191
*RES
1 *3382:Y *329:8 40.2579 
2 *329:8 *3920:D 39.5743 
*END

*D_NET *330 0.000404502
*CONN
*I *3921:D I *D sky130_fd_sc_hd__dfrtp_2
*I *3380:X O *D sky130_fd_sc_hd__and3b_2
*CAP
1 *3921:D 0.000168392
2 *3380:X 0.000168392
3 *3921:D *3380:B 6.17437e-06
4 *3921:D *1045:16 6.15432e-05
*RES
1 *3380:X *3921:D 49.0243 
*END

*D_NET *331 0.000738368
*CONN
*I *3922:D I *D sky130_fd_sc_hd__dfrtp_2
*I *3378:Y O *D sky130_fd_sc_hd__nor2_2
*CAP
1 *3922:D 0
2 *3378:Y 0.000291967
3 *331:10 0.000291967
4 *331:10 *3378:B 5.37348e-06
5 *331:10 *830:8 3.81391e-05
6 *331:10 *891:72 0
7 *181:8 *331:10 0.000110922
*RES
1 *3378:Y *331:10 43.8207 
2 *331:10 *3922:D 38 
*END

*D_NET *332 0.00125703
*CONN
*I *3923:D I *D sky130_fd_sc_hd__dfrtp_2
*I *3376:Y O *D sky130_fd_sc_hd__a21oi_2
*CAP
1 *3923:D 0
2 *3376:Y 0.00024683
3 *332:10 0.00024683
4 *332:10 *394:37 0.000191138
5 *332:10 *394:58 9.58714e-05
6 *332:10 *395:8 0.000345276
7 *332:10 *400:10 0.000108681
8 *332:10 *1049:27 2.24048e-05
*RES
1 *3376:Y *332:10 43.8207 
2 *332:10 *3923:D 38 
*END

*D_NET *333 0.000450372
*CONN
*I *3924:D I *D sky130_fd_sc_hd__dfrtp_2
*I *3374:Y O *D sky130_fd_sc_hd__nor2_2
*CAP
1 *3924:D 2.77218e-05
2 *3374:Y 8.98079e-05
3 *333:8 0.00011753
4 *3924:D *626:64 2.64616e-05
5 *3924:D *1048:10 5.3304e-05
6 *333:8 *398:8 0
7 *333:8 *626:64 0.000135547
8 *333:8 *644:77 0
*RES
1 *3374:Y *333:8 39.9057 
2 *333:8 *3924:D 38.6214 
*END

*D_NET *334 0.00161044
*CONN
*I *3925:D I *D sky130_fd_sc_hd__dfrtp_2
*I *3371:X O *D sky130_fd_sc_hd__and3_2
*CAP
1 *3925:D 0.000500743
2 *3371:X 4.49118e-05
3 *334:8 0.000545655
4 *3925:D *3375:A1 3.01041e-05
5 *3925:D *3922:CLK 0.000114856
6 *3925:D *3925:CLK 0.00026025
7 *334:8 *3375:B1 2.11887e-05
8 *334:8 *396:96 4.21594e-06
9 *334:8 *644:103 8.85189e-05
*RES
1 *3371:X *334:8 39.2014 
2 *334:8 *3925:D 44.7166 
*END

*D_NET *335 0.000604536
*CONN
*I *3926:D I *D sky130_fd_sc_hd__dfrtp_2
*I *3363:X O *D sky130_fd_sc_hd__a31o_2
*CAP
1 *3926:D 0
2 *3363:X 0.000127012
3 *335:10 0.000127012
4 *335:10 *3363:A1 1.57571e-05
5 *335:10 *3363:A3 0.000189804
6 *335:10 *626:21 4.48628e-05
7 *335:10 *626:23 4.21594e-06
8 *335:10 *1051:30 9.58714e-05
*RES
1 *3363:X *335:10 41.3557 
2 *335:10 *3926:D 38 
*END

*D_NET *336 0.000493151
*CONN
*I *3927:D I *D sky130_fd_sc_hd__dfrtp_2
*I *3362:X O *D sky130_fd_sc_hd__mux2_1
*CAP
1 *3927:D 0.000105476
2 *3362:X 9.07631e-05
3 *336:8 0.000196239
4 *3927:D *958:28 5.47808e-05
5 *3998:RESET_B *336:8 0
6 *186:8 *336:8 4.58924e-05
*RES
1 *3362:X *336:8 39.9057 
2 *336:8 *3927:D 40.0507 
*END

*D_NET *337 0.000956182
*CONN
*I *4286:A I *D sky130_fd_sc_hd__dlygate4sd3_1
*I *3745:X O *D sky130_fd_sc_hd__mux2_1
*CAP
1 *4286:A 0
2 *3745:X 0.000359731
3 *337:10 0.000359731
4 *337:10 *359:45 1.99429e-05
5 *337:10 *556:8 0
6 *337:10 *623:101 0
7 *337:10 *646:61 0.000174417
8 *337:10 *771:25 0
9 *337:10 *947:36 4.2361e-05
*RES
1 *3745:X *337:10 44.7736 
2 *337:10 *4286:A 38 
*END

*D_NET *338 0.000543804
*CONN
*I *4050:D I *D sky130_fd_sc_hd__dfrtp_2
*I *3746:X O *D sky130_fd_sc_hd__mux2_1
*CAP
1 *4050:D 0
2 *3746:X 0.000158119
3 *338:10 0.000158119
4 *338:10 *552:12 0.000138708
5 *338:10 *624:161 2.19998e-05
6 *338:10 *889:140 6.68587e-05
*RES
1 *3746:X *338:10 41.0036 
2 *338:10 *4050:D 38 
*END

*D_NET *339 0.00128446
*CONN
*I *4051:D I *D sky130_fd_sc_hd__dfrtp_2
*I *3747:X O *D sky130_fd_sc_hd__mux2_1
*CAP
1 *4051:D 0
2 *3747:X 0.000391118
3 *339:10 0.000391118
4 *339:10 *4056:RESET_B 0
5 *339:10 *889:105 0.000487467
6 *339:10 *889:140 1.47563e-05
*RES
1 *3747:X *339:10 44.4629 
2 *339:10 *4051:D 38 
*END

*D_NET *340 0.00150044
*CONN
*I *4229:A I *D sky130_fd_sc_hd__dlygate4sd3_1
*I *3748:X O *D sky130_fd_sc_hd__mux2_1
*CAP
1 *4229:A 0.000108849
2 *3748:X 0.000268752
3 *340:10 0.000377601
4 *4229:A *3883:CLK 0.00014196
5 *4229:A *354:22 1.79175e-05
6 *340:10 *3748:A1 1.94693e-05
7 *340:10 *3982:CLK 1.14452e-05
8 *340:10 *622:80 9.85378e-05
9 *340:10 *622:82 0.000235293
10 *340:10 *726:10 0.000139647
11 *340:10 *939:16 1.32939e-05
12 *11:10 *340:10 6.7678e-05
*RES
1 *3748:X *340:10 43.8207 
2 *340:10 *4229:A 40.5479 
*END

*D_NET *341 0.000337091
*CONN
*I *4053:D I *D sky130_fd_sc_hd__dfrtp_2
*I *3749:X O *D sky130_fd_sc_hd__mux2_1
*CAP
1 *4053:D 2.24548e-05
2 *3749:X 0.000118585
3 *341:8 0.00014104
4 *4053:D *622:27 5.50106e-05
5 *341:8 *4042:CLK 0
6 *341:8 *550:8 0
7 *341:8 *622:17 0
*RES
1 *3749:X *341:8 39.5536 
2 *341:8 *4053:D 38.6214 
*END

*D_NET *342 0.00144283
*CONN
*I *4270:A I *D sky130_fd_sc_hd__dlygate4sd3_1
*I *3750:X O *D sky130_fd_sc_hd__mux2_1
*CAP
1 *4270:A 0
2 *3750:X 0.000387425
3 *342:10 0.000387425
4 *342:10 *4390:A 0.000317553
5 *342:10 *646:61 0.000350425
6 *342:10 *772:8 0
7 *342:10 *907:121 0
*RES
1 *3750:X *342:10 46.2029 
2 *342:10 *4270:A 38 
*END

*D_NET *343 0.000979616
*CONN
*I *4282:A I *D sky130_fd_sc_hd__dlygate4sd3_1
*I *3751:X O *D sky130_fd_sc_hd__mux2_1
*CAP
1 *4282:A 9.98562e-05
2 *3751:X 0.000186313
3 *343:10 0.000286169
4 *4282:A *907:102 9.91798e-05
5 *343:10 *641:37 6.79006e-05
6 *343:10 *889:91 0.000237741
7 *343:10 *934:51 2.45549e-06
*RES
1 *3751:X *343:10 41.48 
2 *343:10 *4282:A 40.0507 
*END

*D_NET *344 0.000883904
*CONN
*I *4277:A I *D sky130_fd_sc_hd__dlygate4sd3_1
*I *3752:X O *D sky130_fd_sc_hd__mux2_1
*CAP
1 *4277:A 0.000158303
2 *3752:X 0.00014441
3 *344:10 0.000302713
4 *344:10 *4395:A 0
5 *344:10 *606:56 0.000139647
6 *344:10 *624:44 5.25436e-05
7 *344:10 *780:8 8.62876e-05
*RES
1 *3752:X *344:10 41.0036 
2 *344:10 *4277:A 40.5271 
*END

*D_NET *345 0.000502266
*CONN
*I *4260:A I *D sky130_fd_sc_hd__dlygate4sd3_1
*I *3753:X O *D sky130_fd_sc_hd__mux2_1
*CAP
1 *4260:A 0
2 *3753:X 0.000241963
3 *345:8 0.000241963
4 *345:8 *3753:S 0
5 *345:8 *761:10 1.83408e-05
*RES
1 *3753:X *345:8 27.3293 
2 *345:8 *4260:A 23 
*END

*D_NET *346 0.000832096
*CONN
*I *4272:A I *D sky130_fd_sc_hd__dlygate4sd3_1
*I *3754:X O *D sky130_fd_sc_hd__mux2_1
*CAP
1 *4272:A 0
2 *3754:X 0.00030992
3 *346:10 0.00030992
4 *346:10 *351:8 0.000141879
5 *346:10 *774:10 7.03766e-05
*RES
1 *3754:X *346:10 42.9093 
2 *346:10 *4272:A 38 
*END

*D_NET *347 0.00237831
*CONN
*I *4059:D I *D sky130_fd_sc_hd__dfrtp_2
*I *3755:X O *D sky130_fd_sc_hd__mux2_1
*CAP
1 *4059:D 0.000360659
2 *3755:X 0.000264407
3 *347:8 0.000625066
4 *4059:D *4058:CLK 2.81066e-05
5 *4059:D *4059:CLK 0.000160224
6 *347:8 *4057:RESET_B 0.000199701
7 *347:8 *604:24 1.09886e-05
8 *347:8 *777:10 8.75792e-05
9 *347:8 *792:10 0.000641581
10 *347:8 *794:10 0
11 *347:8 *967:16 0
*RES
1 *3755:X *347:8 46.5964 
2 *347:8 *4059:D 43.5514 
*END

*D_NET *348 0.000494649
*CONN
*I *4060:D I *D sky130_fd_sc_hd__dfrtp_2
*I *3756:X O *D sky130_fd_sc_hd__mux2_1
*CAP
1 *4060:D 0
2 *3756:X 0.00023633
3 *348:10 0.00023633
4 *348:10 *4060:RESET_B 0
5 *348:10 *353:10 0
6 *348:10 *617:36 0
7 *348:10 *617:54 1.44546e-05
8 *348:10 *755:22 0
9 *348:10 *907:40 7.53384e-06
*RES
1 *3756:X *348:10 41.7079 
2 *348:10 *4060:D 38 
*END

*D_NET *349 0.000584967
*CONN
*I *4061:D I *D sky130_fd_sc_hd__dfrtp_2
*I *3757:X O *D sky130_fd_sc_hd__mux2_1
*CAP
1 *4061:D 0
2 *3757:X 0.000136551
3 *349:10 0.000136551
4 *349:10 *3621:A1 0.000141879
5 *349:10 *3623:B2 3.83778e-05
6 *349:10 *905:30 9.84851e-05
7 *349:10 *968:21 3.3123e-05
*RES
1 *3757:X *349:10 41.0036 
2 *349:10 *4061:D 38 
*END

*D_NET *350 0.00195303
*CONN
*I *4062:D I *D sky130_fd_sc_hd__dfrtp_2
*I *3758:X O *D sky130_fd_sc_hd__mux2_1
*CAP
1 *4062:D 0.000298078
2 *3758:X 0.000443299
3 *350:10 0.000741378
4 *4062:D *4062:RESET_B 5.03619e-05
5 *4062:D *608:27 0.000228663
6 *350:10 *567:16 0.000191255
*RES
1 *3758:X *350:10 45.25 
2 *350:10 *4062:D 45.2914 
*END

*D_NET *351 0.00144246
*CONN
*I *4063:D I *D sky130_fd_sc_hd__dfrtp_2
*I *3759:X O *D sky130_fd_sc_hd__mux2_1
*CAP
1 *4063:D 0.000106441
2 *3759:X 0.000222239
3 *351:8 0.00032868
4 *4063:D *619:22 5.50106e-05
5 *351:8 *3754:A1 0.000151909
6 *351:8 *3754:S 0.000385726
7 *351:8 *774:10 4.5942e-05
8 *351:8 *875:58 0
9 *351:8 *962:10 4.6318e-06
10 *346:10 *351:8 0.000141879
*RES
1 *3759:X *351:8 45.54 
2 *351:8 *4063:D 40.0507 
*END

*D_NET *352 0.00130898
*CONN
*I *4274:A I *D sky130_fd_sc_hd__dlygate4sd3_1
*I *3760:X O *D sky130_fd_sc_hd__mux2_1
*CAP
1 *4274:A 0
2 *3760:X 0.000516376
3 *352:10 0.000516376
4 *352:10 *3760:A1 9.5877e-05
5 *352:10 *4064:RESET_B 0
6 *352:10 *604:48 0.000125342
7 *352:10 *632:12 0
8 *352:10 *777:10 0
9 *352:10 *967:16 5.50049e-05
*RES
1 *3760:X *352:10 47.1143 
2 *352:10 *4274:A 38 
*END

*D_NET *353 0.00494266
*CONN
*I *3982:D I *D sky130_fd_sc_hd__dfstp_2
*I *3624:X O *D sky130_fd_sc_hd__or3_2
*CAP
1 *3982:D 2.77218e-05
2 *3624:X 4.96829e-05
3 *353:10 0.00210317
4 *353:8 0.00212513
5 *3982:D *3905:RESET_B 5.3304e-05
6 *3982:D *646:53 2.64616e-05
7 *353:10 *3623:A1 0
8 *353:10 *3905:RESET_B 0
9 *353:10 *3909:CLK 0
10 *353:10 *604:12 2.26406e-05
11 *353:10 *617:54 6.79006e-05
12 *353:10 *621:35 0
13 *353:10 *621:49 0
14 *353:10 *636:57 0
15 *353:10 *636:64 0
16 *353:10 *636:74 0
17 *353:10 *675:10 5.561e-05
18 *353:10 *907:32 0.000241365
19 *353:10 *907:36 0
20 *353:10 *965:27 0
21 *353:10 *965:46 0
22 *353:10 *999:35 0
23 *75:10 *353:10 0.000169674
24 *348:10 *353:10 0
*RES
1 *3624:X *353:8 38.6214 
2 *353:8 *353:10 38.8807 
3 *353:10 *3982:D 38.6214 
*END

*D_NET *354 0.0125423
*CONN
*I *3438:A1 I *D sky130_fd_sc_hd__a22o_2
*I *3716:A I *D sky130_fd_sc_hd__nor2_2
*I *3717:B1 I *D sky130_fd_sc_hd__a21oi_2
*I *3319:Y O *D sky130_fd_sc_hd__inv_2
*CAP
1 *3438:A1 0
2 *3716:A 7.9041e-05
3 *3717:B1 0
4 *3319:Y 0
5 *354:54 0.000345299
6 *354:30 0.000602587
7 *354:24 0.000681628
8 *354:22 0.00141269
9 *354:10 0.00233644
10 *354:4 0.00126905
11 *3716:A *581:12 6.3614e-05
12 *354:10 *4121:A 2.64616e-05
13 *354:10 *365:30 0.000192501
14 *354:10 *603:105 1.14876e-05
15 *354:10 *645:78 0.000110379
16 *354:10 *689:12 7.79163e-05
17 *354:10 *880:78 0.00125989
18 *354:10 *894:32 1.01436e-05
19 *354:10 *894:51 0.000419943
20 *354:10 *894:60 5.01986e-05
21 *354:10 *894:111 0.000901749
22 *354:10 *911:72 7.75329e-06
23 *354:10 *911:89 3.96156e-05
24 *354:10 *993:46 5.95625e-06
25 *354:10 *1038:10 0.000138718
26 *354:10 *1067:8 0.000589151
27 *354:22 *3824:B1 1.3523e-05
28 *354:22 *3883:CLK 0.000268011
29 *354:22 *3883:SET_B 0.000144713
30 *354:22 *643:43 3.1483e-05
31 *354:22 *726:10 5.67058e-05
32 *354:30 *3909:CLK 0
33 *354:30 *4210:A 0.000100733
34 *354:30 *581:12 0.000223575
35 *354:30 *705:10 3.22879e-05
36 *354:30 *871:22 7.88828e-05
37 *354:54 *3435:B1 1.17869e-05
38 *354:54 *3438:B1 2.93845e-05
39 *354:54 *4262:A 0.000248989
40 *354:54 *603:105 3.53051e-05
41 *354:54 *892:58 1.01436e-05
42 *354:54 *892:117 0.000314617
43 *354:54 *993:46 2.70469e-05
44 *354:54 *1065:10 1.22803e-05
45 *3883:D *354:22 2.93845e-05
46 *4229:A *354:22 1.79175e-05
47 *11:10 *3716:A 6.94816e-05
48 *11:10 *354:30 0.000153821
*RES
1 *3319:Y *354:4 23 
2 *354:4 *354:10 43.0057 
3 *354:10 *354:22 36.4393 
4 *354:22 *354:24 15 
5 *354:24 *354:30 29.3343 
6 *354:30 *3717:B1 23 
7 *354:24 *3716:A 40.61 
8 *354:4 *354:54 37.0429 
9 *354:54 *3438:A1 23 
*END

*D_NET *355 0.00560035
*CONN
*I *3511:A1_N I *D sky130_fd_sc_hd__o2bb2a_2
*I *3512:B2 I *D sky130_fd_sc_hd__o221a_2
*I *3320:Y O *D sky130_fd_sc_hd__inv_2
*CAP
1 *3511:A1_N 0
2 *3512:B2 0
3 *3320:Y 0.0008022
4 *355:30 0.000490588
5 *355:18 0.000989749
6 *355:6 0.00130136
7 *355:6 *3382:A2 0.000139352
8 *355:6 *735:10 1.03955e-05
9 *355:6 *1044:43 0.000530627
10 *355:6 *1048:35 0.000604796
11 *355:18 *3511:B2 1.67196e-05
12 *355:18 *3513:B2 0
13 *355:18 *393:8 0
14 *355:18 *396:57 0
15 *355:18 *471:10 0
16 *355:18 *473:8 0
17 *355:18 *1044:66 0
18 *355:18 *1046:10 0
19 *355:30 *3511:A2_N 0.00031074
20 *355:30 *3511:B2 0.000120858
21 *355:30 *3512:B1 0.000133316
22 *355:30 *387:14 0
23 *355:30 *1059:10 9.26098e-05
24 *355:30 *1061:14 5.70419e-05
*RES
1 *3320:Y *355:6 39.82 
2 *355:6 *355:18 38.2029 
3 *355:18 *355:30 42.0143 
4 *355:30 *3512:B2 23 
5 *355:18 *3511:A1_N 23 
*END

*D_NET *356 0.00182457
*CONN
*I *3511:B2 I *D sky130_fd_sc_hd__o2bb2a_2
*I *3513:B2 I *D sky130_fd_sc_hd__a221oi_2
*I *3321:Y O *D sky130_fd_sc_hd__inv_2
*CAP
1 *3511:B2 0.000303462
2 *3513:B2 0.000210892
3 *3321:Y 1.39009e-05
4 *356:8 0.000528255
5 *3511:B2 *3509:A1 1.02387e-05
6 *3511:B2 *393:8 0
7 *3511:B2 *467:10 0
8 *3511:B2 *473:8 0.000114092
9 *3511:B2 *1058:27 0
10 *3513:B2 *3509:A1 7.8128e-05
11 *3513:B2 *358:8 4.66047e-05
12 *3513:B2 *468:16 1.32314e-05
13 *3513:B2 *471:10 0.000110913
14 *3513:B2 *1048:35 0.000171185
15 *356:8 *3512:C1 2.93845e-05
16 *356:8 *357:12 5.67058e-05
17 *355:18 *3511:B2 1.67196e-05
18 *355:18 *3513:B2 0
19 *355:30 *3511:B2 0.000120858
*RES
1 *3321:Y *356:8 38.6214 
2 *356:8 *3513:B2 42.9507 
3 *356:8 *3511:B2 44.1936 
*END

*D_NET *357 0.00255578
*CONN
*I *3512:A1 I *D sky130_fd_sc_hd__o221a_2
*I *3513:A1 I *D sky130_fd_sc_hd__a221oi_2
*I *3322:Y O *D sky130_fd_sc_hd__inv_2
*CAP
1 *3512:A1 0.000122348
2 *3513:A1 5.5464e-05
3 *3322:Y 0.000428493
4 *357:12 0.000606305
5 *3512:A1 *3509:B1 0.000178517
6 *3512:A1 *3512:C1 0.000223692
7 *3512:A1 *467:10 1.01436e-05
8 *3512:A1 *646:63 7.48331e-05
9 *3512:A1 *1058:14 3.3746e-05
10 *3513:A1 *646:63 0.000171906
11 *3513:A1 *1058:14 8.51225e-05
12 *357:12 *3321:A 0.00010018
13 *357:12 *3512:C1 4.95851e-05
14 *357:12 *471:10 9.58714e-05
15 *357:12 *474:10 0.000262864
16 *356:8 *357:12 5.67058e-05
*RES
1 *3322:Y *357:12 45.4571 
2 *357:12 *3513:A1 40.2579 
3 *357:12 *3512:A1 41.7286 
*END

*D_NET *358 0.00266246
*CONN
*I *3509:A1 I *D sky130_fd_sc_hd__o221a_2
*I *3510:A1 I *D sky130_fd_sc_hd__a221o_2
*I *3323:Y O *D sky130_fd_sc_hd__inv_2
*CAP
1 *3509:A1 0.000162465
2 *3510:A1 0.000252612
3 *3323:Y 0.000207096
4 *358:8 0.000622172
5 *3509:A1 *471:10 2.36844e-05
6 *3509:A1 *474:10 0.000204337
7 *3509:A1 *1056:21 1.37349e-05
8 *3510:A1 *3510:A2 5.90686e-05
9 *3510:A1 *468:16 0
10 *3510:A1 *470:8 2.76611e-06
11 *3510:A1 *471:10 5.19151e-05
12 *3510:A1 *472:8 0.000165593
13 *3510:A1 *474:10 0.000249918
14 *3510:A1 *1056:21 6.43108e-05
15 *358:8 *468:16 9.58714e-05
16 *358:8 *475:10 0.000180212
17 *358:8 *1048:35 0.000171734
18 *3511:B2 *3509:A1 1.02387e-05
19 *3513:B2 *3509:A1 7.8128e-05
20 *3513:B2 *358:8 4.66047e-05
*RES
1 *3323:Y *358:8 43.3857 
2 *358:8 *3510:A1 44.8771 
3 *358:8 *3509:A1 41.6664 
*END

*D_NET *359 0.0201543
*CONN
*I *3678:A0 I *D sky130_fd_sc_hd__mux2_1
*I *3676:A0 I *D sky130_fd_sc_hd__mux2_1
*I *3674:A0 I *D sky130_fd_sc_hd__mux2_1
*I *3670:A0 I *D sky130_fd_sc_hd__mux2_1
*I *3668:A0 I *D sky130_fd_sc_hd__mux2_1
*I *3672:A0 I *D sky130_fd_sc_hd__mux2_1
*I *3666:A0 I *D sky130_fd_sc_hd__mux2_1
*I *3664:A0 I *D sky130_fd_sc_hd__mux2_1
*I *3361:A I *D sky130_fd_sc_hd__nor2_2
*I *3324:Y O *D sky130_fd_sc_hd__inv_2
*CAP
1 *3678:A0 0
2 *3676:A0 0
3 *3674:A0 0
4 *3670:A0 0.000609898
5 *3668:A0 0
6 *3672:A0 0
7 *3666:A0 0.000110855
8 *3664:A0 8.737e-05
9 *3361:A 0
10 *3324:Y 0.000163202
11 *359:125 0.000257499
12 *359:87 0.00103659
13 *359:67 0.000788883
14 *359:61 0.000814828
15 *359:57 0.00103277
16 *359:45 0.00143547
17 *359:43 0.00131106
18 *359:31 0.00136411
19 *359:16 0.00139327
20 *359:8 0.00292058
21 *3666:A0 *3672:A1 5.3304e-05
22 *3666:A0 *551:14 7.06229e-05
23 *3666:A0 *554:10 2.32004e-05
24 *3670:A0 *3670:S 5.25848e-05
25 *3670:A0 *4207:A 3.64736e-05
26 *3670:A0 *624:59 0
27 *3670:A0 *624:83 0
28 *3670:A0 *702:8 8.39412e-05
29 *3670:A0 *869:10 0
30 *3670:A0 *889:126 7.55388e-05
31 *359:8 *3398:A 0
32 *359:8 *911:72 0
33 *359:8 *1039:8 0.000289034
34 *359:16 *3661:A2 0
35 *359:16 *370:8 5.3304e-05
36 *359:16 *911:72 0
37 *359:16 *936:29 0
38 *359:16 *937:8 0
39 *359:16 *939:12 0
40 *359:16 *959:8 0
41 *359:16 *1039:8 0.000272303
42 *359:31 *3745:A0 2.32004e-05
43 *359:31 *3745:A1 9.75779e-05
44 *359:31 *4016:CLK 1.95556e-05
45 *359:31 *4016:D 6.17437e-06
46 *359:31 *4378:A 1.94812e-05
47 *359:31 *640:8 0.000181131
48 *359:31 *939:16 0.00112194
49 *359:31 *939:30 3.62452e-05
50 *359:43 *3745:A0 0.00014196
51 *359:45 *3676:S 2.13733e-05
52 *359:45 *3745:A0 0.000267167
53 *359:45 *4300:A 2.93747e-05
54 *359:45 *805:6 0.000230291
55 *359:57 *3707:A 5.20202e-05
56 *359:57 *4305:A 0.000400342
57 *359:57 *606:56 0.000192096
58 *359:57 *640:28 0
59 *359:57 *699:14 0.00016401
60 *359:57 *739:18 1.01436e-05
61 *359:57 *805:6 9.92345e-05
62 *359:61 *4305:A 0.0003216
63 *359:61 *694:14 4.39278e-05
64 *359:61 *811:10 0.000140259
65 *359:67 *3672:A1 1.58805e-05
66 *359:67 *555:10 5.25841e-05
67 *359:67 *623:60 0.000193743
68 *359:67 *623:77 0.000236976
69 *359:67 *694:14 0
70 *359:87 *3672:A1 4.5051e-05
71 *359:87 *554:10 5.24338e-05
72 *359:87 *869:10 0
73 *359:87 *889:109 9.84851e-05
74 *359:87 *889:126 0.000207437
75 *359:125 *641:10 0
76 *359:125 *789:8 0
77 *359:125 *907:26 2.29192e-05
78 *359:125 *971:59 3.70094e-05
79 o_receive_data[5] *3670:A0 0.000149239
80 *4075:A *359:16 0
81 *11:14 *359:16 0.000450689
82 *293:10 *359:31 2.93845e-05
83 *294:14 *3666:A0 0.00036315
84 *294:14 *359:87 2.06341e-05
85 *297:10 *359:87 0.000139352
86 *314:10 *359:125 6.3614e-05
87 *337:10 *359:45 1.99429e-05
*RES
1 *3324:Y *359:8 42.0186 
2 *359:8 *359:16 40.8514 
3 *359:16 *3361:A 23 
4 *359:8 *359:31 36.6464 
5 *359:31 *3664:A0 23 
6 *3664:A0 *359:43 24.5743 
7 *359:43 *359:45 13.485 
8 *359:45 *359:57 40.8129 
9 *359:57 *359:61 10.5229 
10 *359:61 *359:67 35.7793 
11 *359:67 *3666:A0 27.4329 
12 *359:67 *3672:A0 23 
13 *359:67 *359:87 24.8807 
14 *359:87 *3668:A0 38 
15 *359:87 *3670:A0 49.31 
16 *359:61 *3674:A0 23 
17 *359:45 *3676:A0 23 
18 *359:43 *359:125 35.075 
19 *359:125 *3678:A0 23 
*END

*D_NET *360 0.0165871
*CONN
*I *4149:A I *D sky130_fd_sc_hd__clkdlybuf4s25_1
*I *3431:A I *D sky130_fd_sc_hd__and2_2
*I *3442:B1 I *D sky130_fd_sc_hd__o21a_2
*I *3435:B1 I *D sky130_fd_sc_hd__a2bb2o_2
*I *3428:A1 I *D sky130_fd_sc_hd__a21o_2
*I *3325:Y O *D sky130_fd_sc_hd__inv_2
*CAP
1 *4149:A 0
2 *3431:A 0
3 *3442:B1 0.00039634
4 *3435:B1 0.000276979
5 *3428:A1 0
6 *3325:Y 0.000242252
7 *360:82 0.000517971
8 *360:73 0.000775588
9 *360:61 0.00167984
10 *360:33 0.00147861
11 *360:22 0.000233907
12 *360:14 0.00257291
13 *360:12 0.00191999
14 *360:10 0.000242252
15 *3435:B1 *3435:B2 5.56356e-05
16 *3435:B1 *3438:B1 6.26408e-05
17 *3435:B1 *3438:B2 6.687e-05
18 *3435:B1 *371:10 9.77405e-05
19 *3442:B1 *3438:A2 0.000138066
20 *3442:B1 *3438:B1 7.77758e-05
21 *360:10 *883:85 5.56411e-05
22 *360:10 *911:24 6.25245e-05
23 *360:10 *1089:20 0
24 *360:14 *3428:B1 1.84959e-05
25 *360:14 *3625:B 0.000128391
26 *360:14 *3846:B1 0.000120857
27 *360:14 *4099:A 0.000331632
28 *360:14 *627:8 5.41288e-05
29 *360:14 *645:59 0.000116564
30 *360:14 *658:64 0.000441978
31 *360:14 *1089:34 9.67874e-05
32 *360:22 *3846:B1 0.000128401
33 *360:22 *645:42 0
34 *360:22 *894:111 5.09885e-05
35 *360:33 *425:10 7.28526e-05
36 *360:33 *627:55 9.18611e-05
37 *360:33 *627:59 7.66188e-05
38 *360:33 *689:12 0
39 *360:33 *713:20 0
40 *360:33 *763:12 0
41 *360:33 *878:53 0.000159793
42 *360:33 *878:124 0.000182863
43 *360:33 *892:58 6.51429e-05
44 *360:33 *892:117 0.000101657
45 *360:33 *894:111 0
46 *360:33 *1030:42 0.000429621
47 *360:61 *658:60 0.000306338
48 *360:61 *658:64 0.00021477
49 *360:73 *3431:B 7.99385e-05
50 *360:73 *3783:A1 2.02517e-05
51 *360:73 *423:10 6.55012e-05
52 *360:73 *423:28 0.000138066
53 *360:73 *611:102 0
54 *360:73 *611:113 0
55 *360:73 *611:132 0
56 *360:73 *658:56 6.16439e-05
57 *360:73 *658:105 0
58 *360:73 *658:114 2.46345e-05
59 *360:73 *708:10 2.60152e-05
60 *360:73 *997:10 0
61 *360:73 *1096:16 0
62 *360:73 *1116:29 8.62783e-05
63 *360:82 *628:105 1.37349e-05
64 *360:82 *658:114 0.00116246
65 *360:82 *1096:8 0
66 *360:82 *1096:16 0
67 *360:82 *1115:8 0.000106527
68 *360:82 *1116:29 0.00049338
69 *3932:D *360:73 0
70 *91:10 *360:33 0
71 *100:10 *360:22 1.01436e-05
72 *111:23 *360:73 0.000143446
73 *354:54 *3435:B1 1.17869e-05
*RES
1 *3325:Y *360:10 42.06 
2 *360:10 *360:12 15 
3 *360:12 *360:14 23.49 
4 *360:14 *360:22 34.0807 
5 *360:22 *3428:A1 23 
6 *360:14 *360:33 48.1043 
7 *360:33 *3435:B1 27.9507 
8 *360:33 *3442:B1 30.0014 
9 *360:12 *360:61 20.8621 
10 *360:61 *360:73 31.1364 
11 *360:73 *3431:A 23 
12 *360:61 *360:82 30.9914 
13 *360:82 *4149:A 23 
*END

*D_NET *361 0.00213275
*CONN
*I *3524:A2 I *D sky130_fd_sc_hd__a31o_2
*I *3328:Y O *D sky130_fd_sc_hd__inv_2
*CAP
1 *3524:A2 0.000160496
2 *3328:Y 0.000328629
3 *361:10 0.000489125
4 *3524:A2 *3459:A1 0.000100062
5 *361:10 *3445:A 6.33771e-05
6 *361:10 *3952:RESET_B 3.53794e-05
7 *361:10 *3972:CLK 6.71223e-05
8 *361:10 *436:10 0.000113389
9 *361:10 *618:134 0.000114436
10 *361:10 *634:42 5.82853e-05
11 *361:10 *948:14 0.000101708
12 *361:10 *948:20 0.000285197
13 *361:10 *1002:20 5.58003e-05
14 *361:10 *1002:45 0.000137898
15 *113:8 *3524:A2 2.18409e-05
*RES
1 *3328:Y *361:10 46.8657 
2 *361:10 *3524:A2 40.6929 
*END

*D_NET *362 0.00364945
*CONN
*I *3451:A1 I *D sky130_fd_sc_hd__a22o_2
*I *3468:A1 I *D sky130_fd_sc_hd__a22o_2
*I *3470:A1 I *D sky130_fd_sc_hd__a22o_2
*I *3329:Y O *D sky130_fd_sc_hd__inv_2
*CAP
1 *3451:A1 0.00039415
2 *3468:A1 0
3 *3470:A1 0.000370803
4 *3329:Y 0
5 *362:25 0.000737714
6 *362:4 0.000714368
7 *3451:A1 *3451:A2 0.000119082
8 *3451:A1 *3468:B2 0.00026457
9 *3451:A1 *637:6 0.000137658
10 *3451:A1 *638:59 5.3304e-05
11 *3451:A1 *978:18 1.48719e-05
12 *3470:A1 *939:60 7.27694e-06
13 *362:25 *3329:A 8.92192e-05
14 *362:25 *3468:A2 7.1072e-05
15 *362:25 *370:14 3.33763e-05
16 *362:25 *637:6 6.28997e-05
17 *362:25 *646:43 0
18 *362:25 *880:10 1.01436e-05
19 *362:25 *905:16 8.16356e-05
20 *362:25 *960:12 0.000167443
21 *362:25 *960:27 6.69016e-05
22 *4256:A *3451:A1 2.76351e-05
23 *76:10 *3470:A1 3.02378e-05
24 *76:10 *362:25 1.56662e-06
25 *78:8 *3451:A1 5.508e-05
26 *78:8 *362:25 0.000138444
*RES
1 *3329:Y *362:4 23 
2 *362:4 *3470:A1 27.93 
3 *362:4 *362:25 38.845 
4 *362:25 *3468:A1 23 
5 *362:25 *3451:A1 31.41 
*END

*D_NET *363 0.00779012
*CONN
*I *3684:B2 I *D sky130_fd_sc_hd__a22o_2
*I *3457:A1 I *D sky130_fd_sc_hd__a31o_2
*I *3403:B I *D sky130_fd_sc_hd__and2_2
*I *3330:Y O *D sky130_fd_sc_hd__inv_2
*CAP
1 *3684:B2 0
2 *3457:A1 0
3 *3403:B 0.00017399
4 *3330:Y 0.00017399
5 *363:49 0.000680101
6 *363:32 0.00200687
7 *363:18 0.00268697
8 *3403:B *3403:A 0.000117047
9 *3403:B *615:121 3.0918e-05
10 *363:32 *3949:CLK 0
11 *363:32 *426:26 0.000189578
12 *363:32 *428:30 0.000124455
13 *363:32 *430:10 4.21594e-06
14 *363:32 *615:86 2.93747e-05
15 *363:32 *618:68 0
16 *363:32 *691:14 2.05503e-05
17 *363:32 *949:38 2.26406e-05
18 *363:49 *3683:A_N 5.3304e-05
19 *363:49 *560:10 5.3304e-05
20 *363:49 *560:16 0.000246748
21 *363:49 *605:20 0.000583759
22 *363:49 *615:86 2.32101e-05
23 *363:49 *615:121 0.000315965
24 *363:49 *802:10 0.000167443
25 *363:49 *981:84 8.56839e-05
26 *109:28 *363:32 0
*RES
1 *3330:Y *3403:B 48.9 
2 *3330:Y *363:18 23 
3 *363:18 *363:32 39.1638 
4 *363:32 *3457:A1 38 
5 *363:18 *363:49 45.3286 
6 *363:49 *3684:B2 23 
*END

*D_NET *364 0.00606025
*CONN
*I *3679:A2 I *D sky130_fd_sc_hd__a22o_2
*I *3462:A2 I *D sky130_fd_sc_hd__a22o_2
*I *3453:A2 I *D sky130_fd_sc_hd__a22o_2
*I *3459:A2 I *D sky130_fd_sc_hd__a21o_2
*I *3331:Y O *D sky130_fd_sc_hd__inv_2
*CAP
1 *3679:A2 9.34485e-05
2 *3462:A2 0.00028997
3 *3453:A2 0
4 *3459:A2 0.000466444
5 *3331:Y 0.000463059
6 *364:45 0.000723238
7 *364:31 0.000181205
8 *364:12 0.00087989
9 *364:8 0.000355481
10 *3459:A2 *3459:A1 5.50049e-05
11 *3459:A2 *1004:18 0.000178517
12 *3462:A2 *3462:B2 3.91386e-05
13 *3462:A2 *3525:A0 0
14 *3462:A2 *905:140 0.000487434
15 *3462:A2 *949:14 8.72173e-05
16 *3679:A2 *905:140 0.000163099
17 *3679:A2 *949:14 0.000155187
18 *364:8 *3458:B 4.6318e-06
19 *364:8 *3525:A0 9.40162e-05
20 *364:8 *948:12 0.000299187
21 *364:12 *477:8 0.000139357
22 *364:31 *3453:A1 3.04324e-05
23 *364:31 *3524:B1 0
24 *364:31 *3972:CLK 6.01125e-05
25 *364:31 *426:26 4.35681e-06
26 *364:31 *431:10 0
27 *364:31 *432:10 3.21333e-05
28 *364:31 *618:134 3.41998e-06
29 *364:31 *875:18 0.000114083
30 *364:31 *1004:12 3.72639e-05
31 *364:45 *3972:RESET_B 2.65879e-05
32 *364:45 *936:41 0.000190816
33 *3459:B1 *3459:A2 0.000247338
34 *81:8 *3462:A2 1.44546e-05
35 *113:8 *3459:A2 2.64616e-05
36 *113:8 *3462:A2 0
37 *113:8 *364:12 5.46873e-05
38 *113:23 *364:31 6.25829e-05
*RES
1 *3331:Y *364:8 42.0186 
2 *364:8 *364:12 18.0036 
3 *364:12 *3459:A2 31.0371 
4 *364:12 *364:31 34.0186 
5 *364:31 *3453:A2 23 
6 *3331:Y *364:45 42.9093 
7 *364:45 *3462:A2 45.628 
8 *364:45 *3679:A2 40.6411 
*END

*D_NET *365 0.0177734
*CONN
*I *3455:A1 I *D sky130_fd_sc_hd__a21o_2
*I *3686:A1 I *D sky130_fd_sc_hd__a21o_2
*I *3363:A2 I *D sky130_fd_sc_hd__a31o_2
*I *3332:Y O *D sky130_fd_sc_hd__inv_2
*CAP
1 *3455:A1 0
2 *3686:A1 5.07648e-05
3 *3363:A2 7.58837e-06
4 *3332:Y 0.000110559
5 *365:30 0.00604656
6 *365:16 0.00780887
7 *365:6 0.00182969
8 *3363:A2 *3363:A1 2.13216e-05
9 *3363:A2 *1051:30 8.29936e-06
10 *3686:A1 *696:14 4.67998e-05
11 *3686:A1 *907:65 5.3304e-05
12 *3686:A1 *1067:42 4.45778e-05
13 *365:6 *3455:A2 0.000143655
14 *365:6 *651:34 1.76557e-05
15 *365:16 *4154:A 5.42887e-05
16 *365:16 *616:46 5.97296e-05
17 *365:16 *651:34 0.000185145
18 *365:16 *766:14 2.98653e-05
19 *365:16 *902:62 4.20862e-05
20 *365:16 *958:18 6.97747e-05
21 *365:30 *3363:A3 2.50227e-05
22 *365:30 *626:21 2.19236e-05
23 *365:30 *880:78 0.000169939
24 *365:30 *894:111 0.000113929
25 *365:30 *1067:8 0.000113006
26 *120:27 *365:16 0.000441978
27 *236:10 *365:16 3.52383e-05
28 *305:6 *3686:A1 2.93747e-05
29 *354:10 *365:30 0.000192501
*RES
1 *3332:Y *365:6 25.0507 
2 *365:6 *365:16 44.8374 
3 *365:16 *365:30 37.3889 
4 *365:30 *3363:A2 38.2486 
5 *365:16 *3686:A1 47.2946 
6 *365:6 *3455:A1 23 
*END

*D_NET *366 0.000227565
*CONN
*I *3436:B2 I *D sky130_fd_sc_hd__a22o_2
*I *3333:Y O *D sky130_fd_sc_hd__inv_2
*CAP
1 *3436:B2 3.44013e-05
2 *3333:Y 3.44013e-05
3 *3436:B2 *3436:A1 9.75779e-05
4 *3436:B2 *3436:A2 5.50106e-05
5 *3436:B2 *1051:56 6.17437e-06
*RES
1 *3333:Y *3436:B2 47.0979 
*END

*D_NET *367 0.00413551
*CONN
*I *3526:A2 I *D sky130_fd_sc_hd__o21ai_2
*I *3363:A3 I *D sky130_fd_sc_hd__a31o_2
*I *3527:C1 I *D sky130_fd_sc_hd__o211a_2
*I *3334:Y O *D sky130_fd_sc_hd__inv_2
*CAP
1 *3526:A2 6.88649e-05
2 *3363:A3 0.000164499
3 *3527:C1 0.000102313
4 *3334:Y 0.0001581
5 *367:20 0.000872109
6 *367:12 0.000674163
7 *367:10 0.0001581
8 *3363:A3 *3363:A1 5.50106e-05
9 *3363:A3 *3774:A1 4.21594e-06
10 *3363:A3 *626:23 0
11 *3363:A3 *644:55 0
12 *3363:A3 *645:101 1.83667e-05
13 *3363:A3 *1030:71 0.000136746
14 *3363:A3 *1051:30 0
15 *3526:A2 *1030:71 4.67488e-05
16 *3527:C1 *3527:A1 1.5769e-05
17 *3527:C1 *3527:A2 1.0177e-05
18 *3527:C1 *478:10 5.50106e-05
19 *3527:C1 *645:101 4.96264e-05
20 *3527:C1 *1030:71 0.000113153
21 *367:10 *3437:A2 2.93747e-05
22 *367:10 *753:12 0.000352547
23 *367:10 *763:12 0.000354778
24 *367:20 *3786:B1 2.91168e-05
25 *367:20 *645:101 0.000232085
26 *367:20 *878:124 9.67842e-05
27 *367:20 *892:117 1.21972e-05
28 *367:20 *1030:71 0.000110832
29 *335:10 *3363:A3 0.000189804
30 *365:30 *3363:A3 2.50227e-05
*RES
1 *3334:Y *367:10 43.3443 
2 *367:10 *367:12 15 
3 *367:12 *367:20 24.2386 
4 *367:20 *3527:C1 40.6721 
5 *367:20 *3363:A3 42.64 
6 *367:12 *3526:A2 24.0979 
*END

*D_NET *368 0.00224855
*CONN
*I *3432:A2 I *D sky130_fd_sc_hd__a21o_2
*I *3335:Y O *D sky130_fd_sc_hd__inv_2
*CAP
1 *3432:A2 0.000115024
2 *3335:Y 0.000474506
3 *368:8 0.00058953
4 *3432:A2 *3427:A1 0.000193388
5 *3432:A2 *708:10 1.14452e-05
6 *368:8 *3335:A 0.00014255
7 *368:8 *3399:A 2.4754e-05
8 *368:8 *3400:A 0.000228903
9 *368:8 *711:6 5.50106e-05
10 *368:8 *898:91 0.000141052
11 *3932:D *3432:A2 0
12 *74:8 *368:8 0.000272383
*RES
1 *3335:Y *368:8 49.1029 
2 *368:8 *3432:A2 40.61 
*END

*D_NET *369 0.00128748
*CONN
*I *3433:A2 I *D sky130_fd_sc_hd__a22o_2
*I *3336:Y O *D sky130_fd_sc_hd__inv_2
*CAP
1 *3433:A2 4.87649e-05
2 *3336:Y 0.000236017
3 *369:10 0.000284782
4 *3433:A2 *3433:A1 0.000155645
5 *3433:A2 *1093:32 0.000157352
6 *369:10 *911:42 0.000226306
7 *369:10 *996:8 3.98859e-05
8 *96:10 *369:10 0.000138727
*RES
1 *3336:Y *369:10 42.4329 
2 *369:10 *3433:A2 39.7814 
*END

*D_NET *370 0.00402899
*CONN
*I *3430:B2 I *D sky130_fd_sc_hd__a22o_2
*I *3469:A1 I *D sky130_fd_sc_hd__a21o_2
*I *3337:Y O *D sky130_fd_sc_hd__inv_2
*CAP
1 *3430:B2 0.00043777
2 *3469:A1 0
3 *3337:Y 4.99221e-05
4 *370:14 0.000779294
5 *370:8 0.00126699
6 *3430:B2 *3883:SET_B 2.02517e-05
7 *3430:B2 *643:6 8.11972e-05
8 *3430:B2 *686:10 2.29192e-05
9 *3430:B2 *686:18 2.29192e-05
10 *3430:B2 *880:38 0
11 *3430:B2 *911:48 9.84794e-05
12 *3430:B2 *911:110 0
13 *370:14 *621:97 0
14 *370:14 *646:43 0
15 *370:14 *741:8 0
16 *370:14 *880:10 5.16344e-05
17 *370:14 *880:38 0
18 *370:14 *939:60 0
19 *370:14 *960:12 0.000131304
20 *3998:RESET_B *3430:B2 0.000326992
21 *3998:RESET_B *370:14 0.00051615
22 *76:10 *370:14 0.000136486
23 *359:16 *370:8 5.3304e-05
24 *362:25 *370:14 3.33763e-05
*RES
1 *3337:Y *370:8 38.6214 
2 *370:8 *370:14 30.4736 
3 *370:14 *3469:A1 23 
4 *370:8 *3430:B2 47.3007 
*END

*D_NET *371 0.000611791
*CONN
*I *3435:A1_N I *D sky130_fd_sc_hd__a2bb2o_2
*I *3338:Y O *D sky130_fd_sc_hd__inv_2
*CAP
1 *3435:A1_N 0
2 *3338:Y 0.000218734
3 *371:10 0.000218734
4 *371:10 *3435:B2 2.32004e-05
5 *371:10 *3438:B2 5.3381e-05
6 *3435:B1 *371:10 9.77405e-05
*RES
1 *3338:Y *371:10 27.2257 
2 *371:10 *3435:A1_N 23 
*END

*D_NET *372 0.000420145
*CONN
*I *3450:A2 I *D sky130_fd_sc_hd__a21o_2
*I *3339:Y O *D sky130_fd_sc_hd__inv_2
*CAP
1 *3450:A2 5.66034e-05
2 *3339:Y 9.09095e-05
3 *372:8 0.000147513
4 *3450:A2 *3450:A1 2.93747e-05
5 *372:8 *617:93 2.76611e-06
6 *372:8 *933:20 8.15327e-05
7 *372:8 *936:29 0
8 *3450:B1 *372:8 1.14452e-05
*RES
1 *3339:Y *372:8 40.2579 
2 *372:8 *3450:A2 39.0979 
*END

*D_NET *373 0.00177704
*CONN
*I *3461:A2 I *D sky130_fd_sc_hd__a221o_2
*I *3340:Y O *D sky130_fd_sc_hd__inv_2
*CAP
1 *3461:A2 1.59411e-05
2 *3340:Y 0.000311563
3 *373:10 0.000327504
4 *3461:A2 *3461:A1 3.32677e-05
5 *373:10 *3454:A1 6.33511e-05
6 *373:10 *3950:RESET_B 0.000233687
7 *373:10 *752:21 6.02277e-06
8 *373:10 *1003:42 3.47781e-05
9 *373:10 *1003:53 0.000310517
10 *373:10 *1003:76 0.000301678
11 *373:10 *1005:10 0.000138727
*RES
1 *3340:Y *373:10 46.6379 
2 *373:10 *3461:A2 38.3832 
*END

*D_NET *374 0.00334619
*CONN
*I *3467:B2 I *D sky130_fd_sc_hd__a22o_2
*I *3454:A1 I *D sky130_fd_sc_hd__o21a_2
*I *3341:Y O *D sky130_fd_sc_hd__inv_2
*CAP
1 *3467:B2 6.17727e-05
2 *3454:A1 0.000328696
3 *3341:Y 0.000581465
4 *374:32 0.000261637
5 *374:12 0.000710297
6 *3454:A1 *433:10 0
7 *3454:A1 *752:21 0.000113153
8 *3454:A1 *778:8 1.22906e-05
9 *3454:A1 *989:26 0
10 *3454:A1 *990:18 0.000302348
11 *3454:A1 *1001:43 4.21594e-06
12 *3454:A1 *1001:54 5.26101e-05
13 *3454:A1 *1001:62 0
14 *3454:A1 *1003:18 1.75295e-05
15 *3454:A1 *1003:42 3.16195e-05
16 *3467:B2 *4126:A 0.00014196
17 *374:12 *3945:CLK 1.41129e-05
18 *374:12 *616:23 0.000118041
19 *374:12 *616:58 9.45591e-05
20 *374:12 *990:35 5.50106e-05
21 *374:32 *3456:A1 0
22 *374:32 *3680:B2 0
23 *374:32 *837:10 0
24 *374:32 *838:12 0.000193379
25 *111:10 *374:32 0.000188142
26 *373:10 *3454:A1 6.33511e-05
*RES
1 *3341:Y *374:12 44.5043 
2 *374:12 *3454:A1 46.2132 
3 *3341:Y *374:32 43.075 
4 *374:32 *3467:B2 39.5743 
*END

*D_NET *375 0.00138411
*CONN
*I *3456:B2 I *D sky130_fd_sc_hd__a22o_2
*I *3523:A1 I *D sky130_fd_sc_hd__mux2_1
*I *3342:Y O *D sky130_fd_sc_hd__inv_2
*CAP
1 *3456:B2 0.000419673
2 *3523:A1 0
3 *3342:Y 0.000146931
4 *375:6 0.000566604
5 *3456:B2 *3456:B1 3.81946e-05
6 *3456:B2 *3523:S 5.61579e-05
7 *3456:B2 *752:6 0.00013352
8 *375:6 *3523:S 2.30292e-05
*RES
1 *3342:Y *375:6 25.5271 
2 *375:6 *3523:A1 23 
3 *375:6 *3456:B2 30.3121 
*END

*D_NET *376 0.000744908
*CONN
*I *3471:A2 I *D sky130_fd_sc_hd__a21o_2
*I *3343:Y O *D sky130_fd_sc_hd__inv_2
*CAP
1 *3471:A2 0
2 *3343:Y 0.000244287
3 *376:10 0.000244287
4 *376:10 *621:10 0.000114375
5 *75:10 *376:10 0.00014196
*RES
1 *3343:Y *376:10 27.5986 
2 *376:10 *3471:A2 23 
*END

*D_NET *377 0.00178237
*CONN
*I *3535:A1 I *D sky130_fd_sc_hd__a21oi_2
*I *3344:Y O *D sky130_fd_sc_hd__inv_2
*CAP
1 *3535:A1 0.000517367
2 *3344:Y 5.84848e-05
3 *377:8 0.000575852
4 *3535:A1 *3531:A 5.50049e-05
5 *3535:A1 *3535:A2 3.46255e-05
6 *3535:A1 *1071:53 6.98147e-05
7 *3535:A1 *1071:64 0.000119477
8 *377:8 *881:137 0.000141888
9 *377:8 *1079:10 6.79006e-05
10 *134:10 *3535:A1 0.000141954
*RES
1 *3344:Y *377:8 39.9057 
2 *377:8 *3535:A1 47.6943 
*END

*D_NET *378 0.00147061
*CONN
*I *3543:A1 I *D sky130_fd_sc_hd__a211oi_2
*I *3345:Y O *D sky130_fd_sc_hd__inv_2
*CAP
1 *3543:A1 0.000405065
2 *3345:Y 0.000118139
3 *378:10 0.000523205
4 *3543:A1 *902:38 1.91431e-05
5 *378:10 *3547:B 7.53384e-06
6 *378:10 *1082:10 2.29192e-05
7 *378:10 *1082:16 3.22879e-05
8 *137:12 *3543:A1 0.00034232
*RES
1 *3345:Y *378:10 39.8229 
2 *378:10 *3543:A1 44.235 
*END

*D_NET *379 0.000307662
*CONN
*I *3487:A2 I *D sky130_fd_sc_hd__a21o_2
*I *3346:Y O *D sky130_fd_sc_hd__inv_2
*CAP
1 *3487:A2 6.67868e-05
2 *3346:Y 6.67868e-05
3 *3487:A2 *3540:B 9.5877e-05
4 *3487:A2 *3541:A 5.50106e-05
5 *3487:A2 *656:109 2.32004e-05
*RES
1 *3346:Y *3487:A2 47.5743 
*END

*D_NET *380 0.000994356
*CONN
*I *3549:A1 I *D sky130_fd_sc_hd__a21oi_2
*I *3347:Y O *D sky130_fd_sc_hd__inv_2
*CAP
1 *3549:A1 0
2 *3347:Y 0.000337626
3 *380:10 0.000337626
4 *380:10 *488:10 0.000181412
5 *380:10 *612:68 7.15126e-05
6 *380:10 *612:94 2.02872e-05
7 *380:10 *896:146 0
8 *139:8 *380:10 4.58924e-05
*RES
1 *3347:Y *380:10 44.7736 
2 *380:10 *3549:A1 38 
*END

*D_NET *381 0.00256253
*CONN
*I *3567:A1 I *D sky130_fd_sc_hd__a211oi_2
*I *3348:Y O *D sky130_fd_sc_hd__inv_2
*CAP
1 *3567:A1 0.000207349
2 *3348:Y 0.000495582
3 *381:10 0.000702931
4 *3567:A1 *3567:C1 6.47194e-05
5 *3567:A1 *501:25 9.84851e-05
6 *381:10 *3348:A 5.50106e-05
7 *381:10 *4326:A 0.000286371
8 *381:10 *881:103 1.40958e-05
9 *381:10 *881:121 0.000190426
10 *381:10 *1074:14 5.50049e-05
11 *381:10 *1075:12 0.000277714
12 *4011:D *381:10 0.000114846
*RES
1 *3348:Y *381:10 49.89 
2 *381:10 *3567:A1 41.5007 
*END

*D_NET *382 0.00188834
*CONN
*I *3579:A1 I *D sky130_fd_sc_hd__a21oi_2
*I *3349:Y O *D sky130_fd_sc_hd__inv_2
*CAP
1 *3579:A1 3.4291e-05
2 *3349:Y 0.000678702
3 *382:10 0.000712993
4 *3579:A1 *662:33 5.41288e-05
5 *382:10 *3349:A 3.17516e-05
6 *382:10 *4023:CLK 0.000153145
7 *382:10 *4024:CLK 0
8 *382:10 *510:10 4.6318e-06
9 *382:10 *662:80 2.04774e-05
10 *382:10 *901:40 3.80747e-05
11 *382:10 *1105:6 5.3304e-05
12 *153:10 *3579:A1 5.12254e-05
13 *153:10 *382:10 5.56203e-05
*RES
1 *3349:Y *382:10 48.5021 
2 *382:10 *3579:A1 39.0979 
*END

*D_NET *383 0.000947537
*CONN
*I *3497:A2 I *D sky130_fd_sc_hd__a211o_2
*I *3350:Y O *D sky130_fd_sc_hd__inv_2
*CAP
1 *3497:A2 0
2 *3350:Y 0.000321604
3 *383:10 0.000321604
4 *383:10 *3499:A_N 5.41288e-05
5 *383:10 *3499:B 2.28331e-05
6 *383:10 *1107:10 5.86225e-05
7 *244:8 *383:10 0.000168744
*RES
1 *3350:Y *383:10 44.2971 
2 *383:10 *3497:A2 38 
*END

*D_NET *384 0.00122917
*CONN
*I *3587:A1 I *D sky130_fd_sc_hd__a211oi_2
*I *3351:Y O *D sky130_fd_sc_hd__inv_2
*CAP
1 *3587:A1 0
2 *3351:Y 0.0003644
3 *384:10 0.0003644
4 *384:10 *511:46 0.000117858
5 *384:10 *513:14 0
6 *384:10 *901:30 0.000184527
7 *384:10 *1107:34 0.000163352
8 *384:10 *1107:51 0
9 *384:10 *1109:46 3.46344e-05
*RES
1 *3351:Y *384:10 45.1257 
2 *384:10 *3587:A1 38 
*END

*D_NET *385 0.00036047
*CONN
*I *3593:A1 I *D sky130_fd_sc_hd__a21oi_2
*I *3352:Y O *D sky130_fd_sc_hd__inv_2
*CAP
1 *3593:A1 0.00011206
2 *3352:Y 0.00011206
3 *3593:A1 *3352:A 0.00013635
*RES
1 *3352:Y *3593:A1 48.5479 
*END

*D_NET *386 0.000304297
*CONN
*I *3611:A1 I *D sky130_fd_sc_hd__a211oi_2
*I *3353:Y O *D sky130_fd_sc_hd__inv_2
*CAP
1 *3611:A1 0.000152148
2 *3353:Y 0.000152148
*RES
1 *3353:Y *3611:A1 48.5271 
*END

*D_NET *387 0.00428078
*CONN
*I *3510:B1 I *D sky130_fd_sc_hd__a221o_2
*I *3509:B1 I *D sky130_fd_sc_hd__o221a_2
*I *3354:Y O *D sky130_fd_sc_hd__inv_2
*CAP
1 *3510:B1 0
2 *3509:B1 0.000137877
3 *3354:Y 0.000466118
4 *387:35 0.000549008
5 *387:14 0.001153
6 *3509:B1 *3512:C1 8.49088e-05
7 *3509:B1 *474:10 0.000238095
8 *387:14 *3803:A1 5.92493e-05
9 *387:14 *3803:A2 0.000141052
10 *387:14 *3803:B1 9.84794e-05
11 *387:14 *646:63 6.22705e-05
12 *387:14 *876:87 0
13 *387:14 *1057:22 4.6318e-06
14 *387:14 *1059:10 0
15 *387:35 *3510:B2 3.02431e-05
16 *387:35 *3510:C1 0.000180218
17 *387:35 *469:8 3.70094e-05
18 *387:35 *646:63 0.000125424
19 *387:35 *876:70 0.000192077
20 *387:35 *876:87 0
21 *387:35 *890:79 0
22 *387:35 *1056:6 5.70419e-05
23 *387:35 *1057:10 0.000219882
24 *387:35 *1057:22 7.13673e-05
25 *3512:A1 *3509:B1 0.000178517
26 *214:10 *387:14 0.000194309
27 *355:30 *387:14 0
*RES
1 *3354:Y *387:14 48.2536 
2 *387:14 *3509:B1 42.0238 
3 *387:14 *387:35 28.05 
4 *387:35 *3510:B1 23 
*END

*D_NET *388 0.00106865
*CONN
*I *4148:A I *D sky130_fd_sc_hd__clkdlybuf4s25_1
*I *3356:Y O *D sky130_fd_sc_hd__inv_2
*CAP
1 *4148:A 0
2 *3356:Y 0.000160576
3 *388:6 0.000160576
4 *388:6 *4184:A 0.000353317
5 *388:6 *881:23 0.000394183
*RES
1 *3356:Y *388:6 27.9093 
2 *388:6 *4148:A 23 
*END

*D_NET *389 0.00243653
*CONN
*I *3564:A I *D sky130_fd_sc_hd__and3_2
*I *3530:B1 I *D sky130_fd_sc_hd__o31a_2
*I *3529:B1 I *D sky130_fd_sc_hd__o21ai_2
*I *3357:Y O *D sky130_fd_sc_hd__inv_2
*CAP
1 *3564:A 0
2 *3530:B1 0
3 *3529:B1 0
4 *3357:Y 0
5 *389:34 0.000511794
6 *389:21 0.000714783
7 *389:12 0.0003096
8 *389:4 0.000512589
9 *389:12 *3357:A 2.30292e-05
10 *389:12 *4289:A 0
11 *389:12 *454:12 0
12 *389:12 *479:10 0
13 *389:12 *612:21 0
14 *389:12 *904:57 0
15 *389:21 *3357:A 1.94693e-05
16 *389:21 *451:18 7.82647e-05
17 *389:21 *904:44 6.33627e-05
18 *389:34 *4326:A 0
19 *389:34 *451:18 0.000141954
20 *389:34 *454:12 0
21 *389:34 *457:8 0
22 *389:34 *501:25 6.07611e-06
23 *389:34 *881:121 0
24 *389:34 *904:57 0
25 *389:34 *1074:14 5.561e-05
26 *3529:A2 *389:12 0
27 *129:8 *389:34 0
*RES
1 *3357:Y *389:4 23 
2 *389:4 *389:12 35.7171 
3 *389:12 *3529:B1 23 
4 *389:4 *389:21 4.45357 
5 *389:21 *3530:B1 23 
6 *389:21 *389:34 39.4664 
7 *389:34 *3564:A 23 
*END

*D_NET *390 0.00212324
*CONN
*I *3574:B1 I *D sky130_fd_sc_hd__o31a_2
*I *3573:B1 I *D sky130_fd_sc_hd__o21ai_2
*I *3608:A I *D sky130_fd_sc_hd__and3_2
*I *3358:Y O *D sky130_fd_sc_hd__inv_2
*CAP
1 *3574:B1 0
2 *3573:B1 0.00017982
3 *3608:A 0
4 *3358:Y 2.96003e-05
5 *390:19 0.000498829
6 *390:6 0.000348609
7 *390:6 *887:67 5.25848e-05
8 *390:6 *901:57 9.75779e-05
9 *390:19 *3608:C 4.6318e-06
10 *390:19 *4283:A 0.000188916
11 *390:19 *661:65 0
12 *390:19 *887:67 2.93747e-05
13 *390:19 *901:57 4.17736e-05
14 *390:19 *903:12 8.22585e-05
15 *390:19 *903:64 0.000349386
16 *390:19 *1097:10 0.000219882
*RES
1 *3358:Y *390:6 24.0979 
2 *390:6 *3608:A 23 
3 *390:6 *390:19 38.5136 
4 *390:19 *3573:B1 26.0036 
5 *390:19 *3574:B1 23 
*END

*D_NET *391 0.0029464
*CONN
*I *3383:A2 I *D sky130_fd_sc_hd__o21ai_2
*I *3386:A_N I *D sky130_fd_sc_hd__and3b_2
*I *3364:X O *D sky130_fd_sc_hd__and3_2
*CAP
1 *3383:A2 0.000392911
2 *3386:A_N 2.32701e-05
3 *3364:X 0.000455199
4 *391:10 0.00087138
5 *3383:A2 *3383:A1 4.83941e-05
6 *3383:A2 *3508:A 0
7 *3383:A2 *396:40 9.94675e-05
8 *3383:A2 *468:16 0
9 *3383:A2 *470:8 0
10 *3383:A2 *1043:35 9.84851e-05
11 *3386:A_N *3386:C 5.3304e-05
12 *3386:A_N *1050:16 5.3304e-05
13 *391:10 *3364:A 0.000182826
14 *391:10 *3364:C 4.66047e-05
15 *391:10 *3667:B 2.93747e-05
16 *391:10 *396:40 0.000110922
17 *391:10 *641:54 5.61255e-06
18 *391:10 *1041:23 8.83847e-05
19 *391:10 *1041:73 1.32314e-05
20 *178:8 *3383:A2 0.000265051
21 *178:8 *391:10 0.000108681
*RES
1 *3364:X *391:10 45.4157 
2 *391:10 *3386:A_N 38.6214 
3 *391:10 *3383:A2 46.3271 
*END

*D_NET *392 0.00539112
*CONN
*I *3381:A2 I *D sky130_fd_sc_hd__o21ai_2
*I *3367:D I *D sky130_fd_sc_hd__and4_2
*I *3379:A2 I *D sky130_fd_sc_hd__a21o_2
*I *3366:C I *D sky130_fd_sc_hd__and3_2
*I *3382:A2 I *D sky130_fd_sc_hd__a21oi_2
*I *3384:A I *D sky130_fd_sc_hd__nor2_2
*I *3365:X O *D sky130_fd_sc_hd__and4_2
*CAP
1 *3381:A2 3.71759e-05
2 *3367:D 6.37237e-05
3 *3379:A2 4.66855e-06
4 *3366:C 0.000350831
5 *3382:A2 4.78478e-05
6 *3384:A 0
7 *3365:X 0.000219216
8 *392:50 0.000467877
9 *392:44 0.000318168
10 *392:29 0.000435068
11 *392:25 0.000547316
12 *392:10 0.000484203
13 *3366:C *3366:A 0
14 *3366:C *3367:A 7.43025e-06
15 *3366:C *3379:A1 2.96466e-05
16 *3366:C *402:10 5.50106e-05
17 *3366:C *1045:16 2.64616e-05
18 *3366:C *1045:18 0.000204225
19 *3367:D *1044:49 2.02872e-05
20 *3381:A2 *3997:CLK 9.84851e-05
21 *3382:A2 *735:10 3.79076e-05
22 *3382:A2 *1048:35 2.87134e-05
23 *392:10 *3918:CLK 2.11887e-05
24 *392:10 *396:24 4.6318e-06
25 *392:10 *625:92 8.48131e-05
26 *392:10 *1042:25 3.22879e-05
27 *392:25 *3997:CLK 0.000169595
28 *392:25 *396:24 0.000202805
29 *392:25 *625:92 1.32314e-05
30 *392:29 *396:87 0
31 *392:29 *403:8 6.68004e-05
32 *392:29 *1044:43 1.01436e-05
33 *392:44 *3379:A1 1.20483e-05
34 *392:44 *1044:43 0.000218962
35 *392:44 *1044:49 1.14154e-05
36 *392:50 *3379:A1 5.15488e-05
37 *392:50 *1044:49 2.18409e-05
38 *11:10 *392:10 0.00018659
39 *11:10 *392:25 0.00022744
40 *11:10 *392:29 0.000240853
41 *11:10 *392:44 0.000106558
42 *179:10 *392:29 0
43 *327:14 *392:10 1.01436e-05
44 *329:8 *392:29 7.461e-05
45 *355:6 *3382:A2 0.000139352
*RES
1 *3365:X *392:10 43.3443 
2 *392:10 *3384:A 38 
3 *392:10 *392:25 22.975 
4 *392:25 *392:29 21.1314 
5 *392:29 *3382:A2 39.5743 
6 *392:29 *392:44 18.4593 
7 *392:44 *392:50 2.21643 
8 *392:50 *3366:C 28.5514 
9 *392:50 *3379:A2 23.4971 
10 *392:44 *3367:D 24.0979 
11 *392:25 *3381:A2 24.0979 
*END

*D_NET *393 0.00240226
*CONN
*I *3377:A2 I *D sky130_fd_sc_hd__o21ai_2
*I *3380:A_N I *D sky130_fd_sc_hd__and3b_2
*I *3366:X O *D sky130_fd_sc_hd__and3_2
*CAP
1 *3377:A2 0
2 *3380:A_N 6.80978e-05
3 *3366:X 8.01754e-05
4 *393:27 0.000557836
5 *393:10 0.000625934
6 *393:8 8.01754e-05
7 *393:8 *1046:10 0.000141879
8 *393:27 *3380:B 3.7122e-06
9 *393:27 *3380:C 6.17437e-06
10 *393:27 *4322:A 0.000141879
11 *393:27 *396:57 2.99716e-05
12 *393:27 *396:76 0.000365269
13 *393:27 *1046:10 0.000301156
14 *3511:B2 *393:8 0
15 *355:18 *393:8 0
*RES
1 *3366:X *393:8 39.9057 
2 *393:8 *393:10 15 
3 *393:10 *3380:A_N 24.0979 
4 *393:10 *393:27 43.5264 
5 *393:27 *3377:A2 23 
*END

*D_NET *394 0.0106506
*CONN
*I *3373:A3 I *D sky130_fd_sc_hd__a311o_2
*I *3370:D I *D sky130_fd_sc_hd__nand4_2
*I *3368:A3 I *D sky130_fd_sc_hd__a31o_2
*I *3376:A2 I *D sky130_fd_sc_hd__a21oi_2
*I *3378:A I *D sky130_fd_sc_hd__nor2_2
*I *3375:A2 I *D sky130_fd_sc_hd__o21ai_2
*I *3372:A2 I *D sky130_fd_sc_hd__a21oi_2
*I *3367:X O *D sky130_fd_sc_hd__and4_2
*CAP
1 *3373:A3 0
2 *3370:D 0
3 *3368:A3 0
4 *3376:A2 0
5 *3378:A 0
6 *3375:A2 0
7 *3372:A2 5.6235e-05
8 *3367:X 0.00057192
9 *394:98 0.000315291
10 *394:85 0.000387332
11 *394:66 0.000537736
12 *394:58 0.000773319
13 *394:52 0.000637047
14 *394:44 0.000518756
15 *394:37 0.000230491
16 *394:27 0.000383714
17 *394:12 0.000736126
18 *3372:A2 *396:96 0.000138708
19 *3372:A2 *877:48 0.000138708
20 *394:12 *3768:A2 0.000438462
21 *394:12 *3768:B1 7.39261e-05
22 *394:27 *3768:A1 5.61697e-05
23 *394:27 *3768:A2 0.000223698
24 *394:27 *396:96 5.94125e-05
25 *394:27 *877:48 5.15096e-05
26 *394:27 *1049:27 5.50049e-05
27 *394:37 *3375:A1 5.90675e-06
28 *394:37 *3925:CLK 6.13092e-05
29 *394:37 *395:8 2.70469e-05
30 *394:37 *397:8 2.79064e-05
31 *394:37 *400:10 6.17437e-06
32 *394:37 *626:70 1.22906e-05
33 *394:37 *1048:69 6.16531e-05
34 *394:37 *1049:8 1.21972e-05
35 *394:37 *1049:27 0.000397725
36 *394:44 *3768:A2 0.000171296
37 *394:44 *1048:69 5.28582e-05
38 *394:44 *1049:27 9.5877e-05
39 *394:52 *3368:A2 1.24376e-05
40 *394:52 *395:8 0.000200422
41 *394:52 *397:8 0.000135547
42 *394:52 *400:10 0
43 *394:52 *827:8 5.50049e-05
44 *394:52 *1048:69 6.7177e-06
45 *394:52 *1048:75 0.000555015
46 *394:52 *1049:38 7.75329e-06
47 *394:58 *3368:A2 1.14154e-05
48 *394:58 *4320:A 9.72057e-06
49 *394:58 *827:8 0.000174728
50 *394:66 *400:10 0
51 *394:66 *644:120 0.00021143
52 *394:85 *3370:C 5.90675e-06
53 *394:85 *3768:A1 4.75937e-05
54 *394:85 *3768:A2 0.000304321
55 *394:85 *1047:14 4.19743e-05
56 *394:85 *1047:20 3.22879e-05
57 *394:85 *1048:69 5.50106e-05
58 *394:98 *3768:A1 0.000112451
59 *394:98 *3768:A2 0.000159724
60 *394:98 *3773:B1 0.000447868
61 *394:98 *893:80 6.28591e-05
62 *394:98 *893:100 1.34354e-05
63 *394:98 *1047:14 0.000230604
64 *394:98 *1047:68 1.22803e-05
65 *394:98 *1048:95 8.62783e-05
66 *179:10 *394:12 5.50049e-05
67 *332:10 *394:37 0.000191138
68 *332:10 *394:58 9.58714e-05
*RES
1 *3367:X *394:12 47.8393 
2 *394:12 *3372:A2 39.9057 
3 *394:12 *394:27 18.3764 
4 *394:27 *394:37 36.8979 
5 *394:37 *3375:A2 23 
6 *394:27 *394:44 2.05071 
7 *394:44 *394:52 39.2179 
8 *394:52 *394:58 5.42714 
9 *394:58 *394:66 40.6057 
10 *394:66 *3378:A 23 
11 *394:58 *3376:A2 23 
12 *394:52 *3368:A3 23 
13 *394:44 *394:85 3.97714 
14 *394:85 *3370:D 23 
15 *394:85 *394:98 39.7357 
16 *394:98 *3373:A3 23 
*END

*D_NET *395 0.00136675
*CONN
*I *3371:A I *D sky130_fd_sc_hd__and3_2
*I *3368:X O *D sky130_fd_sc_hd__a31o_2
*CAP
1 *3371:A 0.000120513
2 *3368:X 0.000165095
3 *395:8 0.000285609
4 *3371:A *3371:C 0.000222785
5 *332:10 *395:8 0.000345276
6 *394:37 *395:8 2.70469e-05
7 *394:52 *395:8 0.000200422
*RES
1 *3368:X *395:8 43.4271 
2 *395:8 *3371:A 40.5271 
*END

*D_NET *396 0.0138011
*CONN
*I *3375:B1 I *D sky130_fd_sc_hd__o21ai_2
*I *3371:B I *D sky130_fd_sc_hd__and3_2
*I *3381:B1 I *D sky130_fd_sc_hd__o21ai_2
*I *3377:B1 I *D sky130_fd_sc_hd__o21ai_2
*I *3380:B I *D sky130_fd_sc_hd__and3b_2
*I *3383:B1 I *D sky130_fd_sc_hd__o21ai_2
*I *3386:B I *D sky130_fd_sc_hd__and3b_2
*I *3387:B1 I *D sky130_fd_sc_hd__o21ai_2
*I *3369:Y O *D sky130_fd_sc_hd__nor2_2
*CAP
1 *3375:B1 0.000124694
2 *3371:B 5.2153e-05
3 *3381:B1 0
4 *3377:B1 0
5 *3380:B 0.00013037
6 *3383:B1 0
7 *3386:B 0
8 *3387:B1 0
9 *3369:Y 0.000466977
10 *396:96 0.000542101
11 *396:87 0.000157832
12 *396:76 0.000512894
13 *396:57 0.00114013
14 *396:40 0.000434757
15 *396:32 0.000710771
16 *396:24 0.000524773
17 *396:20 0.00120418
18 *396:16 0.00129548
19 *396:14 0.00112955
20 *396:10 0.000552173
21 *3371:B *3371:C 5.26733e-06
22 *3375:B1 *3505:A 2.93845e-05
23 *3375:B1 *3922:CLK 5.50106e-05
24 *3375:B1 *626:81 6.4393e-05
25 *3375:B1 *644:103 0
26 *3375:B1 *1049:27 6.7177e-06
27 *3380:B *3380:C 2.86543e-07
28 *396:10 *3996:CLK 0.000143655
29 *396:10 *4098:A 0.000164306
30 *396:10 *626:8 0.000185434
31 *396:10 *644:77 0.000111852
32 *396:10 *877:48 0
33 *396:10 *1051:10 0.000289745
34 *396:14 *1047:76 5.26733e-06
35 *396:16 *606:88 3.89661e-05
36 *396:16 *1044:8 2.64616e-05
37 *396:20 *606:88 2.7825e-05
38 *396:20 *625:80 5.12254e-05
39 *396:24 *625:86 6.4393e-05
40 *396:24 *625:92 0.000463729
41 *396:32 *3383:A1 0.000100543
42 *396:32 *3384:B 5.3304e-05
43 *396:32 *3918:CLK 4.08641e-05
44 *396:32 *625:92 0.000131077
45 *396:32 *877:29 0.000139647
46 *396:40 *3387:A1 2.76611e-06
47 *396:40 *3508:A 0
48 *396:40 *876:18 0.000261956
49 *396:40 *877:29 0
50 *396:40 *1050:27 3.98859e-05
51 *396:57 *3921:CLK 0.000240702
52 *396:57 *402:10 2.96369e-05
53 *396:57 *625:86 3.0647e-05
54 *396:57 *1044:66 0
55 *396:57 *1045:16 0.000138727
56 *396:57 *1046:10 0
57 *396:76 *3377:A1 0.00010018
58 *396:76 *3378:B 5.67058e-05
59 *396:76 *830:8 0
60 *396:87 *3381:A1 0
61 *396:87 *403:8 3.21223e-05
62 *396:96 *626:70 0.000210639
63 *396:96 *626:81 2.70366e-05
64 *396:96 *644:77 5.09499e-05
65 *396:96 *644:103 0
66 *396:96 *877:48 0.000158124
67 *396:96 *1047:76 0.000138718
68 *3372:A2 *396:96 0.000138708
69 *3383:A2 *396:40 9.94675e-05
70 *3920:D *396:20 3.87132e-05
71 *3921:D *3380:B 6.17437e-06
72 *11:10 *396:24 2.97816e-06
73 *11:10 *396:57 4.7585e-06
74 *11:10 *396:76 1.12383e-05
75 *11:10 *396:87 0
76 *117:8 *396:24 0
77 *334:8 *3375:B1 2.11887e-05
78 *334:8 *396:96 4.21594e-06
79 *355:18 *396:57 0
80 *391:10 *396:40 0.000110922
81 *392:10 *396:24 4.6318e-06
82 *392:25 *396:24 0.000202805
83 *392:29 *396:87 0
84 *393:27 *3380:B 3.7122e-06
85 *393:27 *396:57 2.99716e-05
86 *393:27 *396:76 0.000365269
87 *394:27 *396:96 5.94125e-05
*RES
1 *3369:Y *396:10 48.7507 
2 *396:10 *396:14 16.0979 
3 *396:14 *396:16 8.72071 
4 *396:16 *396:20 20.8621 
5 *396:20 *396:24 22.8921 
6 *396:24 *396:32 36.2971 
7 *396:32 *396:40 36.3179 
8 *396:40 *3387:B1 23 
9 *396:32 *3386:B 23 
10 *396:24 *3383:B1 23 
11 *396:20 *396:57 10.3571 
12 *396:57 *3380:B 39.5743 
13 *396:57 *396:76 27.1386 
14 *396:76 *3377:B1 23 
15 *396:16 *396:87 32.61 
16 *396:87 *3381:B1 23 
17 *396:14 *396:96 25.3571 
18 *396:96 *3371:B 38.6214 
19 *396:96 *3375:B1 40.8793 
*END

*D_NET *397 0.00117597
*CONN
*I *3371:C I *D sky130_fd_sc_hd__and3_2
*I *3370:Y O *D sky130_fd_sc_hd__nand4_2
*CAP
1 *3371:C 0.000301776
2 *3370:Y 8.2515e-05
3 *397:8 0.000384291
4 *397:8 *1048:69 1.58805e-05
5 *3371:A *3371:C 0.000222785
6 *3371:B *3371:C 5.26733e-06
7 *394:37 *397:8 2.79064e-05
8 *394:52 *397:8 0.000135547
*RES
1 *3370:Y *397:8 39.9057 
2 *397:8 *3371:C 41.9564 
*END

*D_NET *398 0.000309393
*CONN
*I *3374:A I *D sky130_fd_sc_hd__nor2_2
*I *3372:Y O *D sky130_fd_sc_hd__a21oi_2
*CAP
1 *3374:A 0
2 *3372:Y 8.42221e-05
3 *398:8 8.42221e-05
4 *398:8 *626:56 0
5 *398:8 *644:77 0.000140949
6 *333:8 *398:8 0
*RES
1 *3372:Y *398:8 39.9057 
2 *398:8 *3374:A 38 
*END

*D_NET *399 0.000921093
*CONN
*I *3374:B I *D sky130_fd_sc_hd__nor2_2
*I *3373:X O *D sky130_fd_sc_hd__a311o_2
*CAP
1 *3374:B 0
2 *3373:X 0.000235474
3 *399:6 0.000235474
4 *399:6 *626:56 0.000228903
5 *399:6 *1047:76 0.000221242
*RES
1 *3373:X *399:6 29.815 
2 *399:6 *3374:B 23 
*END

*D_NET *400 0.000611053
*CONN
*I *3376:B1 I *D sky130_fd_sc_hd__a21oi_2
*I *3375:Y O *D sky130_fd_sc_hd__o21ai_2
*CAP
1 *3376:B1 0
2 *3375:Y 0.000169346
3 *400:10 0.000169346
4 *400:10 *3505:A 5.50049e-05
5 *400:10 *3922:CLK 6.17437e-06
6 *400:10 *3925:CLK 2.06822e-05
7 *400:10 *644:103 0
8 *400:10 *644:120 0
9 *400:10 *1049:8 4.08664e-05
10 *400:10 *1049:27 3.47781e-05
11 *332:10 *400:10 0.000108681
12 *394:37 *400:10 6.17437e-06
13 *394:52 *400:10 0
14 *394:66 *400:10 0
*RES
1 *3375:Y *400:10 41.3557 
2 *400:10 *3376:B1 38 
*END

*D_NET *401 0.000287489
*CONN
*I *3378:B I *D sky130_fd_sc_hd__nor2_2
*I *3377:Y O *D sky130_fd_sc_hd__o21ai_2
*CAP
1 *3378:B 0.000101785
2 *3377:Y 0.000101785
3 *3378:B *3377:A1 2.18409e-05
4 *331:10 *3378:B 5.37348e-06
5 *396:76 *3378:B 5.67058e-05
*RES
1 *3377:Y *3378:B 48.0714 
*END

*D_NET *402 0.000453779
*CONN
*I *3380:C I *D sky130_fd_sc_hd__and3b_2
*I *3379:X O *D sky130_fd_sc_hd__a21o_2
*CAP
1 *3380:C 1.72602e-05
2 *3379:X 8.02611e-05
3 *402:10 9.75213e-05
4 *402:10 *1045:18 5.67058e-05
5 *402:10 *1046:10 0.000110922
6 *3366:C *402:10 5.50106e-05
7 *3380:B *3380:C 2.86543e-07
8 *393:27 *3380:C 6.17437e-06
9 *396:57 *402:10 2.96369e-05
*RES
1 *3379:X *402:10 40.175 
2 *402:10 *3380:C 38.1916 
*END

*D_NET *403 0.000731665
*CONN
*I *3382:B1 I *D sky130_fd_sc_hd__a21oi_2
*I *3381:Y O *D sky130_fd_sc_hd__o21ai_2
*CAP
1 *3382:B1 0
2 *3381:Y 0.000236276
3 *403:8 0.000236276
4 *179:10 *403:8 0
5 *329:8 *403:8 0.000160191
6 *392:29 *403:8 6.68004e-05
7 *396:87 *403:8 3.21223e-05
*RES
1 *3381:Y *403:8 43.075 
2 *403:8 *3382:B1 38 
*END

*D_NET *404 0.000431614
*CONN
*I *3384:B I *D sky130_fd_sc_hd__nor2_2
*I *3383:Y O *D sky130_fd_sc_hd__o21ai_2
*CAP
1 *3384:B 0.000189155
2 *3383:Y 0.000189155
3 *396:32 *3384:B 5.3304e-05
*RES
1 *3383:Y *3384:B 49.0243 
*END

*D_NET *405 0.000709289
*CONN
*I *3386:C I *D sky130_fd_sc_hd__and3b_2
*I *3385:X O *D sky130_fd_sc_hd__a21o_2
*CAP
1 *3386:C 0.00024101
2 *3385:X 0.00024101
3 *3386:C *3365:B 0.000101831
4 *3386:C *1050:16 7.21329e-05
5 *3386:A_N *3386:C 5.3304e-05
*RES
1 *3385:X *3386:C 49.5473 
*END

*D_NET *406 0.000396455
*CONN
*I *3388:B1 I *D sky130_fd_sc_hd__a21oi_2
*I *3387:Y O *D sky130_fd_sc_hd__o21ai_2
*CAP
1 *3388:B1 0
2 *3387:Y 0.00015547
3 *406:10 0.00015547
4 *406:10 *3364:C 6.17437e-06
5 *406:10 *641:54 5.61311e-05
6 *406:10 *1041:10 0
7 *406:10 *1041:21 0
8 *406:10 *1041:25 2.32101e-05
*RES
1 *3387:Y *406:10 40.8793 
2 *406:10 *3388:B1 38 
*END

*D_NET *407 0.00257177
*CONN
*I *3390:B1 I *D sky130_fd_sc_hd__o21a_2
*I *3389:X O *D sky130_fd_sc_hd__a21o_2
*CAP
1 *3390:B1 9.61586e-05
2 *3389:X 0.000564399
3 *407:10 0.000660557
4 *3390:B1 *3390:A1 0.000187129
5 *3390:B1 *3390:A2 5.50106e-05
6 *3390:B1 *878:109 0.000311549
7 *407:10 *3390:A2 0
8 *407:10 *878:92 0.000108559
9 *407:10 *934:16 0.000475031
10 *407:10 *1034:14 0.000110922
11 *325:10 *3390:B1 2.45549e-06
*RES
1 *3389:X *407:10 47.7564 
2 *407:10 *3390:B1 41.9771 
*END

*D_NET *408 0.000419815
*CONN
*I *3392:B1 I *D sky130_fd_sc_hd__o21a_2
*I *3391:X O *D sky130_fd_sc_hd__a21o_2
*CAP
1 *3392:B1 0
2 *3391:X 0.000124285
3 *408:10 0.000124285
4 *408:10 *3804:B1 2.93747e-05
5 *408:10 *732:10 0.000141869
*RES
1 *3391:X *408:10 40.5271 
2 *408:10 *3392:B1 38 
*END

*D_NET *409 0.00464843
*CONN
*I *3394:A3 I *D sky130_fd_sc_hd__o32a_2
*I *3393:X O *D sky130_fd_sc_hd__o21ba_2
*CAP
1 *3394:A3 0.000555922
2 *3393:X 0.000311456
3 *409:20 0.00144953
4 *409:12 0.00120507
5 *3394:A3 *3394:A1 5.90675e-06
6 *3394:A3 *3394:B1 0.000317055
7 *3394:A3 *3881:CLK 3.6485e-05
8 *409:12 *3964:RESET_B 0.000132342
9 *409:12 *613:22 0
10 *409:12 *655:111 3.81391e-05
11 *409:12 *746:10 0
12 *409:12 *1012:10 0.000294843
13 *409:20 *3394:B1 4.9346e-05
14 *409:20 *4124:A 6.70017e-05
15 *409:20 *647:28 3.61511e-05
16 *409:20 *858:8 6.29711e-05
17 *409:20 *1013:10 7.01687e-05
18 *409:20 *1026:6 1.60429e-05
19 *55:18 *409:20 0
*RES
1 *3393:X *409:12 45.6021 
2 *409:12 *409:20 42.0557 
3 *409:20 *3394:A3 46.6171 
*END

*D_NET *410 0.00494549
*CONN
*I *3395:C I *D sky130_fd_sc_hd__or3_2
*I *3394:X O *D sky130_fd_sc_hd__o32a_2
*CAP
1 *3395:C 0
2 *3394:X 0.000563502
3 *410:12 0.000686355
4 *410:8 0.00124986
5 *410:8 *3394:A1 4.66047e-05
6 *410:8 *3394:B1 0.00010725
7 *410:8 *3881:CLK 0.000308033
8 *410:8 *4257:A 6.17437e-06
9 *410:12 *647:28 2.79355e-05
10 *410:12 *647:44 0.000185589
11 *410:12 *648:16 6.62046e-05
12 *410:12 *1015:8 0.000330197
13 *410:12 *1015:20 0.000250232
14 *55:18 *410:12 0.00111756
*RES
1 *3394:X *410:8 45.7679 
2 *410:8 *410:12 33.8086 
3 *410:12 *3395:C 23 
*END

*D_NET *411 0.000581609
*CONN
*I *3427:B1 I *D sky130_fd_sc_hd__a22o_2
*I *3399:Y O *D sky130_fd_sc_hd__inv_2
*CAP
1 *3427:B1 3.80889e-05
2 *3399:Y 8.19683e-05
3 *411:8 0.000120057
4 *3427:B1 *3427:A1 0.000182832
5 *3427:B1 *4315:A 0.00010655
6 *411:8 *3427:A1 0
7 *411:8 *711:19 5.21127e-05
8 *111:23 *411:8 0
*RES
1 *3399:Y *411:8 39.5536 
2 *411:8 *3427:B1 40.0507 
*END

*D_NET *412 0.00276202
*CONN
*I *3411:A2 I *D sky130_fd_sc_hd__o21ai_2
*I *3409:B I *D sky130_fd_sc_hd__xnor2_2
*I *3408:B1 I *D sky130_fd_sc_hd__o21ai_2
*I *3406:X O *D sky130_fd_sc_hd__a21o_2
*CAP
1 *3411:A2 0
2 *3409:B 0
3 *3408:B1 0.00033337
4 *3406:X 0.000249308
5 *412:22 0.000483916
6 *412:12 0.000160636
7 *412:8 0.000259397
8 *3408:B1 *631:12 0.000271392
9 *3408:B1 *906:12 4.75206e-05
10 *3408:B1 *906:48 0
11 *412:8 *3406:A2 0
12 *412:8 *625:21 0
13 *412:8 *631:12 0
14 *412:8 *906:48 0.00037402
15 *412:12 *3412:A 4.34745e-05
16 *412:12 *3412:B 5.50049e-05
17 *412:22 *3412:A 5.50106e-05
18 *412:22 *3412:B 1.32314e-05
19 *412:22 *631:12 0.000159831
20 *412:22 *906:48 1.50174e-05
21 *164:10 *3408:B1 0.000240888
*RES
1 *3406:X *412:8 43.4271 
2 *412:8 *412:12 15.6214 
3 *412:12 *412:22 18.9979 
4 *412:22 *3408:B1 45.6229 
5 *412:22 *3409:B 38 
6 *412:12 *3411:A2 23 
*END

*D_NET *413 0.00267032
*CONN
*I *3408:A2 I *D sky130_fd_sc_hd__o21ai_2
*I *3407:Y O *D sky130_fd_sc_hd__nand2_2
*CAP
1 *3408:A2 3.05688e-05
2 *3407:Y 0.000182949
3 *413:18 0.000930107
4 *413:10 0.00108249
5 *413:10 *3407:A 9.8971e-06
6 *413:10 *3407:B 5.25848e-05
7 *413:10 *865:23 0.000107508
8 *413:10 *868:26 0.000109739
9 *413:18 *3409:A 2.93747e-05
10 *413:18 *868:26 2.64616e-05
11 *413:18 *906:48 0
12 *162:16 *3408:A2 1.83408e-05
13 *165:10 *413:18 9.02985e-05
*RES
1 *3407:Y *413:10 41.1279 
2 *413:10 *413:18 43.7129 
3 *413:18 *3408:A2 38.6214 
*END

*D_NET *414 0.00681797
*CONN
*I *3415:A2 I *D sky130_fd_sc_hd__o21ai_2
*I *3413:B I *D sky130_fd_sc_hd__xnor2_2
*I *3414:C I *D sky130_fd_sc_hd__or3_2
*I *3412:A I *D sky130_fd_sc_hd__nand2_2
*I *3410:X O *D sky130_fd_sc_hd__a2111o_2
*CAP
1 *3415:A2 0.000466267
2 *3413:B 0
3 *3414:C 0
4 *3412:A 0.000497055
5 *3410:X 0.000255782
6 *414:36 0.000574108
7 *414:29 0.000294195
8 *414:23 0.000703224
9 *414:10 0.00105402
10 *3412:A *3411:A1 6.99589e-05
11 *3412:A *3412:B 0.00012522
12 *3415:A2 *3415:A1 0
13 *3415:A2 *3415:B1 0
14 *3415:A2 *3417:A 0
15 *3415:A2 *3420:B 0
16 *3415:A2 *416:24 0.000207437
17 *3415:A2 *417:8 8.22139e-05
18 *3415:A2 *419:8 5.50106e-05
19 *3415:A2 *684:12 0
20 *3415:A2 *762:10 0
21 *414:10 *3410:C1 0.00010018
22 *414:10 *642:14 0.000165644
23 *414:10 *653:8 0
24 *414:23 *3406:A2 0
25 *414:23 *416:24 1.09783e-05
26 *414:23 *642:14 0.000201351
27 *414:23 *653:8 0
28 *414:23 *664:10 0
29 *414:23 *673:8 0
30 *414:29 *3406:B1 5.19598e-05
31 *414:29 *3414:A 0.000543654
32 *414:29 *416:14 0.000130187
33 *414:29 *684:12 0.00104664
34 *414:36 *416:24 8.16253e-05
35 *414:36 *684:12 0
36 *15:13 *414:23 0
37 *162:16 *414:10 2.76611e-06
38 *412:12 *3412:A 4.34745e-05
39 *412:22 *3412:A 5.50106e-05
*RES
1 *3410:X *414:10 43.4686 
2 *414:10 *3412:A 46.7414 
3 *414:10 *414:23 6.83571 
4 *414:23 *414:29 27.4286 
5 *414:29 *3414:C 23 
6 *414:23 *414:36 2.25786 
7 *414:36 *3413:B 38 
8 *414:36 *3415:A2 47.2179 
*END

*D_NET *415 0.000545835
*CONN
*I *3412:B I *D sky130_fd_sc_hd__nand2_2
*I *3411:Y O *D sky130_fd_sc_hd__o21ai_2
*CAP
1 *3412:B 0.000176189
2 *3411:Y 0.000176189
3 *3412:A *3412:B 0.00012522
4 *412:12 *3412:B 5.50049e-05
5 *412:22 *3412:B 1.32314e-05
*RES
1 *3411:Y *3412:B 49.9979 
*END

*D_NET *416 0.00534185
*CONN
*I *3416:A I *D sky130_fd_sc_hd__nand2_2
*I *3417:B I *D sky130_fd_sc_hd__or2_2
*I *3418:B I *D sky130_fd_sc_hd__nand2_2
*I *3414:X O *D sky130_fd_sc_hd__or3_2
*CAP
1 *3416:A 2.26876e-05
2 *3417:B 0.000159635
3 *3418:B 0
4 *3414:X 0.00116046
5 *416:30 0.000477685
6 *416:24 0.000673389
7 *416:14 0.00149312
8 *3416:A *625:41 5.12055e-06
9 *3417:B *3417:A 0.000241616
10 *3417:B *762:10 1.14452e-05
11 *416:14 *641:120 1.05658e-05
12 *416:14 *684:12 0.000112764
13 *416:24 *3415:A1 0.000189081
14 *416:24 *673:8 9.66417e-05
15 *416:30 *3415:B1 2.11668e-05
16 *416:30 *762:10 0.000181235
17 *3415:A2 *416:24 0.000207437
18 *3993:D *416:24 5.50049e-05
19 *4347:A *416:30 0
20 *414:23 *416:24 1.09783e-05
21 *414:29 *416:14 0.000130187
22 *414:36 *416:24 8.16253e-05
*RES
1 *3414:X *416:14 49.1452 
2 *416:14 *416:24 32.3111 
3 *416:24 *416:30 21.4421 
4 *416:30 *3418:B 38 
5 *416:30 *3417:B 41.9357 
6 *416:24 *3416:A 23.4971 
*END

*D_NET *417 0.000322659
*CONN
*I *3416:B I *D sky130_fd_sc_hd__nand2_2
*I *3415:Y O *D sky130_fd_sc_hd__o21ai_2
*CAP
1 *3416:B 0
2 *3415:Y 8.21076e-05
3 *417:8 8.21076e-05
4 *417:8 *3415:B1 7.62303e-05
5 *3415:A2 *417:8 8.22139e-05
*RES
1 *3415:Y *417:8 40.2579 
2 *417:8 *3416:B 38 
*END

*D_NET *418 0.00165886
*CONN
*I *3419:A I *D sky130_fd_sc_hd__nand2_2
*I *3420:B I *D sky130_fd_sc_hd__xnor2_2
*I *3417:X O *D sky130_fd_sc_hd__or2_2
*CAP
1 *3419:A 0
2 *3420:B 0.000228309
3 *3417:X 0.000460372
4 *418:10 0.000688681
5 *3420:B *3415:A1 3.21785e-05
6 *3420:B *625:41 0.000249318
7 *3415:A2 *3420:B 0
*RES
1 *3417:X *418:10 45.9957 
2 *418:10 *3420:B 43.4271 
3 *418:10 *3419:A 38 
*END

*D_NET *419 0.000566603
*CONN
*I *3419:B I *D sky130_fd_sc_hd__nand2_2
*I *3418:Y O *D sky130_fd_sc_hd__nand2_2
*CAP
1 *3419:B 0
2 *3418:Y 0.000219252
3 *419:8 0.000219252
4 *419:8 *3415:A1 4.37033e-05
5 *419:8 *3415:B1 2.93845e-05
6 *3415:A2 *419:8 5.50106e-05
*RES
1 *3418:Y *419:8 27.4536 
2 *419:8 *3419:B 23 
*END

*D_NET *420 0.0013878
*CONN
*I *3422:B2 I *D sky130_fd_sc_hd__o2bb2a_2
*I *3421:X O *D sky130_fd_sc_hd__and2b_2
*CAP
1 *3422:B2 0.000407041
2 *3421:X 0.00013806
3 *420:8 0.000545101
4 *3422:B2 *3778:B1 7.06229e-05
5 *3422:B2 *885:28 1.21972e-05
6 *3422:B2 *885:39 6.68822e-05
7 *3422:B2 *899:47 9.58714e-05
8 *420:8 *509:10 0
9 *420:8 *662:41 0
10 *420:8 *885:39 1.97329e-05
11 *3422:B1 *3422:B2 3.22879e-05
*RES
1 *3421:X *420:8 40.61 
2 *420:8 *3422:B2 45.2914 
*END

*D_NET *421 0.00143316
*CONN
*I *3424:A3 I *D sky130_fd_sc_hd__a32o_2
*I *3423:Y O *D sky130_fd_sc_hd__nand2_2
*CAP
1 *3424:A3 0
2 *3423:Y 0.000258647
3 *421:8 0.000258647
4 *421:8 *4328:A 0.000110116
5 *421:8 *1096:16 0.000638411
6 *421:8 *1115:8 9.27814e-05
7 *421:8 *1116:29 7.45536e-05
*RES
1 *3423:Y *421:8 46.5964 
2 *421:8 *3424:A3 38 
*END

*D_NET *422 0.00182066
*CONN
*I *3426:C1 I *D sky130_fd_sc_hd__a211oi_2
*I *3425:Y O *D sky130_fd_sc_hd__a21oi_2
*CAP
1 *3426:C1 0.00041961
2 *3425:Y 2.14044e-05
3 *422:8 0.000441015
4 *3426:C1 *611:132 3.70094e-05
5 *3426:C1 *885:28 0
6 *3426:C1 *899:10 0.000162422
7 *3426:C1 *1114:36 1.47563e-05
8 *3426:C1 *1116:12 0.000435924
9 *422:8 *3425:B1 5.50106e-05
10 *422:8 *1096:29 2.4754e-05
11 *422:8 *1116:38 9.84851e-05
12 *187:8 *3426:C1 0.000110267
*RES
1 *3425:Y *422:8 39.0979 
2 *422:8 *3426:C1 49.0614 
*END

*D_NET *423 0.0043412
*CONN
*I *3521:B I *D sky130_fd_sc_hd__or2_2
*I *3432:B1 I *D sky130_fd_sc_hd__a21o_2
*I *3431:X O *D sky130_fd_sc_hd__and2_2
*CAP
1 *3521:B 0
2 *3432:B1 0
3 *3431:X 0.000250204
4 *423:36 0.000966148
5 *423:28 0.00107015
6 *423:10 0.000146203
7 *423:10 *611:10 0.000140958
8 *423:28 *708:10 8.4047e-05
9 *423:36 *3780:A2 0.00021623
10 *423:36 *4212:A 0.000484545
11 *423:36 *607:33 0
12 *423:36 *611:8 0.000186205
13 *423:36 *658:50 3.71198e-05
14 *423:36 *708:10 5.3304e-05
15 *423:36 *883:128 1.34354e-05
16 *423:36 *1089:8 0.000187986
17 *101:12 *423:36 9.45591e-05
18 *111:23 *423:10 0.000138718
19 *111:23 *423:28 1.47563e-05
20 *125:8 *423:36 0
21 *191:8 *423:36 5.30621e-05
22 *360:73 *423:10 6.55012e-05
23 *360:73 *423:28 0.000138066
*RES
1 *3431:X *423:10 41.0036 
2 *423:10 *3432:B1 38 
3 *3431:X *423:28 40.175 
4 *423:28 *423:36 49.6993 
5 *423:36 *3521:B 38 
*END

*D_NET *424 0.00234382
*CONN
*I *3438:B2 I *D sky130_fd_sc_hd__a22o_2
*I *3435:A2_N I *D sky130_fd_sc_hd__a2bb2o_2
*I *3434:X O *D sky130_fd_sc_hd__or2_2
*CAP
1 *3438:B2 0.000289428
2 *3435:A2_N 0
3 *3434:X 0.000503688
4 *424:12 0.000289428
5 *424:10 0.000503688
6 *3438:B2 *3435:B2 9.58714e-05
7 *3438:B2 *3438:B1 4.26942e-06
8 *424:10 *3527:A1 5.52059e-05
9 *424:10 *478:10 3.52489e-06
10 *424:10 *644:55 0
11 *424:10 *911:89 0.000478464
12 *3435:B1 *3438:B2 6.687e-05
13 *371:10 *3438:B2 5.3381e-05
*RES
1 *3434:X *424:10 46.6793 
2 *424:10 *424:12 15 
3 *424:12 *3435:A2_N 23 
4 *424:12 *3438:B2 27.9507 
*END

*D_NET *425 0.000540621
*CONN
*I *3441:B I *D sky130_fd_sc_hd__nor2_2
*I *3440:Y O *D sky130_fd_sc_hd__a21oi_2
*CAP
1 *3441:B 0
2 *3440:Y 0.000143016
3 *425:10 0.000143016
4 *425:10 *627:55 0.000141879
5 *425:10 *713:20 3.7285e-05
6 *425:10 *934:16 2.57373e-06
7 *360:33 *425:10 7.28526e-05
*RES
1 *3440:Y *425:10 41.0036 
2 *425:10 *3441:B 38 
*END

*D_NET *426 0.00683037
*CONN
*I *3466:A I *D sky130_fd_sc_hd__nor2_2
*I *3458:B I *D sky130_fd_sc_hd__and3_2
*I *3453:B1 I *D sky130_fd_sc_hd__a22o_2
*I *3449:B1 I *D sky130_fd_sc_hd__o21a_2
*I *3443:Y O *D sky130_fd_sc_hd__nor3_2
*CAP
1 *3466:A 0
2 *3458:B 0.000202708
3 *3453:B1 0
4 *3449:B1 0
5 *3443:Y 0.000649616
6 *426:67 0.000165318
7 *426:40 0.000401942
8 *426:26 0.000795465
9 *426:16 0.0009545
10 *426:10 0.0011732
11 *3458:B *3525:A0 3.47781e-05
12 *3458:B *432:16 0.000117036
13 *3458:B *477:8 5.50049e-05
14 *3458:B *948:12 3.28772e-05
15 *3458:B *948:14 1.02387e-05
16 *426:10 *3443:B 2.4754e-05
17 *426:10 *3443:C 0.00010018
18 *426:10 *3947:RESET_B 0.000102783
19 *426:10 *989:20 0.000310647
20 *426:10 *1002:8 7.84515e-05
21 *426:16 *3947:CLK 4.93341e-05
22 *426:16 *432:16 4.51431e-05
23 *426:16 *948:20 1.94418e-05
24 *426:16 *1002:8 8.91468e-07
25 *426:16 *1002:16 0
26 *426:16 *1007:43 6.48142e-05
27 *426:26 *3524:B1 1.09783e-05
28 *426:40 *3448:B 0.000221997
29 *426:40 *3448:C 1.46594e-05
30 *426:40 *3457:A3 2.46468e-05
31 *426:40 *432:10 0.000119872
32 *426:40 *604:76 0.000164282
33 *426:40 *1004:18 9.84755e-05
34 *426:67 *638:37 9.75984e-05
35 *426:67 *1002:16 0.000343872
36 *3449:A1 *426:40 5.50049e-05
37 *3947:D *426:16 1.73399e-05
38 *81:8 *3458:B 0
39 *109:14 *426:40 3.47781e-05
40 *109:28 *426:40 3.91699e-05
41 *363:32 *426:26 0.000189578
42 *364:8 *3458:B 4.6318e-06
43 *364:31 *426:26 4.35681e-06
*RES
1 *3443:Y *426:10 35.5736 
2 *426:10 *426:16 20.3339 
3 *426:16 *426:26 32.3216 
4 *426:26 *426:40 38.9071 
5 *426:40 *3449:B1 23 
6 *426:26 *3453:B1 23 
7 *426:16 *3458:B 42.1118 
8 *426:10 *426:67 34.7229 
9 *426:67 *3466:A 23 
*END

*D_NET *427 0.0111778
*CONN
*I *3687:B2 I *D sky130_fd_sc_hd__a221o_2
*I *3701:S I *D sky130_fd_sc_hd__mux2_1
*I *3695:S I *D sky130_fd_sc_hd__mux2_1
*I *3699:S I *D sky130_fd_sc_hd__mux2_1
*I *3693:S I *D sky130_fd_sc_hd__mux2_1
*I *3697:S I *D sky130_fd_sc_hd__mux2_1
*I *3691:S I *D sky130_fd_sc_hd__mux2_1
*I *3703:S I *D sky130_fd_sc_hd__mux2_1
*I *3445:Y O *D sky130_fd_sc_hd__nor2_2
*CAP
1 *3687:B2 1.02621e-05
2 *3701:S 2.00578e-05
3 *3695:S 0
4 *3699:S 0
5 *3693:S 0
6 *3697:S 0.00016145
7 *3691:S 0.000259901
8 *3703:S 0
9 *3445:Y 0.000169977
10 *427:67 0.000719067
11 *427:61 0.00060305
12 *427:55 0.00113019
13 *427:43 0.00116901
14 *427:29 0.000574898
15 *427:20 0.000727464
16 *427:12 0.00069702
17 *3687:B2 *3687:C1 6.39489e-06
18 *3691:S *3691:A0 9.67842e-05
19 *3691:S *564:8 7.43114e-05
20 *3697:S *3484:A2 0
21 *3697:S *565:14 0
22 *3697:S *620:12 7.37598e-05
23 *427:12 *3445:A 5.55743e-06
24 *427:12 *3687:C1 9.43273e-05
25 *427:12 *434:10 3.67392e-05
26 *427:12 *618:12 1.09834e-05
27 *427:12 *618:57 8.65972e-05
28 *427:12 *1002:51 9.87053e-06
29 *427:20 *3474:A 0.000185104
30 *427:20 *3474:B 5.56203e-05
31 *427:20 *3475:B 9.67842e-05
32 *427:20 *3483:A2 3.3963e-05
33 *427:20 *3483:B1 2.93747e-05
34 *427:20 *3483:B2 3.22879e-05
35 *427:20 *3689:A1 4.98687e-05
36 *427:20 *3703:A0 6.00393e-05
37 *427:20 *448:8 0.000400198
38 *427:20 *618:18 0.000127296
39 *427:20 *618:20 0.000109751
40 *427:20 *618:57 5.29888e-05
41 *427:20 *846:23 5.94125e-05
42 *427:20 *847:20 0
43 *427:20 *988:12 1.58805e-05
44 *427:20 *988:29 4.18957e-05
45 *427:20 *1002:51 3.50862e-06
46 *427:29 *3703:A0 7.44257e-05
47 *427:29 *3703:A1 0.000308946
48 *427:29 *448:8 2.80512e-05
49 *427:29 *570:8 1.56665e-05
50 *427:43 *447:14 0.000214339
51 *427:43 *570:8 2.4754e-05
52 *427:43 *842:8 6.07078e-05
53 *427:43 *854:26 0.000484359
54 *427:55 *3482:B 4.34745e-05
55 *427:55 *4317:A 5.50049e-05
56 *427:55 *447:14 0.000104205
57 *427:55 *564:14 9.28078e-06
58 *427:55 *568:12 4.39488e-05
59 *427:55 *842:8 0.000348905
60 *427:55 *842:10 0
61 *427:55 *844:14 0
62 *427:55 *850:26 0.000142173
63 *427:55 *854:26 0
64 *427:55 *908:49 0
65 *427:55 *912:35 0.000120042
66 *427:55 *986:27 0.00010018
67 *427:61 *849:14 8.48502e-06
68 *427:61 *986:27 0.000305096
69 *427:67 *3693:A0 1.21972e-05
70 *427:67 *565:14 0
71 *427:67 *849:14 6.95157e-05
72 *427:67 *875:43 0.000382254
73 *427:67 *913:10 0
74 *427:67 *986:10 4.60263e-05
75 *36:17 *427:67 0
76 *37:17 *427:43 1.7768e-05
77 *267:10 *427:55 6.63801e-05
*RES
1 *3445:Y *427:12 41.2729 
2 *427:12 *427:20 29.8314 
3 *427:20 *3703:S 23 
4 *427:20 *427:29 5.40643 
5 *427:29 *427:43 9.69429 
6 *427:43 *427:55 48.125 
7 *427:55 *427:61 6.38 
8 *427:61 *427:67 21.7529 
9 *427:67 *3691:S 42.93 
10 *427:67 *3697:S 40.9621 
11 *427:61 *3693:S 23 
12 *427:55 *3699:S 23 
13 *427:43 *3695:S 23 
14 *427:29 *3701:S 23.4971 
15 *427:12 *3687:B2 38.1502 
*END

*D_NET *428 0.00246851
*CONN
*I *3448:C I *D sky130_fd_sc_hd__and4_2
*I *3457:A2 I *D sky130_fd_sc_hd__a31o_2
*I *3464:B I *D sky130_fd_sc_hd__or2_2
*I *3463:B I *D sky130_fd_sc_hd__nor2_2
*I *3446:X O *D sky130_fd_sc_hd__or2_2
*CAP
1 *3448:C 0.000106055
2 *3457:A2 5.30331e-05
3 *3464:B 0.000124731
4 *3463:B 0
5 *3446:X 0
6 *428:30 0.000306682
7 *428:12 0.000295825
8 *428:6 0.000318688
9 *3448:C *3457:A3 4.73789e-05
10 *3448:C *3457:B1 0.000139346
11 *3448:C *432:10 0.000268765
12 *3457:A2 *3457:A3 7.58407e-05
13 *3457:A2 *432:10 3.11106e-05
14 *3464:B *3464:A 9.41704e-05
15 *3464:B *981:39 9.86777e-06
16 *428:12 *434:10 9.91548e-05
17 *428:12 *618:57 0.000165394
18 *428:12 *981:39 4.69418e-05
19 *428:12 *1002:51 3.84822e-05
20 *428:30 *618:57 6.13373e-05
21 *428:30 *618:68 0
22 *428:30 *1004:26 0
23 *109:28 *428:30 4.65949e-05
24 *363:32 *428:30 0.000124455
25 *426:40 *3448:C 1.46594e-05
*RES
1 *3446:X *428:6 38 
2 *428:6 *428:12 19.3086 
3 *428:12 *3463:B 23 
4 *428:12 *3464:B 25.0714 
5 *428:6 *428:30 18.3143 
6 *428:30 *3457:A2 24.3568 
7 *428:30 *3448:C 26.5007 
*END

*D_NET *429 0.00142671
*CONN
*I *3457:A3 I *D sky130_fd_sc_hd__a31o_2
*I *3448:D I *D sky130_fd_sc_hd__and4_2
*I *3447:Y O *D sky130_fd_sc_hd__nand2b_2
*CAP
1 *3457:A3 0.000205063
2 *3448:D 0
3 *3447:Y 0.00013164
4 *429:12 0.000205063
5 *429:10 0.00013164
6 *3457:A3 *3457:B1 0.000139346
7 *3457:A3 *430:10 5.50049e-05
8 *3457:A3 *432:10 2.64836e-05
9 *429:10 *604:76 0.000159802
10 *429:10 *1004:18 1.01436e-05
11 *429:10 *1004:26 0.000159652
12 *3448:C *3457:A3 4.73789e-05
13 *3457:A2 *3457:A3 7.58407e-05
14 *109:28 *429:10 5.50049e-05
15 *426:40 *3457:A3 2.46468e-05
*RES
1 *3447:Y *429:10 40.8793 
2 *429:10 *429:12 15 
3 *429:12 *3448:D 23 
4 *429:12 *3457:A3 27.4536 
*END

*D_NET *430 0.000436547
*CONN
*I *3449:A2 I *D sky130_fd_sc_hd__o21a_2
*I *3448:X O *D sky130_fd_sc_hd__and4_2
*CAP
1 *3449:A2 0
2 *3448:X 0.000120983
3 *430:10 0.000120983
4 *3457:A3 *430:10 5.50049e-05
5 *109:28 *430:10 0.000135359
6 *363:32 *430:10 4.21594e-06
*RES
1 *3448:X *430:10 40.5271 
2 *430:10 *3449:A2 38 
*END

*D_NET *431 0.00210772
*CONN
*I *3524:B1 I *D sky130_fd_sc_hd__a31o_2
*I *3453:B2 I *D sky130_fd_sc_hd__a22o_2
*I *3452:X O *D sky130_fd_sc_hd__and3_2
*CAP
1 *3524:B1 0.000191605
2 *3453:B2 0
3 *3452:X 0.000393244
4 *431:10 0.000584848
5 *3524:B1 *3459:A1 5.67058e-05
6 *3524:B1 *3949:RESET_B 6.85236e-05
7 *3524:B1 *1004:12 9.48381e-06
8 *3524:B1 *1004:18 5.67058e-05
9 *431:10 *3448:A 0.000310099
10 *431:10 *3452:C 1.35999e-05
11 *431:10 *3949:RESET_B 0.000110222
12 *431:10 *435:82 9.41704e-05
13 *431:10 *618:134 0
14 *431:10 *634:42 0.000162424
15 *431:10 *924:65 4.51112e-05
16 *364:31 *3524:B1 0
17 *364:31 *431:10 0
18 *426:26 *3524:B1 1.09783e-05
*RES
1 *3452:X *431:10 45.1257 
2 *431:10 *3453:B2 38 
3 *431:10 *3524:B1 41.5007 
*END

*D_NET *432 0.0026992
*CONN
*I *3458:C I *D sky130_fd_sc_hd__and3_2
*I *3457:X O *D sky130_fd_sc_hd__a31o_2
*CAP
1 *3458:C 0
2 *3457:X 0.000694485
3 *432:16 9.18695e-05
4 *432:10 0.000786354
5 *432:10 *3448:A 9.58714e-05
6 *432:10 *3448:B 1.22822e-05
7 *432:10 *3453:A1 7.9166e-05
8 *432:10 *3947:CLK 0.000221997
9 *432:16 *948:14 4.08641e-05
10 *432:16 *948:20 3.57696e-05
11 *3448:C *432:10 0.000268765
12 *3457:A2 *432:10 3.11106e-05
13 *3457:A3 *432:10 2.64836e-05
14 *3458:B *432:16 0.000117036
15 *364:31 *432:10 3.21333e-05
16 *426:16 *432:16 4.51431e-05
17 *426:40 *432:10 0.000119872
*RES
1 *3457:X *432:10 36.6507 
2 *432:10 *432:16 32.2579 
3 *432:16 *3458:C 23 
*END

*D_NET *433 0.00374061
*CONN
*I *3518:B1 I *D sky130_fd_sc_hd__a21o_2
*I *3523:A0 I *D sky130_fd_sc_hd__mux2_1
*I *3461:C1 I *D sky130_fd_sc_hd__a221o_2
*I *3460:X O *D sky130_fd_sc_hd__and3b_2
*CAP
1 *3518:B1 0
2 *3523:A0 0.000251279
3 *3461:C1 0
4 *3460:X 0
5 *433:38 0.000602867
6 *433:10 0.0005326
7 *433:4 0.000884188
8 *3523:A0 *757:8 0
9 *3523:A0 *778:8 0.000214157
10 *433:10 *3460:B 3.16665e-05
11 *433:10 *3460:C 5.65601e-05
12 *433:10 *778:8 6.07611e-06
13 *433:10 *990:35 1.5769e-05
14 *433:10 *1001:62 0.000118707
15 *433:38 *616:10 0.000126847
16 *433:38 *616:72 0.0001164
17 *433:38 *990:35 5.78606e-05
18 *433:38 *1000:29 0.000404047
19 *3454:A1 *433:10 0
20 *108:10 *433:38 0.00032159
*RES
1 *3460:X *433:4 23 
2 *433:4 *433:10 21.3179 
3 *433:10 *3461:C1 38 
4 *433:10 *3523:A0 43.7793 
5 *433:4 *433:38 43.8371 
6 *433:38 *3518:B1 23 
*END

*D_NET *434 0.00854294
*CONN
*I *3687:C1 I *D sky130_fd_sc_hd__a221o_2
*I *3690:B1 I *D sky130_fd_sc_hd__a21o_2
*I *3689:B1 I *D sky130_fd_sc_hd__a21oi_2
*I *3692:A2 I *D sky130_fd_sc_hd__a22o_2
*I *3694:A2 I *D sky130_fd_sc_hd__a22o_2
*I *3696:A2 I *D sky130_fd_sc_hd__a22o_2
*I *3463:Y O *D sky130_fd_sc_hd__nor2_2
*CAP
1 *3687:C1 0.00011714
2 *3690:B1 0
3 *3689:B1 0
4 *3692:A2 0.00022785
5 *3694:A2 0
6 *3696:A2 5.615e-05
7 *3463:Y 0.000144594
8 *434:73 0.000175224
9 *434:43 0.000493853
10 *434:22 0.00183527
11 *434:18 0.00172399
12 *434:16 0.000323883
13 *434:12 0.000405367
14 *434:10 0.000144594
15 *3687:C1 *3445:A 1.42975e-05
16 *3687:C1 *618:12 4.55107e-05
17 *3692:A2 *3692:A1 4.10403e-05
18 *3692:A2 *3694:B1 0.000103839
19 *3692:A2 *564:14 0.000145171
20 *3696:A2 *3898:CLK 1.60285e-05
21 *3696:A2 *632:12 0.000143166
22 *434:10 *618:57 5.45652e-05
23 *434:10 *981:39 0.000141355
24 *434:10 *1002:51 7.42423e-05
25 *434:16 *3690:A1 0.000294454
26 *434:16 *847:20 9.98069e-06
27 *434:18 *3690:A1 5.55743e-06
28 *434:22 *4244:A 1.84917e-05
29 *434:22 *563:6 0.000120817
30 *434:22 *563:22 0.000435252
31 *434:43 *3694:B1 1.46586e-05
32 *434:43 *564:14 0.00013522
33 *434:43 *632:12 0.000425504
34 *434:43 *742:10 1.13812e-05
35 *434:73 *446:10 0.000100477
36 *434:73 *448:18 4.41821e-06
37 *434:73 *562:14 7.19639e-05
38 *434:73 *924:35 4.07503e-05
39 *3687:B2 *3687:C1 6.39489e-06
40 *106:10 *434:73 1.47795e-05
41 *309:10 *3696:A2 0.000138747
42 *309:10 *434:43 3.67392e-05
43 *427:12 *3687:C1 9.43273e-05
44 *427:12 *434:10 3.67392e-05
45 *428:12 *434:10 9.91548e-05
*RES
1 *3463:Y *434:10 41.8321 
2 *434:10 *434:12 15 
3 *434:12 *434:16 5.75857 
4 *434:16 *434:18 0.849286 
5 *434:18 *434:22 36.5843 
6 *434:22 *3696:A2 40.0766 
7 *434:22 *434:43 22.4209 
8 *434:43 *3694:A2 23 
9 *434:43 *3692:A2 28.7171 
10 *434:18 *434:73 33.9771 
11 *434:73 *3689:B1 23 
12 *434:16 *3690:B1 23 
13 *434:12 *3687:C1 26.335 
*END

*D_NET *435 0.0130397
*CONN
*I *3465:A2 I *D sky130_fd_sc_hd__a21oi_2
*I *3688:A2 I *D sky130_fd_sc_hd__o21a_2
*I *3704:A2 I *D sky130_fd_sc_hd__o22a_2
*I *3700:A2 I *D sky130_fd_sc_hd__o22a_2
*I *3698:A2 I *D sky130_fd_sc_hd__o22a_2
*I *3702:A2 I *D sky130_fd_sc_hd__o22a_2
*I *3464:X O *D sky130_fd_sc_hd__or2_2
*CAP
1 *3465:A2 1.78309e-05
2 *3688:A2 0
3 *3704:A2 0
4 *3700:A2 0
5 *3698:A2 0.000314023
6 *3702:A2 0
7 *3464:X 0.00111085
8 *435:82 0.000152068
9 *435:61 0.000135678
10 *435:32 0.000680648
11 *435:22 0.00166728
12 *435:14 0.00177541
13 *435:12 0.00146748
14 *435:8 0.0012056
15 *3465:A2 *1002:45 7.8143e-05
16 *3465:A2 *1007:10 7.8143e-05
17 *3698:A2 *3698:A1 0.000140312
18 *3698:A2 *3902:CLK 5.29888e-05
19 *3698:A2 *567:16 9.80703e-06
20 *3698:A2 *608:77 0.000132749
21 *3698:A2 *608:79 0.000189587
22 *435:8 *3688:B1 0.000279661
23 *435:8 *634:42 5.82853e-05
24 *435:8 *981:39 0.000541838
25 *435:12 *720:10 0.000234542
26 *435:14 *3700:A1 2.64616e-05
27 *435:14 *3899:CLK 7.14661e-05
28 *435:14 *4223:A 6.55396e-05
29 *435:22 *3700:A1 2.64616e-05
30 *435:22 *3700:B1 0.000452455
31 *435:22 *3700:B2 7.23581e-05
32 *435:22 *3901:RESET_B 2.57362e-05
33 *435:22 *563:47 0.000103948
34 *435:22 *954:10 2.03764e-06
35 *435:32 *3484:A2 3.52734e-05
36 *435:32 *3902:CLK 0.000193362
37 *435:32 *438:8 0.000359701
38 *435:32 *909:33 4.55909e-05
39 *435:32 *982:48 0
40 *435:32 *983:31 6.17437e-06
41 *435:32 *983:46 1.41129e-05
42 *435:61 *563:22 9.91548e-05
43 *435:61 *720:10 8.36198e-05
44 *435:61 *951:25 3.88629e-05
45 *435:82 *924:65 9.66668e-05
46 *435:82 *948:26 3.93804e-05
47 *109:28 *435:82 1.13812e-05
48 *109:34 *435:82 0.000162263
49 *312:10 *3698:A2 0.000297413
50 *312:10 *435:32 0.000293165
51 *431:10 *435:82 9.41704e-05
*RES
1 *3464:X *435:8 37.4586 
2 *435:8 *435:12 5.40643 
3 *435:12 *435:14 13.9614 
4 *435:14 *435:22 27.5736 
5 *435:22 *435:32 27.1593 
6 *435:32 *3702:A2 23 
7 *435:22 *3698:A2 45.1257 
8 *435:14 *3700:A2 23 
9 *435:12 *435:61 32.2993 
10 *435:61 *3704:A2 23 
11 *435:8 *3688:A2 23 
12 *3464:X *435:82 41.3557 
13 *435:82 *3465:A2 38.8596 
*END

*D_NET *436 0.00193652
*CONN
*I *3466:B I *D sky130_fd_sc_hd__nor2_2
*I *3465:Y O *D sky130_fd_sc_hd__a21oi_2
*CAP
1 *3466:B 0.000336725
2 *3465:Y 0.000218624
3 *436:10 0.000555349
4 *3466:B *1002:16 0.00041079
5 *3466:B *1002:20 5.5792e-05
6 *436:10 *3952:RESET_B 0.000111106
7 *436:10 *948:20 4.05745e-05
8 *436:10 *1002:45 9.41704e-05
9 *361:10 *436:10 0.000113389
*RES
1 *3465:Y *436:10 41.6043 
2 *436:10 *3466:B 44.8357 
*END

*D_NET *437 0.00317823
*CONN
*I *3484:A1 I *D sky130_fd_sc_hd__a221o_2
*I *3472:Y O *D sky130_fd_sc_hd__nand2_2
*CAP
1 *3484:A1 0
2 *3472:Y 5.31332e-05
3 *437:16 0.000704557
4 *437:8 0.00075769
5 *437:8 *983:24 3.7122e-06
6 *437:16 *3484:B2 1.28818e-05
7 *437:16 *3484:C1 9.65021e-05
8 *437:16 *3856:RESET_B 2.56078e-05
9 *437:16 *3902:RESET_B 0.000385615
10 *437:16 *442:14 6.34173e-05
11 *437:16 *813:12 0.000142618
12 *437:16 *841:14 0.000234831
13 *437:16 *913:27 5.4877e-05
14 *437:16 *913:44 0.000360362
15 *437:16 *982:10 0.000117818
16 *437:16 *982:58 0.00016461
*RES
1 *3472:Y *437:8 38.6214 
2 *437:8 *437:16 33.5807 
3 *437:16 *3484:A1 23 
*END

*D_NET *438 0.00362834
*CONN
*I *3484:A2 I *D sky130_fd_sc_hd__a221o_2
*I *3473:X O *D sky130_fd_sc_hd__or2_2
*CAP
1 *3484:A2 0.000498024
2 *3473:X 0.000427844
3 *438:8 0.000925869
4 *3484:A2 *449:12 5.67006e-05
5 *3484:A2 *848:18 2.33476e-05
6 *3484:A2 *909:33 0.000138007
7 *3484:A2 *913:27 9.96707e-05
8 *3484:A2 *983:14 0
9 *438:8 *3702:A1 5.82853e-05
10 *438:8 *3702:B1 0.000143423
11 *438:8 *569:24 0.00049066
12 *438:8 *841:38 1.10658e-05
13 *438:8 *983:46 0.000185368
14 *3697:S *3484:A2 0
15 *36:17 *3484:A2 0.000175104
16 *435:32 *3484:A2 3.52734e-05
17 *435:32 *438:8 0.000359701
*RES
1 *3473:X *438:8 49.1029 
2 *438:8 *3484:A2 48.0568 
*END

*D_NET *439 0.000438308
*CONN
*I *3483:A1 I *D sky130_fd_sc_hd__a22o_2
*I *3474:X O *D sky130_fd_sc_hd__or2_2
*CAP
1 *3483:A1 0
2 *3474:X 0.000115379
3 *439:10 0.000115379
4 *439:10 *3474:B 3.04021e-05
5 *439:10 *4113:A 2.64616e-05
6 *439:10 *847:20 0.000138718
7 *439:10 *988:29 1.19692e-05
*RES
1 *3474:X *439:10 40.5271 
2 *439:10 *3483:A1 38 
*END

*D_NET *440 0.000308168
*CONN
*I *3483:A2 I *D sky130_fd_sc_hd__a22o_2
*I *3475:Y O *D sky130_fd_sc_hd__nand2_2
*CAP
1 *3483:A2 6.86419e-05
2 *3475:Y 6.86419e-05
3 *3483:A2 *3475:B 9.67842e-05
4 *3483:A2 *3703:A0 4.01374e-05
5 *427:20 *3483:A2 3.3963e-05
*RES
1 *3475:Y *3483:A2 47.7814 
*END

*D_NET *441 0.00260435
*CONN
*I *3485:A I *D sky130_fd_sc_hd__or4_2
*I *3476:X O *D sky130_fd_sc_hd__xor2_2
*CAP
1 *3485:A 0
2 *3476:X 0.00014209
3 *441:16 0.000543432
4 *441:8 0.000685522
5 *441:16 *447:14 0.000154977
6 *441:16 *448:18 2.95423e-05
7 *441:16 *449:20 0.000564167
8 *441:16 *562:14 0.000187363
9 *441:16 *569:24 4.67488e-05
10 *441:16 *632:65 8.14166e-05
11 *441:16 *854:26 0
12 *37:17 *441:16 0
13 *270:10 *441:8 5.50049e-05
14 *270:10 *441:16 0.000114083
*RES
1 *3476:X *441:8 40.5271 
2 *441:8 *441:16 28.9614 
3 *441:16 *3485:A 23 
*END

*D_NET *442 0.0034451
*CONN
*I *3484:B1 I *D sky130_fd_sc_hd__a221o_2
*I *3477:X O *D sky130_fd_sc_hd__or2_2
*CAP
1 *3484:B1 0
2 *3477:X 4.47319e-05
3 *442:14 0.000666666
4 *442:8 0.000711398
5 *442:14 *3479:B 1.69668e-05
6 *442:14 *3484:B2 0.000149174
7 *442:14 *3484:C1 5.56356e-05
8 *442:14 *3628:A1 0.000213472
9 *442:14 *4318:A 1.06805e-05
10 *442:14 *444:10 0.000209985
11 *442:14 *814:10 0.000289231
12 *442:14 *841:38 0.000173703
13 *442:14 *908:122 1.02387e-05
14 *442:14 *913:27 0.000188927
15 *442:14 *913:44 0
16 *442:14 *982:48 5.03487e-05
17 *442:14 *983:24 0.000444073
18 *47:21 *442:14 5.17321e-05
19 *310:8 *442:14 9.47208e-05
20 *437:16 *442:14 6.34173e-05
*RES
1 *3477:X *442:8 38.6214 
2 *442:8 *442:14 34.0986 
3 *442:14 *3484:B1 23 
*END

*D_NET *443 0.00362513
*CONN
*I *3484:B2 I *D sky130_fd_sc_hd__a221o_2
*I *3478:Y O *D sky130_fd_sc_hd__nand2_2
*CAP
1 *3484:B2 0.000300656
2 *3478:Y 0.000603989
3 *443:8 0.000904645
4 *3484:B2 *3628:A1 0.000213472
5 *3484:B2 *841:38 0.000108129
6 *3484:B2 *982:10 0.000189965
7 *3484:B2 *982:21 0.00033009
8 *3484:B2 *983:14 3.72639e-05
9 *443:8 *3478:A 1.61385e-05
10 *443:8 *3630:A0 7.34019e-05
11 *443:8 *814:10 0.000135037
12 *443:8 *908:73 0.000141347
13 *443:8 *982:33 0.000218115
14 *443:8 *983:24 0.000137525
15 *268:10 *443:8 5.3304e-05
16 *437:16 *3484:B2 1.28818e-05
17 *442:14 *3484:B2 0.000149174
*RES
1 *3478:Y *443:8 49.1029 
2 *443:8 *3484:B2 46.3945 
*END

*D_NET *444 0.0013155
*CONN
*I *3484:C1 I *D sky130_fd_sc_hd__a221o_2
*I *3479:X O *D sky130_fd_sc_hd__xor2_2
*CAP
1 *3484:C1 2.85737e-05
2 *3479:X 0.000191659
3 *444:10 0.000220233
4 *3484:C1 *913:27 2.4732e-05
5 *444:10 *3479:B 0.000138444
6 *444:10 *852:20 1.76557e-05
7 *444:10 *908:63 9.67842e-05
8 *444:10 *908:73 0.000136738
9 *444:10 *908:122 9.43144e-05
10 *444:10 *913:44 4.24694e-06
11 *437:16 *3484:C1 9.65021e-05
12 *442:14 *3484:C1 5.56356e-05
13 *442:14 *444:10 0.000209985
*RES
1 *3479:X *444:10 43.4893 
2 *444:10 *3484:C1 39.0979 
*END

*D_NET *445 0.00123817
*CONN
*I *3483:B1 I *D sky130_fd_sc_hd__a22o_2
*I *3480:X O *D sky130_fd_sc_hd__or2_2
*CAP
1 *3483:B1 2.66333e-05
2 *3480:X 0.000275712
3 *445:10 0.000302345
4 *3483:B1 *3703:A0 2.64616e-05
5 *445:10 *4113:A 2.18409e-05
6 *445:10 *4295:A 0.000312348
7 *445:10 *446:10 7.91596e-05
8 *445:10 *847:20 0.000164291
9 *427:20 *3483:B1 2.93747e-05
*RES
1 *3480:X *445:10 44.2143 
2 *445:10 *3483:B1 38.6214 
*END

*D_NET *446 0.00133613
*CONN
*I *3483:B2 I *D sky130_fd_sc_hd__a22o_2
*I *3481:Y O *D sky130_fd_sc_hd__nand2_2
*CAP
1 *3483:B2 1.55343e-05
2 *3481:Y 0.000365451
3 *446:10 0.000380985
4 *3483:B2 *3703:A0 2.93845e-05
5 *446:10 *448:18 5.5792e-05
6 *446:10 *562:14 2.60063e-05
7 *446:10 *847:20 6.02749e-05
8 *106:10 *446:10 0.000190782
9 *427:20 *3483:B2 3.22879e-05
10 *434:73 *446:10 0.000100477
11 *445:10 *446:10 7.91596e-05
*RES
1 *3481:Y *446:10 45.9543 
2 *446:10 *3483:B2 38.6214 
*END

*D_NET *447 0.00212674
*CONN
*I *3485:B I *D sky130_fd_sc_hd__or4_2
*I *3482:X O *D sky130_fd_sc_hd__xor2_2
*CAP
1 *3485:B 0.000125135
2 *3482:X 0.00050987
3 *447:14 0.000635005
4 *3485:B *569:24 7.17698e-05
5 *447:14 *3695:A0 5.56279e-05
6 *447:14 *850:26 0.000142173
7 *447:14 *912:35 9.58714e-05
8 *37:17 *447:14 1.7768e-05
9 *427:43 *447:14 0.000214339
10 *427:55 *447:14 0.000104205
11 *441:16 *447:14 0.000154977
*RES
1 *3482:X *447:14 49.8279 
2 *447:14 *3485:B 39.5743 
*END

*D_NET *448 0.0032546
*CONN
*I *3485:C I *D sky130_fd_sc_hd__or4_2
*I *3483:X O *D sky130_fd_sc_hd__a22o_2
*CAP
1 *3485:C 0
2 *3483:X 0.000332779
3 *448:18 0.000613445
4 *448:8 0.000946224
5 *448:8 *3703:A1 6.17437e-06
6 *448:18 *3481:A 5.58003e-05
7 *448:18 *562:14 0.000183309
8 *448:18 *800:8 0.000218023
9 *448:18 *845:10 0
10 *448:18 *847:20 0
11 *106:10 *448:18 0.000380848
12 *427:20 *448:8 0.000400198
13 *427:29 *448:8 2.80512e-05
14 *434:73 *448:18 4.41821e-06
15 *441:16 *448:18 2.95423e-05
16 *446:10 *448:18 5.5792e-05
*RES
1 *3483:X *448:8 43.3857 
2 *448:8 *448:18 28.8164 
3 *448:18 *3485:C 23 
*END

*D_NET *449 0.00598734
*CONN
*I *3485:D I *D sky130_fd_sc_hd__or4_2
*I *3484:X O *D sky130_fd_sc_hd__a221o_2
*CAP
1 *3485:D 0
2 *3484:X 0.000129229
3 *449:20 0.00184804
4 *449:12 0.00197727
5 *449:12 *913:27 1.32939e-05
6 *449:20 *3704:B2 7.6774e-06
7 *449:20 *569:8 0.000347446
8 *449:20 *632:65 8.95443e-05
9 *449:20 *848:18 1.41966e-05
10 *449:20 *875:43 0.000844517
11 *449:20 *908:32 0
12 *449:20 *908:59 7.47018e-05
13 o_transmit_data_request *449:20 0
14 *3484:A2 *449:12 5.67006e-05
15 *36:17 *449:12 2.05503e-05
16 *46:15 *449:20 0
17 *441:16 *449:20 0.000564167
*RES
1 *3484:X *449:12 47.8954 
2 *449:12 *449:20 35.4089 
3 *449:20 *3485:D 23 
*END

*D_NET *450 0.000813147
*CONN
*I *3487:B1 I *D sky130_fd_sc_hd__a21o_2
*I *3486:X O *D sky130_fd_sc_hd__xor2_2
*CAP
1 *3487:B1 2.49784e-05
2 *3486:X 0.000252758
3 *450:8 0.000277737
4 *3487:B1 *451:10 7.53384e-06
5 *3487:B1 *656:109 5.41385e-05
6 *3487:B1 *902:46 3.53115e-05
7 *450:8 *896:146 0.00016069
8 *450:8 *1069:18 0
*RES
1 *3486:X *450:8 44.1314 
2 *450:8 *3487:B1 39.0979 
*END

*D_NET *451 0.00512833
*CONN
*I *3494:A I *D sky130_fd_sc_hd__nor3_2
*I *3530:A1 I *D sky130_fd_sc_hd__o31a_2
*I *3487:X O *D sky130_fd_sc_hd__a21o_2
*CAP
1 *3494:A 0.000218643
2 *3530:A1 0
3 *3487:X 0.000380495
4 *451:18 0.00047732
5 *451:10 0.00107646
6 *3494:A *3488:D_N 0.00010026
7 *451:10 *3534:A3 5.3304e-05
8 *451:10 *453:10 1.27508e-05
9 *451:10 *454:25 1.47563e-05
10 *451:10 *457:25 1.14452e-05
11 *451:10 *483:27 4.08537e-05
12 *451:10 *656:109 0.000111432
13 *451:10 *897:60 0.000376925
14 *451:10 *902:46 0.000563681
15 *451:10 *904:25 2.98648e-05
16 *451:10 *1079:12 0.000148103
17 *451:10 *1079:16 5.79427e-05
18 *451:18 *3357:A 0
19 *451:18 *3490:A 2.60152e-05
20 *451:18 *3530:A3 0.000359326
21 *451:18 *3810:A2 0.000111852
22 *451:18 *457:8 6.7177e-06
23 *451:18 *457:25 0.00058917
24 *451:18 *897:60 6.25829e-05
25 *451:18 *904:44 7.06812e-05
26 *3487:B1 *451:10 7.53384e-06
27 *389:21 *451:18 7.82647e-05
28 *389:34 *451:18 0.000141954
*RES
1 *3487:X *451:10 49.7657 
2 *451:10 *451:18 28.6507 
3 *451:18 *3530:A1 23 
4 *451:10 *3494:A 42.1636 
*END

*D_NET *452 0.00120895
*CONN
*I *3490:B I *D sky130_fd_sc_hd__or4b_2
*I *3488:X O *D sky130_fd_sc_hd__or4b_2
*CAP
1 *3490:B 0.000345052
2 *3488:X 9.2124e-05
3 *452:8 0.000437176
4 *3490:B *454:25 3.82058e-06
5 *452:8 *797:12 0.000108662
6 *452:8 *896:146 0.000222113
*RES
1 *3488:X *452:8 40.9621 
2 *452:8 *3490:B 41.9564 
*END

*D_NET *453 0.00167393
*CONN
*I *3490:C I *D sky130_fd_sc_hd__or4b_2
*I *3489:X O *D sky130_fd_sc_hd__and2b_2
*CAP
1 *3490:C 0
2 *3489:X 0.000345528
3 *453:10 0.000345528
4 *453:10 *454:25 0.000245818
5 *453:10 *483:27 8.4047e-05
6 *453:10 *881:137 0.000373081
7 *453:10 *1079:31 0.000267173
8 *451:10 *453:10 1.27508e-05
*RES
1 *3489:X *453:10 46.0786 
2 *453:10 *3490:C 38 
*END

*D_NET *454 0.0024247
*CONN
*I *3494:B I *D sky130_fd_sc_hd__nor3_2
*I *3530:A2 I *D sky130_fd_sc_hd__o31a_2
*I *3490:X O *D sky130_fd_sc_hd__or4b_2
*CAP
1 *3494:B 0
2 *3530:A2 0
3 *3490:X 0
4 *454:25 0.000269521
5 *454:12 0.000582452
6 *454:4 0.000851973
7 *454:12 *3490:A 7.53384e-06
8 *454:12 *3490:D_N 7.05498e-05
9 *454:12 *3810:A2 2.25419e-05
10 *454:12 *479:10 0
11 *454:12 *904:44 0
12 *454:12 *904:57 0
13 *454:25 *3490:A 5.41288e-05
14 *454:25 *457:25 0.000274553
15 *454:25 *881:137 2.70469e-05
16 *3490:B *454:25 3.82058e-06
17 *389:12 *454:12 0
18 *389:34 *454:12 0
19 *451:10 *454:25 1.47563e-05
20 *453:10 *454:25 0.000245818
*RES
1 *3490:X *454:4 23 
2 *454:4 *454:12 38.555 
3 *454:12 *3530:A2 23 
4 *454:4 *454:25 36.0693 
5 *454:25 *3494:B 23 
*END

*D_NET *455 0.00103056
*CONN
*I *3493:A I *D sky130_fd_sc_hd__or2_2
*I *3491:X O *D sky130_fd_sc_hd__or4_2
*CAP
1 *3493:A 5.39135e-05
2 *3491:X 0.000316489
3 *455:10 0.000370403
4 *455:10 *605:82 0.000111852
5 *455:10 *904:86 0.000177899
6 *455:10 *1075:18 0
7 *455:10 *1077:33 0
*RES
1 *3491:X *455:10 44.4421 
2 *455:10 *3493:A 38.6214 
*END

*D_NET *456 0.00247755
*CONN
*I *3493:B I *D sky130_fd_sc_hd__or2_2
*I *3492:X O *D sky130_fd_sc_hd__or4_2
*CAP
1 *3493:B 0.000417911
2 *3492:X 0.000384922
3 *456:10 0.000802834
4 *3493:B *493:10 5.50106e-05
5 *3493:B *612:78 5.41288e-05
6 *456:10 *3492:C 0.000230604
7 *456:10 *3551:C 1.01436e-05
8 *456:10 *3556:B 0.000184527
9 *456:10 *493:10 7.91493e-05
10 *456:10 *493:12 8.51329e-05
11 *456:10 *497:8 0.000155029
12 *456:10 *498:10 0
13 *456:10 *904:105 7.76364e-06
14 *456:10 *1072:24 1.03955e-05
*RES
1 *3492:X *456:10 47.6321 
2 *456:10 *3493:B 45.2914 
*END

*D_NET *457 0.00401127
*CONN
*I *3494:C I *D sky130_fd_sc_hd__nor3_2
*I *3530:A3 I *D sky130_fd_sc_hd__o31a_2
*I *3493:X O *D sky130_fd_sc_hd__or2_2
*CAP
1 *3494:C 0
2 *3530:A3 0.000153259
3 *3493:X 0.000436658
4 *457:25 0.00021342
5 *457:12 0.000439959
6 *457:8 0.000509938
7 *3530:A3 *904:44 0.000143655
8 *457:8 *501:25 0
9 *457:8 *502:8 8.16253e-05
10 *457:8 *605:82 0.000208081
11 *457:8 *881:103 0.000191148
12 *457:8 *881:137 0.000240695
13 *457:25 *881:137 9.90033e-05
14 *129:8 *457:8 5.26204e-05
15 *389:34 *457:8 0
16 *451:10 *457:25 1.14452e-05
17 *451:18 *3530:A3 0.000359326
18 *451:18 *457:8 6.7177e-06
19 *451:18 *457:25 0.00058917
20 *454:25 *457:25 0.000274553
*RES
1 *3493:X *457:8 49.4136 
2 *457:8 *457:12 16.0979 
3 *457:12 *3530:A3 27.4329 
4 *457:12 *457:25 37.8921 
5 *457:25 *3494:C 23 
*END

*D_NET *458 0.00118064
*CONN
*I *3497:B1 I *D sky130_fd_sc_hd__a211o_2
*I *3495:X O *D sky130_fd_sc_hd__and2b_2
*CAP
1 *3497:B1 8.6547e-05
2 *3495:X 0.000187818
3 *458:10 0.000274365
4 *3497:B1 *3497:A1 5.55687e-05
5 *458:10 *459:8 0.000349386
6 *458:10 *886:16 5.50106e-05
7 *458:10 *1109:46 0.000171941
*RES
1 *3495:X *458:10 43.3443 
2 *458:10 *3497:B1 39.595 
*END

*D_NET *459 0.00172025
*CONN
*I *3497:C1 I *D sky130_fd_sc_hd__a211o_2
*I *3496:X O *D sky130_fd_sc_hd__and2b_2
*CAP
1 *3497:C1 0
2 *3496:X 0.000354815
3 *459:8 0.000354815
4 *459:8 *3496:B 0.000130685
5 *459:8 *610:19 0.000398664
6 *459:8 *660:31 0
7 *459:8 *1109:46 1.31651e-05
8 *171:8 *459:8 3.81391e-05
9 *244:8 *459:8 8.05808e-05
10 *458:10 *459:8 0.000349386
*RES
1 *3496:X *459:8 48.7093 
2 *459:8 *3497:C1 38 
*END

*D_NET *460 0.00442217
*CONN
*I *3504:A I *D sky130_fd_sc_hd__nor3_2
*I *3574:A1 I *D sky130_fd_sc_hd__o31a_2
*I *3497:X O *D sky130_fd_sc_hd__a211o_2
*CAP
1 *3504:A 0.000103518
2 *3574:A1 0.00016235
3 *3497:X 0.000499725
4 *460:10 0.00098207
5 *460:8 0.00121593
6 *3504:A *901:51 9.52677e-05
7 *3574:A1 *3574:A2 0.000228903
8 *3574:A1 *466:22 0.000143655
9 *460:10 *3498:D_N 8.38531e-05
10 *460:10 *662:33 0.000222113
11 *460:10 *901:40 0.000125915
12 *460:10 *901:51 0.000449274
13 *460:10 *1106:8 5.62433e-05
14 *243:10 *460:10 5.33546e-05
*RES
1 *3497:X *460:8 47.1971 
2 *460:8 *460:10 17.4 
3 *460:10 *3574:A1 41.9564 
4 *460:10 *3504:A 40.61 
*END

*D_NET *461 0.000406452
*CONN
*I *3500:B I *D sky130_fd_sc_hd__or4b_2
*I *3498:X O *D sky130_fd_sc_hd__or4b_2
*CAP
1 *3500:B 0.000168055
2 *3498:X 0.000168055
3 *3500:B *3500:C 7.03432e-05
*RES
1 *3498:X *3500:B 49.2418 
*END

*D_NET *462 0.00204954
*CONN
*I *3500:C I *D sky130_fd_sc_hd__or4b_2
*I *3499:X O *D sky130_fd_sc_hd__and2b_2
*CAP
1 *3500:C 0.000371258
2 *3499:X 0.000286323
3 *462:8 0.000657582
4 *3500:C *3498:B 2.65879e-05
5 *3500:C *3498:C 0.000315852
6 *3500:C *1097:51 0
7 *462:8 *511:21 0.00032159
8 *462:8 *1105:62 0
9 *462:8 *1107:34 0
10 *3500:B *3500:C 7.03432e-05
*RES
1 *3499:X *462:8 43.4271 
2 *462:8 *3500:C 45.7886 
*END

*D_NET *463 0.00180147
*CONN
*I *3504:B I *D sky130_fd_sc_hd__nor3_2
*I *3574:A2 I *D sky130_fd_sc_hd__o31a_2
*I *3500:X O *D sky130_fd_sc_hd__or4b_2
*CAP
1 *3504:B 8.11567e-05
2 *3574:A2 0.000127635
3 *3500:X 0.000137188
4 *463:8 0.000345979
5 *3504:B *466:22 8.51432e-05
6 *3504:B *901:51 0.000222113
7 *3504:B *903:64 0
8 *3574:A2 *466:22 3.61695e-05
9 *3574:A2 *507:10 2.93747e-05
10 *463:8 *507:10 9.74132e-05
11 *463:8 *507:16 5.56203e-05
12 *463:8 *901:51 0.000354778
13 *463:8 *903:64 0
14 *3574:A1 *3574:A2 0.000228903
*RES
1 *3500:X *463:8 42.7229 
2 *463:8 *3574:A2 41.5007 
3 *463:8 *3504:B 40.9621 
*END

*D_NET *464 0.00246707
*CONN
*I *3503:A I *D sky130_fd_sc_hd__or2_2
*I *3501:X O *D sky130_fd_sc_hd__or4_2
*CAP
1 *3503:A 0.000171194
2 *3501:X 0.000574333
3 *464:8 0.000745527
4 *3503:A *3609:B 0.000163352
5 *3503:A *466:12 0.000156143
6 *3503:A *527:8 0
7 *464:8 *518:52 0.000267173
8 *464:8 *529:8 8.39276e-05
9 *464:8 *531:10 0.000305425
*RES
1 *3501:X *464:8 46.2443 
2 *464:8 *3503:A 42.3707 
*END

*D_NET *465 0.00240794
*CONN
*I *3503:B I *D sky130_fd_sc_hd__or2_2
*I *3502:X O *D sky130_fd_sc_hd__or4_2
*CAP
1 *3503:B 0.000634834
2 *3502:X 0.000198567
3 *465:10 0.000833402
4 *3503:B *3601:C 0.000281196
5 *3503:B *3605:A1 4.94073e-05
6 *3503:B *3605:B1 0.00014196
7 *465:10 *3601:A 0
8 *465:10 *3602:C 0.000184527
9 *465:10 *609:95 8.4047e-05
*RES
1 *3502:X *465:10 41.2521 
2 *465:10 *3503:B 48.7921 
*END

*D_NET *466 0.00344741
*CONN
*I *3504:C I *D sky130_fd_sc_hd__nor3_2
*I *3574:A3 I *D sky130_fd_sc_hd__o31a_2
*I *3503:X O *D sky130_fd_sc_hd__or2_2
*CAP
1 *3504:C 0
2 *3574:A3 0
3 *3503:X 0
4 *466:22 0.000264737
5 *466:12 0.00145176
6 *466:6 0.00118702
7 *466:12 *3609:B 2.83386e-05
8 *466:12 *511:107 9.85586e-06
9 *466:12 *518:52 0
10 *466:12 *525:12 4.979e-05
11 *466:12 *526:27 1.02561e-05
12 *466:12 *661:65 0
13 *466:12 *901:51 0
14 *466:12 *901:96 0
15 *466:12 *901:107 0
16 *466:12 *1100:34 1.67942e-05
17 *466:12 *1101:8 0
18 *466:12 *1101:20 0
19 *466:12 *1113:27 0
20 *466:22 *901:51 7.75329e-06
21 *466:22 *903:64 0
22 *3503:A *466:12 0.000156143
23 *3504:B *466:22 8.51432e-05
24 *3574:A1 *466:22 0.000143655
25 *3574:A2 *466:22 3.61695e-05
26 *252:8 *466:12 0
*RES
1 *3503:X *466:6 38 
2 *466:6 *466:12 35.7764 
3 *466:12 *466:22 35.6343 
4 *466:22 *3574:A3 23 
5 *466:12 *3504:C 23 
*END

*D_NET *467 0.000844415
*CONN
*I *3509:C1 I *D sky130_fd_sc_hd__o221a_2
*I *3505:Y O *D sky130_fd_sc_hd__xnor2_2
*CAP
1 *3509:C1 0
2 *3505:Y 0.000267303
3 *467:10 0.000267303
4 *467:10 *646:63 0.000189806
5 *467:10 *1058:14 6.16439e-05
6 *467:10 *1058:27 3.96053e-05
7 *467:10 *1061:14 8.61037e-06
8 *3511:B2 *467:10 0
9 *3512:A1 *467:10 1.01436e-05
*RES
1 *3505:Y *467:10 44.0486 
2 *467:10 *3509:C1 38 
*END

*D_NET *468 0.00387573
*CONN
*I *3513:C1 I *D sky130_fd_sc_hd__a221oi_2
*I *3506:X O *D sky130_fd_sc_hd__xor2_2
*CAP
1 *3513:C1 0
2 *3506:X 0.000646295
3 *468:16 0.000466859
4 *468:10 0.00111315
5 *468:10 *3506:B 2.8521e-05
6 *468:10 *1043:35 0.000247694
7 *468:16 *3383:A1 0
8 *468:16 *470:8 0.00046597
9 *468:16 *471:10 0.000336732
10 *468:16 *475:10 0.000397716
11 *468:16 *1048:35 6.36877e-05
12 *3383:A2 *468:16 0
13 *3510:A1 *468:16 0
14 *3513:B2 *468:16 1.32314e-05
15 *358:8 *468:16 9.58714e-05
*RES
1 *3506:X *468:10 47.2179 
2 *468:10 *468:16 28.2157 
3 *468:16 *3513:C1 23 
*END

*D_NET *469 0.00202467
*CONN
*I *3510:C1 I *D sky130_fd_sc_hd__a221o_2
*I *3507:X O *D sky130_fd_sc_hd__xor2_2
*CAP
1 *3510:C1 0.000103245
2 *3507:X 0.000517462
3 *469:8 0.000620706
4 *3510:C1 *1056:6 0.000139352
5 *469:8 *3797:A2 0
6 *469:8 *876:26 4.7869e-05
7 *469:8 *876:55 0.00030437
8 *469:8 *876:70 7.44353e-05
9 *469:8 *890:29 0
10 *469:8 *890:60 0
11 *469:8 *890:79 0
12 *207:8 *469:8 0
13 *209:8 *469:8 0
14 *387:35 *3510:C1 0.000180218
15 *387:35 *469:8 3.70094e-05
*RES
1 *3507:X *469:8 49.7657 
2 *469:8 *3510:C1 40.5271 
*END

*D_NET *470 0.00117806
*CONN
*I *3514:A I *D sky130_fd_sc_hd__and3_2
*I *3508:Y O *D sky130_fd_sc_hd__xnor2_2
*CAP
1 *3514:A 0
2 *3508:Y 0.000348679
3 *470:8 0.000348679
4 *470:8 *3508:A 1.19692e-05
5 *3383:A2 *470:8 0
6 *3510:A1 *470:8 2.76611e-06
7 *468:16 *470:8 0.00046597
*RES
1 *3508:Y *470:8 46.2443 
2 *470:8 *3514:A 38 
*END

*D_NET *471 0.00174735
*CONN
*I *3514:B I *D sky130_fd_sc_hd__and3_2
*I *3509:X O *D sky130_fd_sc_hd__o221a_2
*CAP
1 *3514:B 0.000105933
2 *3509:X 0.000419124
3 *471:10 0.000525057
4 *471:10 *472:8 7.81176e-05
5 *471:10 *1044:66 0
6 *3509:A1 *471:10 2.36844e-05
7 *3510:A1 *471:10 5.19151e-05
8 *3513:B2 *471:10 0.000110913
9 *355:18 *471:10 0
10 *357:12 *471:10 9.58714e-05
11 *468:16 *471:10 0.000336732
*RES
1 *3509:X *471:10 45.9336 
2 *471:10 *3514:B 39.0979 
*END

*D_NET *472 0.000708017
*CONN
*I *3515:A_N I *D sky130_fd_sc_hd__and3b_2
*I *3510:X O *D sky130_fd_sc_hd__a221o_2
*CAP
1 *3515:A_N 7.2972e-05
2 *3510:X 7.71254e-05
3 *472:8 0.000150097
4 *3515:A_N *606:88 2.64616e-05
5 *3515:A_N *625:80 0.000137651
6 *3510:A1 *472:8 0.000165593
7 *471:10 *472:8 7.81176e-05
*RES
1 *3510:X *472:8 40.2579 
2 *472:8 *3515:A_N 39.5743 
*END

*D_NET *473 0.00223134
*CONN
*I *3512:C1 I *D sky130_fd_sc_hd__o221a_2
*I *3511:X O *D sky130_fd_sc_hd__o2bb2a_2
*CAP
1 *3512:C1 0.000427503
2 *3511:X 6.90544e-05
3 *473:8 0.000496557
4 *3512:C1 *3512:B1 1.28818e-05
5 *3512:C1 *474:10 4.4581e-05
6 *3512:C1 *1057:22 2.93747e-05
7 *3512:C1 *1058:6 0.000563675
8 *3512:C1 *1058:27 8.60475e-05
9 *3509:B1 *3512:C1 8.49088e-05
10 *3511:B2 *473:8 0.000114092
11 *3512:A1 *3512:C1 0.000223692
12 *355:18 *473:8 0
13 *356:8 *3512:C1 2.93845e-05
14 *357:12 *3512:C1 4.95851e-05
*RES
1 *3511:X *473:8 39.5536 
2 *473:8 *3512:C1 49.1236 
*END

*D_NET *474 0.0030243
*CONN
*I *3515:B I *D sky130_fd_sc_hd__and3b_2
*I *3512:X O *D sky130_fd_sc_hd__o221a_2
*CAP
1 *3515:B 0.000348626
2 *3512:X 0.000333487
3 *474:10 0.000682114
4 *3515:B *625:80 0.000200635
5 *474:10 *1056:21 0.000459638
6 *3509:A1 *474:10 0.000204337
7 *3509:B1 *474:10 0.000238095
8 *3510:A1 *474:10 0.000249918
9 *3512:C1 *474:10 4.4581e-05
10 *357:12 *474:10 0.000262864
*RES
1 *3512:X *474:10 48.5643 
2 *474:10 *3515:B 42.4329 
*END

*D_NET *475 0.00137532
*CONN
*I *3514:C I *D sky130_fd_sc_hd__and3_2
*I *3513:Y O *D sky130_fd_sc_hd__a221oi_2
*CAP
1 *3514:C 0
2 *3513:Y 0.000352256
3 *475:10 0.000352256
4 *475:10 *476:8 9.28842e-05
5 *358:8 *475:10 0.000180212
6 *468:16 *475:10 0.000397716
*RES
1 *3513:Y *475:10 45.4779 
2 *475:10 *3514:C 38 
*END

*D_NET *476 0.000482932
*CONN
*I *3515:C I *D sky130_fd_sc_hd__and3b_2
*I *3514:X O *D sky130_fd_sc_hd__and3_2
*CAP
1 *3515:C 1.86467e-05
2 *3514:X 0.00011814
3 *476:8 0.000136787
4 *3515:C *606:88 5.92635e-05
5 *3515:C *625:80 3.1806e-05
6 *117:8 *476:8 2.54046e-05
7 *475:10 *476:8 9.28842e-05
*RES
1 *3514:X *476:8 40.61 
2 *476:8 *3515:C 38.668 
*END

*D_NET *477 0.00197368
*CONN
*I *3525:A0 I *D sky130_fd_sc_hd__mux2_1
*I *3524:X O *D sky130_fd_sc_hd__a31o_2
*CAP
1 *3525:A0 0.00051429
2 *3524:X 9.3304e-05
3 *477:8 0.000607594
4 *3525:A0 *905:140 0
5 *3525:A0 *936:41 0.000132921
6 *3525:A0 *948:10 0
7 *3525:A0 *948:12 0
8 *3525:A0 *949:14 0
9 *3525:A0 *1067:42 3.52397e-05
10 *3458:B *3525:A0 3.47781e-05
11 *3458:B *477:8 5.50049e-05
12 *3462:A2 *3525:A0 0
13 *113:8 *477:8 0.000267178
14 *364:8 *3525:A0 9.40162e-05
15 *364:12 *477:8 0.000139357
*RES
1 *3524:X *477:8 41.0036 
2 *477:8 *3525:A0 48.005 
*END

*D_NET *478 0.00223363
*CONN
*I *3528:B1 I *D sky130_fd_sc_hd__a21o_2
*I *3527:X O *D sky130_fd_sc_hd__o211a_2
*CAP
1 *3528:B1 0.000263
2 *3527:X 0.000579966
3 *478:10 0.000842966
4 *3528:B1 *645:114 8.93766e-05
5 *3528:B1 *763:12 0
6 *3528:B1 *878:124 4.96264e-05
7 *3528:B1 *892:117 0.000164282
8 *3528:B1 *993:58 0
9 *478:10 *3527:A1 2.97267e-05
10 *478:10 *3527:A2 2.79543e-05
11 *478:10 *3938:CLK 3.18322e-05
12 *478:10 *911:89 1.40958e-05
13 *478:10 *1051:30 2.93747e-05
14 *3527:C1 *478:10 5.50106e-05
15 *3938:D *478:10 5.2894e-05
16 *424:10 *478:10 3.52489e-06
*RES
1 *3527:X *478:10 45.7886 
2 *478:10 *3528:B1 43.075 
*END

*D_NET *479 0.00938991
*CONN
*I *3541:A I *D sky130_fd_sc_hd__and3_2
*I *3546:A I *D sky130_fd_sc_hd__and3_2
*I *3533:A I *D sky130_fd_sc_hd__and3_2
*I *3538:C I *D sky130_fd_sc_hd__and3b_2
*I *3530:X O *D sky130_fd_sc_hd__o31a_2
*CAP
1 *3541:A 0.000216133
2 *3546:A 0.000277578
3 *3533:A 0.000414024
4 *3538:C 7.17495e-06
5 *3530:X 0.000463185
6 *479:42 0.00164268
7 *479:21 0.00166187
8 *479:10 0.000569239
9 *3533:A *3532:B 3.01458e-05
10 *3533:A *3533:B 7.11409e-05
11 *3533:A *3533:C 0.000315852
12 *3533:A *3535:A2 0.000192077
13 *3533:A *4001:CLK 3.22879e-05
14 *3533:A *482:8 0.000171906
15 *3533:A *1071:38 7.65417e-05
16 *3538:C *3537:A1 1.64354e-05
17 *3538:C *3537:B1 1.64354e-05
18 *3541:A *3346:A 3.3746e-05
19 *3541:A *3539:B 6.16531e-05
20 *3541:A *3540:B 9.25221e-05
21 *3541:A *483:86 0.000123172
22 *3541:A *902:38 8.4047e-05
23 *3546:A *3346:A 5.77024e-06
24 *3546:A *3544:A 2.64616e-05
25 *3546:A *3545:B 5.50049e-05
26 *3546:A *483:39 0.000300777
27 *3546:A *483:86 0.000240341
28 *3546:A *487:12 7.1949e-05
29 *3546:A *488:10 8.85189e-05
30 *3546:A *902:38 1.01436e-05
31 *3546:A *1083:36 4.28882e-05
32 *3546:A *1083:38 7.8629e-05
33 *479:10 *3810:A1 0
34 *479:10 *3810:B1 0
35 *479:10 *4289:A 0.000277705
36 *479:10 *904:44 5.67058e-05
37 *479:10 *1071:21 0.000319731
38 *479:21 *656:109 0
39 *479:21 *882:75 0
40 *479:21 *1071:21 7.12679e-05
41 *479:21 *1071:38 9.19022e-06
42 *479:42 *3489:B 0.00039759
43 *479:42 *3536:A 0.000180224
44 *479:42 *3537:A3 0.000168164
45 *479:42 *3543:C1 0.000121346
46 *479:42 *1071:38 7.74658e-05
47 *479:42 *1079:31 2.07355e-05
48 *3487:A2 *3541:A 5.50106e-05
49 *134:10 *3533:A 4.90891e-05
50 *221:8 *479:10 9.53602e-05
51 *389:12 *479:10 0
52 *454:12 *479:10 0
*RES
1 *3530:X *479:10 48.6264 
2 *479:10 *3538:C 38.1916 
3 *479:10 *479:21 1.72964 
4 *479:21 *3533:A 49.5482 
5 *479:21 *479:42 46.3332 
6 *479:42 *3546:A 45.8093 
7 *479:42 *3541:A 42.6607 
*END

*D_NET *480 0.00125112
*CONN
*I *3533:B I *D sky130_fd_sc_hd__and3_2
*I *3531:X O *D sky130_fd_sc_hd__or2_2
*CAP
1 *3533:B 0.000439004
2 *3531:X 4.50565e-05
3 *480:8 0.000484061
4 *3533:B *3533:C 2.92911e-06
5 *3533:B *4001:CLK 8.1796e-05
6 *480:8 *3532:B 8.62783e-05
7 *480:8 *1078:10 4.08537e-05
8 *3533:A *3533:B 7.11409e-05
*RES
1 *3531:X *480:8 39.2014 
2 *480:8 *3533:B 43.8621 
*END

*D_NET *481 0.00283966
*CONN
*I *3533:C I *D sky130_fd_sc_hd__and3_2
*I *3535:A2 I *D sky130_fd_sc_hd__a21oi_2
*I *3532:Y O *D sky130_fd_sc_hd__nand2_2
*CAP
1 *3533:C 0.000313151
2 *3535:A2 0.000325672
3 *3532:Y 0.000161148
4 *481:8 0.000799971
5 *3533:C *4001:CLK 3.17634e-05
6 *3535:A2 *3532:B 0.000219873
7 *3535:A2 *4001:CLK 0
8 *481:8 *3532:B 0.000302339
9 *481:8 *4001:CLK 0
10 *481:8 *610:25 0
11 *3533:A *3533:C 0.000315852
12 *3533:A *3535:A2 0.000192077
13 *3533:B *3533:C 2.92911e-06
14 *3535:A1 *3535:A2 3.46255e-05
15 *134:10 *3535:A2 0.000140259
*RES
1 *3532:Y *481:8 42.0186 
2 *481:8 *3535:A2 44.96 
3 *481:8 *3533:C 42.9093 
*END

*D_NET *482 0.000431089
*CONN
*I *3535:B1 I *D sky130_fd_sc_hd__a21oi_2
*I *3534:X O *D sky130_fd_sc_hd__a31o_2
*CAP
1 *3535:B1 0
2 *3534:X 4.36392e-05
3 *482:8 4.36392e-05
4 *482:8 *3532:B 2.77955e-05
5 *482:8 *1071:38 3.92407e-05
6 *482:8 *1071:49 0.000104869
7 *3533:A *482:8 0.000171906
*RES
1 *3534:X *482:8 40.2579 
2 *482:8 *3535:B1 38 
*END

*D_NET *483 0.0120686
*CONN
*I *3542:C I *D sky130_fd_sc_hd__and3_2
*I *3539:B I *D sky130_fd_sc_hd__nand2_2
*I *3540:B I *D sky130_fd_sc_hd__or2_2
*I *3548:A1 I *D sky130_fd_sc_hd__a21o_2
*I *3550:A1 I *D sky130_fd_sc_hd__a21oi_2
*I *3559:A I *D sky130_fd_sc_hd__and3_2
*I *3566:A I *D sky130_fd_sc_hd__and4_2
*I *3551:B I *D sky130_fd_sc_hd__and3_2
*I *3538:A_N I *D sky130_fd_sc_hd__and3b_2
*I *3536:X O *D sky130_fd_sc_hd__and4_2
*CAP
1 *3542:C 3.82378e-05
2 *3539:B 0.000419308
3 *3540:B 0.000182735
4 *3548:A1 0
5 *3550:A1 0.000135102
6 *3559:A 0
7 *3566:A 5.40172e-05
8 *3551:B 0.000194315
9 *3538:A_N 0.000369064
10 *3536:X 0
11 *483:86 0.000833703
12 *483:56 0.000118273
13 *483:54 0.000199357
14 *483:41 0.000285532
15 *483:39 0.000734754
16 *483:29 0.000875196
17 *483:27 0.000624285
18 *483:4 0.000955111
19 *3538:A_N *3536:C 9.5877e-05
20 *3538:A_N *3536:D 3.44001e-05
21 *3538:A_N *3537:A1 5.3304e-05
22 *3538:A_N *3537:B1 0.000262864
23 *3538:A_N *1079:31 4.17736e-05
24 *3539:B *3486:A 0.000107641
25 *3539:B *3489:A_N 1.47563e-05
26 *3539:B *4003:CLK 0
27 *3539:B *897:54 7.44354e-05
28 *3539:B *1069:18 0.000332207
29 *3539:B *1081:53 0
30 *3540:B *3540:A 0.0002263
31 *3540:B *3541:C 0.000185434
32 *3540:B *656:109 0.000216177
33 *3542:C *3488:C 4.08664e-05
34 *3550:A1 *490:14 5.3304e-05
35 *3550:A1 *490:20 5.3304e-05
36 *3550:A1 *490:33 2.98648e-05
37 *3550:A1 *497:12 6.9805e-05
38 *3551:B *3551:C 3.83778e-05
39 *3551:B *490:20 2.84912e-05
40 *3551:B *497:8 1.4471e-05
41 *3551:B *612:78 0.000248437
42 *3566:A *3566:B 6.59538e-05
43 *3566:A *3566:C 0.000187129
44 *3566:A *490:33 1.14876e-05
45 *3566:A *497:12 8.6949e-05
46 *3566:A *498:10 5.47808e-05
47 *483:27 *3488:B 2.65879e-05
48 *483:27 *3488:C 0.000226295
49 *483:27 *3488:D_N 0.000235108
50 *483:39 *3488:B 2.93747e-05
51 *483:39 *3488:C 9.41704e-05
52 *483:39 *487:12 6.16439e-05
53 *483:39 *488:10 8.56839e-05
54 *483:39 *490:8 0
55 *483:39 *490:14 0
56 *483:39 *612:72 0.000222104
57 *483:39 *612:78 0.000419486
58 *483:39 *612:98 6.68004e-05
59 *483:39 *1082:31 2.64616e-05
60 *483:39 *1083:36 0.000188926
61 *483:41 *490:14 0
62 *483:41 *497:8 9.48381e-06
63 *483:41 *612:78 0.00015637
64 *483:56 *490:33 5.53801e-05
65 *483:56 *497:12 0.000226295
66 *483:86 *3489:A_N 8.08572e-05
67 *483:86 *3543:B1 0.00014411
68 *483:86 *487:12 2.68751e-05
69 *483:86 *896:146 0
70 *3487:A2 *3540:B 9.5877e-05
71 *3541:A *3539:B 6.16531e-05
72 *3541:A *3540:B 9.25221e-05
73 *3541:A *483:86 0.000123172
74 *3546:A *483:39 0.000300777
75 *3546:A *483:86 0.000240341
76 *451:10 *483:27 4.08537e-05
77 *453:10 *483:27 8.4047e-05
*RES
1 *3536:X *483:4 23 
2 *483:4 *3538:A_N 29.0279 
3 *483:4 *483:27 40.0879 
4 *483:27 *483:29 15 
5 *483:29 *483:39 46.1779 
6 *483:39 *483:41 2.25786 
7 *483:41 *3551:B 41.7079 
8 *483:41 *483:54 15 
9 *483:54 *483:56 2.52714 
10 *483:56 *3566:A 26.0036 
11 *483:56 *3559:A 23 
12 *483:54 *3550:A1 26.0243 
13 *483:39 *3548:A1 38 
14 *483:29 *483:86 5.075 
15 *483:86 *3540:B 44.0279 
16 *483:86 *3539:B 49.02 
17 *483:27 *3542:C 23.6214 
*END

*D_NET *484 0.00110435
*CONN
*I *3538:B I *D sky130_fd_sc_hd__and3b_2
*I *3537:X O *D sky130_fd_sc_hd__a31o_2
*CAP
1 *3538:B 0
2 *3537:X 0.000339986
3 *484:8 0.000339986
4 *484:8 *3537:A2 0.000368621
5 *484:8 *1071:38 5.3304e-05
6 *4015:D *484:8 2.45549e-06
*RES
1 *3537:X *484:8 28.4064 
2 *484:8 *3538:B 23 
*END

*D_NET *485 0.00236745
*CONN
*I *3541:B I *D sky130_fd_sc_hd__and3_2
*I *3543:A2 I *D sky130_fd_sc_hd__a211oi_2
*I *3539:Y O *D sky130_fd_sc_hd__nand2_2
*CAP
1 *3541:B 0
2 *3543:A2 0
3 *3539:Y 0.000428673
4 *485:18 0.000203989
5 *485:10 0.000203989
6 *485:8 0.000428673
7 *485:8 *3486:A 0
8 *485:8 *3539:A 7.8128e-05
9 *485:8 *660:12 0
10 *485:8 *897:54 0
11 *485:8 *1081:10 0.000164282
12 *485:8 *1081:12 5.94125e-05
13 *485:8 *1081:53 0.000222455
14 *485:18 *3346:A 0.000109458
15 *485:18 *4003:CLK 9.88303e-05
16 *485:18 *612:98 6.3303e-05
17 *485:18 *656:109 0.000135037
18 *485:18 *1083:38 5.80693e-05
19 *136:10 *485:8 0.000113153
20 *172:8 *485:8 0
*RES
1 *3539:Y *485:8 47.6529 
2 *485:8 *485:10 15 
3 *485:10 *485:18 33.8321 
4 *485:18 *3543:A2 23 
5 *485:10 *3541:B 23 
*END

*D_NET *486 0.000633593
*CONN
*I *3541:C I *D sky130_fd_sc_hd__and3_2
*I *3540:X O *D sky130_fd_sc_hd__or2_2
*CAP
1 *3541:C 0.000153317
2 *3540:X 0.000153317
3 *3541:C *3540:A 4.95081e-05
4 *3541:C *656:109 3.53115e-05
5 *3540:B *3541:C 0.000185434
6 *136:10 *3541:C 5.67058e-05
*RES
1 *3540:X *3541:C 49.9564 
*END

*D_NET *487 0.00191095
*CONN
*I *3543:B1 I *D sky130_fd_sc_hd__a211oi_2
*I *3544:B I *D sky130_fd_sc_hd__nand2_2
*I *3545:B I *D sky130_fd_sc_hd__or2_2
*I *3542:X O *D sky130_fd_sc_hd__and3_2
*CAP
1 *3543:B1 7.71931e-05
2 *3544:B 0
3 *3545:B 0.000292646
4 *3542:X 0
5 *487:12 0.000505199
6 *487:6 0.000289747
7 *3543:B1 *1079:31 0
8 *3545:B *3544:A 3.20712e-05
9 *3545:B *489:8 0.000173967
10 *3545:B *1083:23 1.22822e-05
11 *487:12 *3544:A 5.3304e-05
12 *487:12 *488:10 6.16531e-05
13 *487:12 *896:146 0
14 *487:12 *1079:31 0
15 *3546:A *3545:B 5.50049e-05
16 *3546:A *487:12 7.1949e-05
17 *138:10 *3545:B 5.3304e-05
18 *483:39 *487:12 6.16439e-05
19 *483:86 *3543:B1 0.00014411
20 *483:86 *487:12 2.68751e-05
*RES
1 *3542:X *487:6 38 
2 *487:6 *487:12 19.64 
3 *487:12 *3545:B 28.4479 
4 *487:12 *3544:B 23 
5 *487:6 *3543:B1 39.9057 
*END

*D_NET *488 0.00198756
*CONN
*I *3546:B I *D sky130_fd_sc_hd__and3_2
*I *3549:A2 I *D sky130_fd_sc_hd__a21oi_2
*I *3544:Y O *D sky130_fd_sc_hd__nand2_2
*CAP
1 *3546:B 0.000194539
2 *3549:A2 0
3 *3544:Y 0
4 *488:10 0.000338792
5 *488:4 0.000533331
6 *3546:B *3544:A 6.70361e-05
7 *3546:B *1083:23 2.93845e-05
8 *488:10 *612:72 0.000210659
9 *488:10 *612:78 0.000196549
10 *488:10 *896:146 0
11 *3546:A *488:10 8.85189e-05
12 *380:10 *488:10 0.000181412
13 *483:39 *488:10 8.56839e-05
14 *487:12 *488:10 6.16531e-05
*RES
1 *3544:Y *488:4 23 
2 *488:4 *488:10 38.9486 
3 *488:10 *3549:A2 23 
4 *488:4 *3546:B 25.5479 
*END

*D_NET *489 0.000793905
*CONN
*I *3546:C I *D sky130_fd_sc_hd__and3_2
*I *3545:X O *D sky130_fd_sc_hd__or2_2
*CAP
1 *3546:C 0
2 *3545:X 0.000176386
3 *489:8 0.000176386
4 *489:8 *1083:23 0.000267167
5 *3545:B *489:8 0.000173967
*RES
1 *3545:X *489:8 27.4536 
2 *489:8 *3546:C 23 
*END

*D_NET *490 0.00481529
*CONN
*I *3548:A2 I *D sky130_fd_sc_hd__a21o_2
*I *3550:A2 I *D sky130_fd_sc_hd__a21oi_2
*I *3559:B I *D sky130_fd_sc_hd__and3_2
*I *3566:B I *D sky130_fd_sc_hd__and4_2
*I *3551:C I *D sky130_fd_sc_hd__and3_2
*I *3547:X O *D sky130_fd_sc_hd__and4_2
*CAP
1 *3548:A2 6.1801e-05
2 *3550:A2 0
3 *3559:B 0
4 *3566:B 0.000195647
5 *3551:C 9.41682e-05
6 *3547:X 0
7 *490:33 0.000508644
8 *490:20 0.000459417
9 *490:14 0.000238286
10 *490:8 0.000972778
11 *490:6 0.000724942
12 *3548:A2 *896:133 0.000141954
13 *3551:C *497:8 0.000191148
14 *3551:C *498:10 0
15 *3551:C *612:78 1.80023e-05
16 *3566:B *3566:C 4.95081e-05
17 *3566:B *498:10 0.00010018
18 *490:8 *3547:A 0
19 *490:8 *612:98 0.000396786
20 *490:8 *1083:10 0
21 *490:8 *1084:10 0
22 *490:8 *1084:27 0
23 *490:14 *497:8 8.72173e-05
24 *490:20 *497:8 6.25829e-05
25 *490:33 *498:10 5.50049e-05
26 *3550:A1 *490:14 5.3304e-05
27 *3550:A1 *490:20 5.3304e-05
28 *3550:A1 *490:33 2.98648e-05
29 *3551:B *3551:C 3.83778e-05
30 *3551:B *490:20 2.84912e-05
31 *3566:A *3566:B 6.59538e-05
32 *3566:A *490:33 1.14876e-05
33 *138:10 *490:8 0.000110913
34 *225:10 *490:8 0
35 *456:10 *3551:C 1.01436e-05
36 *483:39 *490:8 0
37 *483:39 *490:14 0
38 *483:41 *490:14 0
39 *483:56 *490:33 5.53801e-05
*RES
1 *3547:X *490:6 38 
2 *490:6 *490:8 14.2307 
3 *490:8 *490:14 18.5836 
4 *490:14 *490:20 16.4707 
5 *490:20 *3551:C 40.61 
6 *490:20 *490:33 19.4329 
7 *490:33 *3566:B 27.35 
8 *490:33 *3559:B 23 
9 *490:14 *3550:A2 23 
10 *490:8 *3548:A2 39.5743 
*END

*D_NET *491 0.000649464
*CONN
*I *3549:B1 I *D sky130_fd_sc_hd__a21oi_2
*I *3548:X O *D sky130_fd_sc_hd__a21o_2
*CAP
1 *3549:B1 5.72949e-05
2 *3548:X 0.000168107
3 *491:10 0.000225402
4 *3549:B1 *657:53 0.000141954
5 *491:10 *612:78 0
6 *491:10 *881:103 5.67058e-05
7 *491:10 *896:133 0
*RES
1 *3548:X *491:10 40.5271 
2 *491:10 *3549:B1 39.5743 
*END

*D_NET *492 0.000710501
*CONN
*I *3552:B I *D sky130_fd_sc_hd__nor3_2
*I *3550:Y O *D sky130_fd_sc_hd__a21oi_2
*CAP
1 *3552:B 0
2 *3550:Y 0.000297291
3 *492:10 0.000297291
4 *492:10 *3550:B1 0
5 *492:10 *497:8 0
6 *492:10 *657:19 0
7 *492:10 *904:105 2.76611e-06
8 *492:10 *1085:19 0
9 *140:10 *492:10 0.000113153
*RES
1 *3550:Y *492:10 43.6964 
2 *492:10 *3552:B 38 
*END

*D_NET *493 0.00651093
*CONN
*I *3555:A2 I *D sky130_fd_sc_hd__a21oi_2
*I *3552:C I *D sky130_fd_sc_hd__nor3_2
*I *3556:C I *D sky130_fd_sc_hd__and3_2
*I *3553:A2 I *D sky130_fd_sc_hd__a21oi_2
*I *3554:A2 I *D sky130_fd_sc_hd__o21a_2
*I *3551:X O *D sky130_fd_sc_hd__and3_2
*CAP
1 *3555:A2 0
2 *3552:C 0
3 *3556:C 4.99221e-05
4 *3553:A2 6.43055e-05
5 *3554:A2 0.000370309
6 *3551:X 0.000156065
7 *493:68 0.00031754
8 *493:55 0.000551164
9 *493:18 0.000779853
10 *493:12 0.000523206
11 *493:10 0.000517735
12 *3553:A2 *3553:A1 5.50049e-05
13 *3553:A2 *613:103 4.95081e-05
14 *3554:A2 *3554:B1 0.000152968
15 *3554:A2 *3822:A1 0
16 *3554:A2 *494:8 0.000155261
17 *3554:A2 *613:82 1.50409e-05
18 *3554:A2 *655:70 6.39918e-05
19 *3554:A2 *881:23 2.34392e-05
20 *3554:A2 *896:31 0.000408137
21 *3554:A2 *1118:14 5.58003e-05
22 *3556:C *3556:A 5.3304e-05
23 *493:10 *498:10 0
24 *493:12 *496:8 1.01436e-05
25 *493:12 *499:10 0.000234382
26 *493:12 *904:105 0
27 *493:18 *3822:A1 0
28 *493:18 *496:8 0.000141869
29 *493:18 *499:10 0.000141869
30 *493:18 *613:103 0
31 *493:18 *613:118 0
32 *493:18 *904:111 0
33 *493:55 *904:94 0.000181131
34 *493:55 *904:105 4.08664e-05
35 *493:68 *3558:B 8.94487e-05
36 *493:68 *3815:A2 5.3304e-05
37 *493:68 *3815:B1 1.24376e-05
38 *493:68 *656:69 0.000215782
39 *493:68 *657:23 6.08617e-05
40 *493:68 *881:75 2.02872e-05
41 *493:68 *1085:19 0.000135547
42 *3493:B *493:10 5.50106e-05
43 *128:8 *493:18 9.98995e-05
44 *140:10 *493:55 5.37348e-06
45 *140:10 *493:68 2.30292e-05
46 *229:8 *3554:A2 0.000222004
47 *229:8 *493:18 0.000187996
48 *272:30 *3554:A2 5.28455e-05
49 *456:10 *493:10 7.91493e-05
50 *456:10 *493:12 8.51329e-05
*RES
1 *3551:X *493:10 40.8793 
2 *493:10 *493:12 3.66643 
3 *493:12 *493:18 8.65857 
4 *493:18 *3554:A2 49.3307 
5 *493:18 *3553:A2 39.5743 
6 *493:12 *3556:C 38.6214 
7 *493:10 *493:55 19.4329 
8 *493:55 *3552:C 23 
9 *493:55 *493:68 37.395 
10 *493:68 *3555:A2 23 
*END

*D_NET *494 0.00142039
*CONN
*I *3554:B1 I *D sky130_fd_sc_hd__o21a_2
*I *3553:Y O *D sky130_fd_sc_hd__a21oi_2
*CAP
1 *3554:B1 6.11364e-05
2 *3553:Y 0.000139163
3 *494:8 0.000200299
4 *3554:B1 *881:23 0.000275411
5 *494:8 *4008:CLK 2.46922e-05
6 *494:8 *613:82 5.788e-05
7 *494:8 *613:97 7.13794e-05
8 *3554:A2 *3554:B1 0.000152968
9 *3554:A2 *494:8 0.000155261
10 *227:10 *494:8 8.57577e-05
11 *229:8 *494:8 0.00019644
*RES
1 *3553:Y *494:8 43.075 
2 *494:8 *3554:B1 41.0036 
*END

*D_NET *495 0.00142422
*CONN
*I *3557:B I *D sky130_fd_sc_hd__nor3_2
*I *3555:Y O *D sky130_fd_sc_hd__a21oi_2
*CAP
1 *3557:B 0.000217764
2 *3555:Y 4.6575e-05
3 *495:8 0.000264339
4 *3557:B *3557:C 5.50049e-05
5 *3557:B *4239:A 0.00029936
6 *3557:B *737:8 0.000184527
7 *3557:B *896:10 4.5051e-05
8 *3557:B *896:110 7.53384e-06
9 *3557:B *1073:22 2.02872e-05
10 *495:8 *656:69 0.000141888
11 *495:8 *881:65 0.000141888
*RES
1 *3555:Y *495:8 39.9057 
2 *495:8 *3557:B 43.8621 
*END

*D_NET *496 0.00106893
*CONN
*I *3561:A2 I *D sky130_fd_sc_hd__o21a_2
*I *3557:C I *D sky130_fd_sc_hd__nor3_2
*I *3556:X O *D sky130_fd_sc_hd__and3_2
*CAP
1 *3561:A2 0
2 *3557:C 0.000186626
3 *3556:X 0.000102229
4 *496:10 0.000186626
5 *496:8 0.000102229
6 *3557:C *737:8 0.000146549
7 *3557:C *1073:22 0.000137651
8 *496:8 *904:105 0
9 *496:8 *904:111 0
10 *3557:B *3557:C 5.50049e-05
11 *493:12 *496:8 1.01436e-05
12 *493:18 *496:8 0.000141869
*RES
1 *3556:X *496:8 39.9057 
2 *496:8 *496:10 15 
3 *496:10 *3557:C 27.4536 
4 *496:10 *3561:A2 23 
*END

*D_NET *497 0.00306155
*CONN
*I *3559:C I *D sky130_fd_sc_hd__and3_2
*I *3566:C I *D sky130_fd_sc_hd__and4_2
*I *3558:X O *D sky130_fd_sc_hd__and4_2
*CAP
1 *3559:C 0
2 *3566:C 0.000207723
3 *3558:X 0.000356679
4 *497:12 0.000521032
5 *497:8 0.000669987
6 *497:8 *904:105 0.000166513
7 *3550:A1 *497:12 6.9805e-05
8 *3551:B *497:8 1.4471e-05
9 *3551:C *497:8 0.000191148
10 *3566:A *3566:C 0.000187129
11 *3566:A *497:12 8.6949e-05
12 *3566:B *3566:C 4.95081e-05
13 *456:10 *497:8 0.000155029
14 *483:41 *497:8 9.48381e-06
15 *483:56 *497:12 0.000226295
16 *490:14 *497:8 8.72173e-05
17 *490:20 *497:8 6.25829e-05
18 *492:10 *497:8 0
*RES
1 *3558:X *497:8 46.5964 
2 *497:8 *497:12 19.9093 
3 *497:12 *3566:C 26.48 
4 *497:12 *3559:C 23 
*END

*D_NET *498 0.00362832
*CONN
*I *3563:B I *D sky130_fd_sc_hd__nand2_2
*I *3562:B I *D sky130_fd_sc_hd__or2_2
*I *3560:B I *D sky130_fd_sc_hd__nor2_2
*I *3559:X O *D sky130_fd_sc_hd__and3_2
*CAP
1 *3563:B 2.14194e-05
2 *3562:B 0
3 *3560:B 0
4 *3559:X 0.000361738
5 *498:29 8.43203e-05
6 *498:21 0.000452693
7 *498:12 0.000346954
8 *498:10 0.000361738
9 *3563:B *3563:A 5.90675e-06
10 *3563:B *904:86 0
11 *498:10 *605:82 0
12 *498:10 *612:78 0
13 *498:21 *3563:A 4.21281e-05
14 *498:21 *605:82 0.000614067
15 *498:21 *904:86 0.000789944
16 *498:21 *904:94 6.68303e-05
17 *498:29 *3563:A 3.22879e-05
18 *498:29 *501:10 0.000140949
19 *498:29 *605:82 5.50106e-05
20 *498:29 *1074:16 4.23714e-05
21 *3551:C *498:10 0
22 *3566:A *498:10 5.47808e-05
23 *3566:B *498:10 0.00010018
24 *456:10 *498:10 0
25 *490:33 *498:10 5.50049e-05
26 *493:10 *498:10 0
*RES
1 *3559:X *498:10 44.6493 
2 *498:10 *498:12 15 
3 *498:12 *3560:B 23 
4 *498:12 *498:21 12.0764 
5 *498:21 *498:29 32.5271 
6 *498:29 *3562:B 23 
7 *498:21 *3563:B 23.4971 
*END

*D_NET *499 0.00115312
*CONN
*I *3561:B1 I *D sky130_fd_sc_hd__o21a_2
*I *3560:Y O *D sky130_fd_sc_hd__nor2_2
*CAP
1 *3561:B1 0
2 *3560:Y 0.000346143
3 *499:10 0.000346143
4 *499:10 *613:118 0
5 *499:10 *904:94 8.45804e-05
6 *493:12 *499:10 0.000234382
7 *493:18 *499:10 0.000141869
*RES
1 *3560:Y *499:10 44.6493 
2 *499:10 *3561:B1 38 
*END

*D_NET *500 0.000728043
*CONN
*I *3564:B I *D sky130_fd_sc_hd__and3_2
*I *3562:X O *D sky130_fd_sc_hd__or2_2
*CAP
1 *3564:B 0.000180515
2 *3562:X 3.5598e-05
3 *500:8 0.000216113
4 *3564:B *503:8 0.000121021
5 *500:8 *1074:14 8.62783e-05
6 *500:8 *1075:12 8.85189e-05
*RES
1 *3562:X *500:8 39.2014 
2 *500:8 *3564:B 40.5271 
*END

*D_NET *501 0.00211657
*CONN
*I *3564:C I *D sky130_fd_sc_hd__and3_2
*I *3567:A2 I *D sky130_fd_sc_hd__a211oi_2
*I *3563:Y O *D sky130_fd_sc_hd__nand2_2
*CAP
1 *3564:C 0
2 *3567:A2 0
3 *3563:Y 0.00015949
4 *501:25 0.000340785
5 *501:12 0.000340785
6 *501:10 0.00015949
7 *501:10 *3491:D 1.59312e-05
8 *501:10 *3563:A 5.50106e-05
9 *501:10 *881:121 0.000194318
10 *501:10 *904:63 3.54495e-05
11 *501:10 *904:86 4.6318e-06
12 *501:10 *1074:14 0
13 *501:10 *1074:16 0
14 *501:25 *3562:A 5.50049e-05
15 *501:25 *3565:A 8.60475e-05
16 *501:25 *3565:B 0.000226306
17 *501:25 *502:8 5.15848e-05
18 *501:25 *605:82 0
19 *501:25 *1074:14 0
20 *501:25 *1075:12 0.000136738
21 *501:25 *1075:18 9.48381e-06
22 *3567:A1 *501:25 9.84851e-05
23 *389:34 *501:25 6.07611e-06
24 *457:8 *501:25 0
25 *498:29 *501:10 0.000140949
*RES
1 *3563:Y *501:10 41.9357 
2 *501:10 *501:12 15 
3 *501:12 *3567:A2 23 
4 *501:12 *501:25 38.0993 
5 *501:25 *3564:C 23 
*END

*D_NET *502 0.000725635
*CONN
*I *3566:D I *D sky130_fd_sc_hd__and4_2
*I *3565:X O *D sky130_fd_sc_hd__and2_2
*CAP
1 *3566:D 0.000139813
2 *3565:X 8.67207e-05
3 *502:8 0.000226534
4 *3566:D *503:8 0.000139357
5 *457:8 *502:8 8.16253e-05
6 *501:25 *502:8 5.15848e-05
*RES
1 *3565:X *502:8 40.2579 
2 *502:8 *3566:D 40.5271 
*END

*D_NET *503 0.00552912
*CONN
*I *3567:B1 I *D sky130_fd_sc_hd__a211oi_2
*I *3568:A2 I *D sky130_fd_sc_hd__a21oi_2
*I *3570:A2 I *D sky130_fd_sc_hd__a21oi_2
*I *3569:A2 I *D sky130_fd_sc_hd__o21a_2
*I *3571:A3 I *D sky130_fd_sc_hd__a31o_2
*I *3566:X O *D sky130_fd_sc_hd__and4_2
*CAP
1 *3567:B1 0
2 *3568:A2 1.50079e-05
3 *3570:A2 0.000194616
4 *3569:A2 0
5 *3571:A3 0.000232829
6 *3566:X 0.000619765
7 *503:24 0.000534306
8 *503:18 0.000712854
9 *503:16 0.000570416
10 *503:10 0.000467257
11 *503:8 0.000748376
12 *3568:A2 *3572:B 5.50049e-05
13 *3568:A2 *799:12 5.50049e-05
14 *3570:A2 *1076:43 3.22879e-05
15 *3571:A3 *3571:A1 5.90675e-06
16 *3571:A3 *1076:23 0.000221242
17 *3571:A3 *1076:31 5.50049e-05
18 *503:10 *657:59 0.000111148
19 *503:16 *3568:A1 1.7971e-05
20 *503:16 *657:59 8.82421e-05
21 *503:16 *657:67 8.51329e-05
22 *503:16 *896:73 7.74865e-06
23 *503:16 *1076:43 0
24 *503:18 *3568:A1 2.76611e-06
25 *503:18 *504:10 0
26 *503:18 *654:72 0
27 *503:18 *799:12 0.00014411
28 *503:18 *1076:31 0
29 *503:18 *1076:43 0
30 *503:24 *3973:RESET_B 6.51763e-05
31 *503:24 *504:10 0
32 *503:24 *654:72 0
33 *503:24 *919:10 5.50049e-05
34 *503:24 *1076:31 2.18506e-05
35 *3564:B *503:8 0.000121021
36 *3566:D *503:8 0.000139357
37 *4014:D *3570:A2 0.000141954
38 *130:10 *503:10 0
39 *132:8 *503:18 7.76364e-06
*RES
1 *3566:X *503:8 48.15 
2 *503:8 *503:10 2.96214 
3 *503:10 *503:16 7.02214 
4 *503:16 *503:18 3.31429 
5 *503:18 *503:24 20.3857 
6 *503:24 *3571:A3 28.9036 
7 *503:24 *3569:A2 23 
8 *503:18 *3570:A2 41.9771 
9 *503:16 *3568:A2 38.6214 
10 *503:10 *3567:B1 38 
*END

*D_NET *504 0.000909458
*CONN
*I *3569:B1 I *D sky130_fd_sc_hd__o21a_2
*I *3568:Y O *D sky130_fd_sc_hd__a21oi_2
*CAP
1 *3569:B1 0
2 *3568:Y 0.000251423
3 *504:10 0.000251423
4 *504:10 *799:12 5.50049e-05
5 *504:10 *1076:31 0.000351608
6 *503:18 *504:10 0
7 *503:24 *504:10 0
*RES
1 *3568:Y *504:10 43.3443 
2 *504:10 *3569:B1 38 
*END

*D_NET *505 0.000287602
*CONN
*I *3572:A I *D sky130_fd_sc_hd__nor2_2
*I *3570:Y O *D sky130_fd_sc_hd__a21oi_2
*CAP
1 *3572:A 0
2 *3570:Y 7.17459e-05
3 *505:8 7.17459e-05
4 *505:8 *654:72 0
5 *505:8 *1076:43 0.00014411
*RES
1 *3570:Y *505:8 39.9057 
2 *505:8 *3572:A 38 
*END

*D_NET *506 0.00221352
*CONN
*I *3572:B I *D sky130_fd_sc_hd__nor2_2
*I *3571:X O *D sky130_fd_sc_hd__a31o_2
*CAP
1 *3572:B 0.00036013
2 *3571:X 0.000242746
3 *506:8 0.000602876
4 *3572:B *3568:A1 9.84794e-05
5 *3572:B *3568:B1 9.58714e-05
6 *3572:B *657:67 2.4754e-05
7 *3572:B *799:12 5.76505e-05
8 *3572:B *896:73 0.000435854
9 *3572:B *1077:27 9.67842e-05
10 *506:8 *3571:A1 3.81391e-05
11 *506:8 *657:73 0
12 *506:8 *1077:27 8.93489e-05
13 *506:8 *1077:33 1.58805e-05
14 *3568:A2 *3572:B 5.50049e-05
*RES
1 *3571:X *506:8 43.4271 
2 *506:8 *3572:B 47.2179 
*END

*D_NET *507 0.00618035
*CONN
*I *3585:A I *D sky130_fd_sc_hd__and3_2
*I *3590:A I *D sky130_fd_sc_hd__and3_2
*I *3582:C I *D sky130_fd_sc_hd__and3b_2
*I *3577:A I *D sky130_fd_sc_hd__and3_2
*I *3574:X O *D sky130_fd_sc_hd__o31a_2
*CAP
1 *3585:A 0
2 *3590:A 0
3 *3582:C 0
4 *3577:A 0
5 *3574:X 0.000150226
6 *507:73 0.000270304
7 *507:56 0.000954799
8 *507:47 0.000120725
9 *507:34 0.000441515
10 *507:16 0.000910473
11 *507:10 0.00118295
12 *507:10 *903:64 0
13 *507:16 *3581:B1 6.36307e-05
14 *507:16 *511:133 9.5877e-05
15 *507:16 *901:51 1.17152e-05
16 *507:16 *903:64 0
17 *507:16 *1097:57 0.000164282
18 *507:16 *1104:36 0.000164282
19 *507:16 *1104:51 5.94125e-05
20 *507:34 *3581:A3 0
21 *507:34 *3581:B1 0.000424551
22 *507:34 *3582:B 0.00014196
23 *507:34 *510:10 1.02561e-05
24 *507:47 *3581:A1 5.92579e-05
25 *507:47 *3581:A3 6.09588e-05
26 *507:47 *510:10 0
27 *507:47 *511:133 2.29192e-05
28 *507:56 *1109:28 7.73389e-05
29 *507:73 *511:21 0.000291738
30 *507:73 *515:37 3.56537e-05
31 *507:73 *517:10 1.01436e-05
32 *507:73 *903:94 0
33 *507:73 *1107:34 0
34 *507:73 *1107:51 0.000243596
35 *507:73 *1109:28 2.93747e-05
36 *3574:A2 *507:10 2.93747e-05
37 *154:8 *507:47 0
38 *463:8 *507:10 9.74132e-05
39 *463:8 *507:16 5.56203e-05
*RES
1 *3574:X *507:10 41.2314 
2 *507:10 *507:16 21.8979 
3 *507:16 *507:34 39.4457 
4 *507:34 *3577:A 23 
5 *507:16 *507:47 32.2216 
6 *507:47 *3582:C 23 
7 *507:10 *507:56 26.1029 
8 *507:56 *3590:A 23 
9 *507:56 *507:73 37.1671 
10 *507:73 *3585:A 23 
*END

*D_NET *508 0.00047453
*CONN
*I *3577:B I *D sky130_fd_sc_hd__and3_2
*I *3575:X O *D sky130_fd_sc_hd__or2_2
*CAP
1 *3577:B 0
2 *3575:X 0.000194126
3 *508:10 0.000194126
4 *508:10 *509:10 8.62783e-05
5 *508:10 *662:41 0
*RES
1 *3575:X *508:10 40.7757 
2 *508:10 *3577:B 38 
*END

*D_NET *509 0.00146408
*CONN
*I *3577:C I *D sky130_fd_sc_hd__and3_2
*I *3579:A2 I *D sky130_fd_sc_hd__a21oi_2
*I *3576:Y O *D sky130_fd_sc_hd__nand2_2
*CAP
1 *3577:C 4.50142e-05
2 *3579:A2 0.000134934
3 *3576:Y 0.000456508
4 *509:10 0.000636456
5 *3579:A2 *510:10 0
6 *3579:A2 *662:41 2.93845e-05
7 *3579:A2 *662:80 3.0647e-05
8 *3579:A2 *1097:26 0
9 *509:10 *662:41 0
10 *509:10 *1097:26 0
11 *509:10 *1104:70 0
12 *152:8 *3579:A2 4.48568e-05
13 *420:8 *509:10 0
14 *508:10 *509:10 8.62783e-05
*RES
1 *3576:Y *509:10 46.3064 
2 *509:10 *3579:A2 40.8793 
3 *509:10 *3577:C 38.6214 
*END

*D_NET *510 0.000910313
*CONN
*I *3579:B1 I *D sky130_fd_sc_hd__a21oi_2
*I *3578:X O *D sky130_fd_sc_hd__a31o_2
*CAP
1 *3579:B1 0
2 *3578:X 0.000359113
3 *510:10 0.000359113
4 *510:10 *662:80 0
5 *510:10 *1097:18 5.47927e-05
6 *510:10 *1097:26 0.000122407
7 *3579:A2 *510:10 0
8 *154:8 *510:10 0
9 *382:10 *510:10 4.6318e-06
10 *507:34 *510:10 1.02561e-05
11 *507:47 *510:10 0
*RES
1 *3578:X *510:10 44.6493 
2 *510:10 *3579:B1 38 
*END

*D_NET *511 0.0137256
*CONN
*I *3582:A_N I *D sky130_fd_sc_hd__and3b_2
*I *3583:B I *D sky130_fd_sc_hd__nand2_2
*I *3595:B I *D sky130_fd_sc_hd__and3_2
*I *3610:A I *D sky130_fd_sc_hd__and4_2
*I *3603:A I *D sky130_fd_sc_hd__and3_2
*I *3594:A1 I *D sky130_fd_sc_hd__a21oi_2
*I *3592:A1 I *D sky130_fd_sc_hd__a21o_2
*I *3586:C I *D sky130_fd_sc_hd__and3_2
*I *3584:B I *D sky130_fd_sc_hd__or2_2
*I *3580:X O *D sky130_fd_sc_hd__and4_2
*CAP
1 *3582:A_N 0
2 *3583:B 0
3 *3595:B 0
4 *3610:A 0
5 *3603:A 0
6 *3594:A1 9.17424e-05
7 *3592:A1 0.000173567
8 *3586:C 0
9 *3584:B 2.34823e-05
10 *3580:X 0.000730252
11 *511:133 0.000230372
12 *511:107 0.000364714
13 *511:88 0.000711565
14 *511:82 0.000924157
15 *511:65 0.00088733
16 *511:50 0.000493848
17 *511:46 0.000824035
18 *511:34 0.000976175
19 *511:21 0.000121418
20 *511:15 0.000497079
21 *511:6 0.000644883
22 *3584:B *3585:C 0
23 *3592:A1 *4312:A 0.000137359
24 *3594:A1 *3597:B1 3.86227e-05
25 *3594:A1 *518:27 5.63459e-05
26 *3594:A1 *520:10 1.5769e-05
27 *3594:A1 *661:53 0.000235596
28 *511:6 *1105:62 0.000313255
29 *511:15 *3584:A 1.59094e-05
30 *511:21 *1107:34 0
31 *511:34 *3584:A 1.41077e-05
32 *511:34 *3585:C 9.32114e-05
33 *511:34 *1107:36 4.1657e-05
34 *511:34 *1107:60 7.41581e-05
35 *511:46 *4027:CLK 0.000201892
36 *511:46 *515:23 6.91722e-05
37 *511:46 *887:52 0
38 *511:46 *1107:51 0
39 *511:46 *1108:49 0.000190657
40 *511:46 *1109:46 0.000509233
41 *511:46 *1110:33 0.000229038
42 *511:50 *4312:A 0.000182087
43 *511:65 *3589:A 0.000138185
44 *511:65 *515:23 0.000140661
45 *511:65 *518:27 4.66501e-05
46 *511:82 *3594:B1 0.000374713
47 *511:82 *3597:A1 0
48 *511:82 *3602:B 0.000142818
49 *511:82 *518:27 3.20613e-06
50 *511:82 *521:14 0.000159821
51 *511:82 *521:33 0.00014196
52 *511:82 *521:42 4.21281e-05
53 *511:82 *609:86 0.000218952
54 *511:82 *609:95 7.80035e-05
55 *511:88 *3607:A 3.39102e-05
56 *511:88 *3609:B 2.19398e-05
57 *511:88 *518:44 0.000397596
58 *511:88 *1113:27 0.000107213
59 *511:107 *518:52 1.02561e-05
60 *511:107 *526:27 0.000204953
61 *511:107 *887:52 0
62 *511:133 *3581:B1 0.000219383
63 *511:133 *1104:10 1.14452e-05
64 *511:133 *1104:36 7.48331e-05
65 *511:133 *1106:12 4.5051e-05
66 *155:10 *511:34 0.000139352
67 *247:10 *511:46 0
68 *384:10 *511:46 0.000117858
69 *462:8 *511:21 0.00032159
70 *466:12 *511:107 9.85586e-06
71 *507:16 *511:133 9.5877e-05
72 *507:47 *511:133 2.29192e-05
73 *507:73 *511:21 0.000291738
*RES
1 *3580:X *511:6 30.2914 
2 *511:6 *3584:B 23.4971 
3 *511:6 *511:15 1.57429 
4 *511:15 *511:21 34.3707 
5 *511:21 *3586:C 23 
6 *511:15 *511:34 5.57214 
7 *511:34 *511:46 42.7776 
8 *511:46 *511:50 17.0507 
9 *511:50 *3592:A1 25.6929 
10 *511:50 *511:65 20.7793 
11 *511:65 *3594:A1 41.0243 
12 *511:65 *511:82 27.0971 
13 *511:82 *511:88 20.9864 
14 *511:88 *3603:A 38 
15 *511:88 *511:107 32.064 
16 *511:107 *3610:A 23 
17 *511:82 *3595:B 23 
18 *511:34 *3583:B 23 
19 *3580:X *511:133 42.6814 
20 *511:133 *3582:A_N 38 
*END

*D_NET *512 0.000456068
*CONN
*I *3582:B I *D sky130_fd_sc_hd__and3b_2
*I *3581:X O *D sky130_fd_sc_hd__a31o_2
*CAP
1 *3582:B 0.000144677
2 *3581:X 0.000144677
3 *3582:B *3581:B1 2.4754e-05
4 *507:34 *3582:B 0.00014196
*RES
1 *3581:X *3582:B 48.5479 
*END

*D_NET *513 0.00092379
*CONN
*I *3585:B I *D sky130_fd_sc_hd__and3_2
*I *3587:A2 I *D sky130_fd_sc_hd__a211oi_2
*I *3583:Y O *D sky130_fd_sc_hd__nand2_2
*CAP
1 *3585:B 0
2 *3587:A2 0
3 *3583:Y 0.000182774
4 *513:14 0.000135029
5 *513:6 0.000317803
6 *513:6 *1107:36 4.6595e-05
7 *513:6 *1107:60 7.15126e-05
8 *513:14 *1107:36 3.22879e-05
9 *513:14 *1107:51 0.000137788
10 *384:10 *513:14 0
*RES
1 *3583:Y *513:6 25.5271 
2 *513:6 *513:14 32.5271 
3 *513:14 *3587:A2 23 
4 *513:6 *3585:B 23 
*END

*D_NET *514 0.00033791
*CONN
*I *3585:C I *D sky130_fd_sc_hd__and3_2
*I *3584:X O *D sky130_fd_sc_hd__or2_2
*CAP
1 *3585:C 5.26737e-05
2 *3584:X 5.26737e-05
3 *3585:C *3584:A 5.3304e-05
4 *3585:C *1107:36 8.60475e-05
5 *3584:B *3585:C 0
6 *511:34 *3585:C 9.32114e-05
*RES
1 *3584:X *3585:C 48.0714 
*END

*D_NET *515 0.0039327
*CONN
*I *3588:B I *D sky130_fd_sc_hd__nand2_2
*I *3589:B I *D sky130_fd_sc_hd__or2_2
*I *3587:B1 I *D sky130_fd_sc_hd__a211oi_2
*I *3586:X O *D sky130_fd_sc_hd__and3_2
*CAP
1 *3588:B 0
2 *3589:B 0
3 *3587:B1 0
4 *3586:X 0.00032431
5 *515:37 0.000103376
6 *515:23 0.00057985
7 *515:8 0.000800784
8 *515:8 *3498:B 9.58714e-05
9 *515:8 *3498:C 0.000142982
10 *515:8 *903:94 9.10082e-05
11 *515:8 *1108:8 0.000431545
12 *515:23 *819:8 3.27254e-05
13 *515:23 *903:94 9.67842e-05
14 *515:23 *1107:75 0.000391318
15 *515:23 *1108:6 6.17437e-06
16 *515:23 *1108:8 6.53382e-05
17 *515:23 *1108:49 0.00050486
18 *515:23 *1109:46 0
19 *515:37 *517:10 0
20 *4026:D *515:23 2.02872e-05
21 *507:73 *515:37 3.56537e-05
22 *511:46 *515:23 6.91722e-05
23 *511:65 *515:23 0.000140661
*RES
1 *3586:X *515:8 29.3593 
2 *515:8 *3587:B1 23 
3 *515:8 *515:23 43.9614 
4 *515:23 *3589:B 23 
5 *3586:X *515:37 39.9057 
6 *515:37 *3588:B 38 
*END

*D_NET *516 0.000698217
*CONN
*I *3590:B I *D sky130_fd_sc_hd__and3_2
*I *3593:A2 I *D sky130_fd_sc_hd__a21oi_2
*I *3588:Y O *D sky130_fd_sc_hd__nand2_2
*CAP
1 *3590:B 0.000128868
2 *3593:A2 0
3 *3588:Y 0
4 *516:12 0.000156045
5 *516:4 0.000284913
6 *3590:B *1109:28 9.6103e-05
7 *516:12 *517:10 0
8 *516:12 *1109:28 3.22879e-05
*RES
1 *3588:Y *516:4 23 
2 *516:4 *516:12 32.5271 
3 *516:12 *3593:A2 23 
4 *516:4 *3590:B 25.0507 
*END

*D_NET *517 0.00156709
*CONN
*I *3590:C I *D sky130_fd_sc_hd__and3_2
*I *3589:X O *D sky130_fd_sc_hd__or2_2
*CAP
1 *3590:C 0
2 *3589:X 0.000567768
3 *517:10 0.000567768
4 *517:10 *519:8 0.000171906
5 *517:10 *903:78 2.38288e-05
6 *517:10 *903:80 9.3813e-05
7 *517:10 *903:94 3.37995e-05
8 *517:10 *1109:28 9.80671e-05
9 *507:73 *517:10 1.01436e-05
10 *515:37 *517:10 0
11 *516:12 *517:10 0
*RES
1 *3589:X *517:10 49.6 
2 *517:10 *3590:C 38 
*END

*D_NET *518 0.00514211
*CONN
*I *3594:A2 I *D sky130_fd_sc_hd__a21oi_2
*I *3603:B I *D sky130_fd_sc_hd__and3_2
*I *3610:B I *D sky130_fd_sc_hd__and4_2
*I *3595:C I *D sky130_fd_sc_hd__and3_2
*I *3592:A2 I *D sky130_fd_sc_hd__a21o_2
*I *3591:X O *D sky130_fd_sc_hd__and4_2
*CAP
1 *3594:A2 0
2 *3603:B 2.34823e-05
3 *3610:B 0
4 *3595:C 0
5 *3592:A2 0
6 *3591:X 0.000181541
7 *518:52 0.000198017
8 *518:44 0.00043292
9 *518:35 0.000499889
10 *518:27 0.00056346
11 *518:12 0.000456534
12 *518:12 *3589:A 0.000113153
13 *518:12 *4027:CLK 0
14 *518:12 *4312:A 0.000113153
15 *518:12 *1109:16 1.24376e-05
16 *518:12 *1109:28 0.000137651
17 *518:12 *1110:33 1.14452e-05
18 *518:27 *3589:A 0.000276784
19 *518:27 *3594:B1 4.77164e-06
20 *518:27 *3597:B1 9.75624e-05
21 *518:27 *4312:A 2.55642e-05
22 *518:27 *520:10 1.32314e-05
23 *518:27 *609:43 0.000206374
24 *518:27 *661:53 3.35937e-05
25 *518:35 *3597:B1 6.17437e-06
26 *518:35 *526:27 0
27 *518:35 *607:97 6.28695e-05
28 *518:35 *661:53 7.88828e-05
29 *518:35 *903:110 2.22183e-05
30 *518:35 *903:125 0.000101769
31 *518:35 *1113:27 0
32 *518:44 *3607:A 2.32101e-05
33 *518:44 *521:14 9.50542e-05
34 *518:44 *529:8 0.000126114
35 *518:52 *525:12 5.94125e-05
36 *518:52 *529:8 0.000351519
37 *518:52 *530:10 3.20914e-05
38 *518:52 *901:107 0
39 *3594:A1 *518:27 5.63459e-05
40 *464:8 *518:52 0.000267173
41 *466:12 *518:52 0
42 *511:65 *518:27 4.66501e-05
43 *511:82 *518:27 3.20613e-06
44 *511:88 *518:44 0.000397596
45 *511:107 *518:52 1.02561e-05
*RES
1 *3591:X *518:12 41.625 
2 *518:12 *3592:A2 38 
3 *518:12 *518:27 23.6793 
4 *518:27 *518:35 36.6493 
5 *518:35 *3595:C 23 
6 *518:35 *518:44 6.58714 
7 *518:44 *518:52 35.51 
8 *518:52 *3610:B 23 
9 *518:44 *3603:B 23.4971 
10 *518:27 *3594:A2 23 
*END

*D_NET *519 0.000366592
*CONN
*I *3593:B1 I *D sky130_fd_sc_hd__a21oi_2
*I *3592:X O *D sky130_fd_sc_hd__a21o_2
*CAP
1 *3593:B1 0
2 *3592:X 5.08545e-05
3 *519:8 5.08545e-05
4 *519:8 *903:94 8.15327e-05
5 *519:8 *1109:28 1.14452e-05
6 *517:10 *519:8 0.000171906
*RES
1 *3592:X *519:8 40.2579 
2 *519:8 *3593:B1 38 
*END

*D_NET *520 0.00079691
*CONN
*I *3596:B I *D sky130_fd_sc_hd__nor3_2
*I *3594:Y O *D sky130_fd_sc_hd__a21oi_2
*CAP
1 *3596:B 0
2 *3594:Y 0.000222804
3 *520:10 0.000222804
4 *520:10 *3594:B1 0.000157174
5 *520:10 *3597:B1 5.50106e-05
6 *520:10 *3601:A 0
7 *520:10 *3602:B 2.84912e-05
8 *520:10 *609:43 8.16253e-05
9 *520:10 *903:125 0
10 *3594:A1 *520:10 1.5769e-05
11 *518:27 *520:10 1.32314e-05
*RES
1 *3594:Y *520:10 43.6964 
2 *520:10 *3596:B 38 
*END

*D_NET *521 0.00552616
*CONN
*I *3599:A2 I *D sky130_fd_sc_hd__a21oi_2
*I *3598:A2 I *D sky130_fd_sc_hd__o21a_2
*I *3597:A2 I *D sky130_fd_sc_hd__a21oi_2
*I *3596:C I *D sky130_fd_sc_hd__nor3_2
*I *3600:C I *D sky130_fd_sc_hd__and3_2
*I *3595:X O *D sky130_fd_sc_hd__and3_2
*CAP
1 *3599:A2 0.00027908
2 *3598:A2 0.000168873
3 *3597:A2 0.000276851
4 *3596:C 0
5 *3600:C 0
6 *3595:X 0.000223388
7 *521:55 0.000523788
8 *521:42 0.00063357
9 *521:33 0.000329696
10 *521:24 0.000256911
11 *521:14 0.00052911
12 *3597:A2 *3597:A1 0.000108649
13 *3597:A2 *3598:B1 0
14 *3597:A2 *661:53 8.1796e-05
15 *3597:A2 *1111:47 9.03784e-05
16 *3598:A2 *3502:D 3.7122e-06
17 *3598:A2 *1112:25 7.27427e-05
18 *3599:A2 *3597:A1 1.42006e-05
19 *3599:A2 *3598:B1 0
20 *3599:A2 *3599:B1 0.000139647
21 *3599:A2 *661:94 0
22 *3599:A2 *1098:12 0.000247668
23 *3599:A2 *1099:14 1.37246e-05
24 *3599:A2 *1112:10 0
25 *521:14 *3595:A 8.13397e-05
26 *521:24 *3600:B 1.6558e-05
27 *521:24 *3601:A 8.68903e-05
28 *521:24 *524:10 3.22879e-05
29 *521:24 *525:8 0.000102093
30 *521:24 *1098:33 6.25829e-05
31 *521:24 *1112:60 0.000139352
32 *521:33 *3595:A 3.06213e-05
33 *521:42 *3595:A 1.94693e-05
34 *521:42 *1111:6 1.59094e-05
35 *521:42 *1111:8 7.38136e-05
36 *521:55 *3597:A1 7.75329e-06
37 *521:55 *3598:B1 0
38 *521:55 *1111:47 0.000131744
39 *4029:D *521:42 9.91798e-05
40 *160:8 *3597:A2 0.000123428
41 *160:8 *521:55 7.03869e-05
42 *250:10 *3599:A2 0
43 *511:82 *521:14 0.000159821
44 *511:82 *521:33 0.00014196
45 *511:82 *521:42 4.21281e-05
46 *518:44 *521:14 9.50542e-05
*RES
1 *3595:X *521:14 28.4686 
2 *521:14 *521:24 35.6343 
3 *521:24 *3600:C 23 
4 *521:14 *521:33 2.07143 
5 *521:33 *3596:C 23 
6 *521:33 *521:42 20.3857 
7 *521:42 *3597:A2 45.3536 
8 *521:42 *521:55 2.25786 
9 *521:55 *3598:A2 41.0036 
10 *521:55 *3599:A2 44.1314 
*END

*D_NET *522 0.00203328
*CONN
*I *3598:B1 I *D sky130_fd_sc_hd__o21a_2
*I *3597:Y O *D sky130_fd_sc_hd__a21oi_2
*CAP
1 *3598:B1 0.000399786
2 *3597:Y 0.000254502
3 *522:8 0.000654288
4 *3598:B1 *3597:A1 0
5 *3598:B1 *661:41 9.48381e-06
6 *3598:B1 *661:83 0
7 *3598:B1 *900:92 0
8 *3598:B1 *1112:10 0
9 *522:8 *661:53 0.000402801
10 *3597:A2 *3598:B1 0
11 *3599:A2 *3598:B1 0
12 *160:8 *3598:B1 0.000192681
13 *248:8 *3598:B1 0.000119735
14 *521:55 *3598:B1 0
*RES
1 *3597:Y *522:8 42.4329 
2 *522:8 *3598:B1 47.3007 
*END

*D_NET *523 0.000817749
*CONN
*I *3601:B I *D sky130_fd_sc_hd__nor3_2
*I *3599:Y O *D sky130_fd_sc_hd__a21oi_2
*CAP
1 *3601:B 0
2 *3599:Y 0.000291514
3 *523:10 0.000291514
4 *523:10 *3599:B1 5.67058e-05
5 *523:10 *3601:A 0
6 *523:10 *609:95 6.07611e-06
7 *523:10 *609:101 7.64851e-06
8 *523:10 *747:10 0.000164291
*RES
1 *3599:Y *523:10 43.1371 
2 *523:10 *3601:B 38 
*END

*D_NET *524 0.00124729
*CONN
*I *3605:A2 I *D sky130_fd_sc_hd__o21a_2
*I *3601:C I *D sky130_fd_sc_hd__nor3_2
*I *3600:X O *D sky130_fd_sc_hd__and3_2
*CAP
1 *3605:A2 0
2 *3601:C 0.000105521
3 *3600:X 0.000247278
4 *524:12 0.000105521
5 *524:10 0.000247278
6 *3601:C *3601:A 0
7 *3601:C *3605:A1 0.000138262
8 *524:10 *3601:A 6.33614e-05
9 *524:10 *525:8 2.65879e-05
10 *524:10 *527:8 0
11 *3503:B *3601:C 0.000281196
12 *4031:D *3601:C 0
13 *521:24 *524:10 3.22879e-05
*RES
1 *3600:X *524:10 41.48 
2 *524:10 *524:12 15 
3 *524:12 *3601:C 26.9979 
4 *524:12 *3605:A2 23 
*END

*D_NET *525 0.00309759
*CONN
*I *3603:C I *D sky130_fd_sc_hd__and3_2
*I *3610:C I *D sky130_fd_sc_hd__and4_2
*I *3602:X O *D sky130_fd_sc_hd__and4_2
*CAP
1 *3603:C 0.000141898
2 *3610:C 2.87035e-05
3 *3602:X 0.000452866
4 *525:12 0.00030433
5 *525:8 0.000586595
6 *3603:C *3606:B 0.0001164
7 *3603:C *529:8 0.000288682
8 *3610:C *3606:B 9.75779e-05
9 *3610:C *529:8 9.58714e-05
10 *525:8 *3600:B 0.000184527
11 *525:8 *3609:A 8.43466e-05
12 *525:8 *530:10 0.000351519
13 *525:8 *1101:27 9.84851e-05
14 *525:12 *530:10 2.79064e-05
15 *525:12 *1101:20 0
16 *466:12 *525:12 4.979e-05
17 *518:52 *525:12 5.94125e-05
18 *521:24 *525:8 0.000102093
19 *524:10 *525:8 2.65879e-05
*RES
1 *3602:X *525:8 48.6264 
2 *525:8 *525:12 17.61 
3 *525:12 *3610:C 24.0979 
4 *525:12 *3603:C 27.1221 
*END

*D_NET *526 0.00320848
*CONN
*I *3604:B I *D sky130_fd_sc_hd__nor2_2
*I *3607:B I *D sky130_fd_sc_hd__nand2_2
*I *3606:B I *D sky130_fd_sc_hd__or2_2
*I *3603:X O *D sky130_fd_sc_hd__and3_2
*CAP
1 *3604:B 0.000168314
2 *3607:B 0
3 *3606:B 0.000613951
4 *3603:X 0
5 *526:27 0.000440977
6 *526:4 0.000886614
7 *3604:B *3601:A 0
8 *3604:B *903:125 0
9 *3604:B *1113:27 7.00074e-05
10 *3606:B *3501:C 2.4754e-05
11 *3606:B *3501:D 5.67058e-05
12 *3606:B *529:8 6.67283e-05
13 *3606:B *531:10 1.57571e-05
14 *3606:B *1101:20 0.000392386
15 *526:27 *3609:B 1.12695e-05
16 *526:27 *887:52 0
17 *526:27 *903:125 0
18 *526:27 *1100:34 9.28078e-06
19 *526:27 *1113:27 2.25493e-05
20 *3603:C *3606:B 0.0001164
21 *3610:C *3606:B 9.75779e-05
22 *466:12 *526:27 1.02561e-05
23 *511:107 *526:27 0.000204953
24 *518:35 *526:27 0
*RES
1 *3603:X *526:4 23 
2 *526:4 *3606:B 34.745 
3 *526:4 *526:27 33.0894 
4 *526:27 *3607:B 38 
5 *526:27 *3604:B 41.3143 
*END

*D_NET *527 0.000522032
*CONN
*I *3605:B1 I *D sky130_fd_sc_hd__o21a_2
*I *3604:Y O *D sky130_fd_sc_hd__nor2_2
*CAP
1 *3605:B1 5.72657e-05
2 *3604:Y 0.000132771
3 *527:8 0.000190036
4 *527:8 *3601:A 0
5 *3503:A *527:8 0
6 *3503:B *3605:B1 0.00014196
7 *524:10 *527:8 0
*RES
1 *3604:Y *527:8 40.2579 
2 *527:8 *3605:B1 39.5743 
*END

*D_NET *528 0.00171702
*CONN
*I *3608:B I *D sky130_fd_sc_hd__and3_2
*I *3606:X O *D sky130_fd_sc_hd__or2_2
*CAP
1 *3608:B 0.000318798
2 *3606:X 0.000195438
3 *528:8 0.000514236
4 *3608:B *607:97 0.000488848
5 *528:8 *609:20 0.000199701
6 *528:8 *903:25 0
*RES
1 *3606:X *528:8 42.3707 
2 *528:8 *3608:B 43.3857 
*END

*D_NET *529 0.00347501
*CONN
*I *3611:A2 I *D sky130_fd_sc_hd__a211oi_2
*I *3608:C I *D sky130_fd_sc_hd__and3_2
*I *3607:Y O *D sky130_fd_sc_hd__nand2_2
*CAP
1 *3611:A2 0.000117536
2 *3608:C 0.000332262
3 *3607:Y 0.000272998
4 *529:8 0.000722796
5 *3608:C *662:67 0.000161336
6 *3608:C *887:67 2.93747e-05
7 *3608:C *901:57 5.67058e-05
8 *3608:C *903:12 0
9 *3608:C *903:25 0
10 *3611:A2 *662:67 9.28739e-05
11 *3611:A2 *903:25 0
12 *529:8 *3607:A 9.41704e-05
13 *529:8 *531:10 0.000219383
14 *529:8 *1101:20 0.000219383
15 *3603:C *529:8 0.000288682
16 *3606:B *529:8 6.67283e-05
17 *3610:C *529:8 9.58714e-05
18 *148:8 *3608:C 0.000138718
19 *390:19 *3608:C 4.6318e-06
20 *464:8 *529:8 8.39276e-05
21 *518:44 *529:8 0.000126114
22 *518:52 *529:8 0.000351519
*RES
1 *3607:Y *529:8 47.6736 
2 *529:8 *3608:C 45.105 
3 *529:8 *3611:A2 40.61 
*END

*D_NET *530 0.00148477
*CONN
*I *3610:D I *D sky130_fd_sc_hd__and4_2
*I *3609:X O *D sky130_fd_sc_hd__and2_2
*CAP
1 *3610:D 0
2 *3609:X 0.000464419
3 *530:10 0.000464419
4 *530:10 *1101:20 0.000103994
5 *530:10 *1101:27 4.04206e-05
6 *518:52 *530:10 3.20914e-05
7 *525:8 *530:10 0.000351519
8 *525:12 *530:10 2.79064e-05
*RES
1 *3609:X *530:10 45.6436 
2 *530:10 *3610:D 38 
*END

*D_NET *531 0.00501431
*CONN
*I *3611:B1 I *D sky130_fd_sc_hd__a211oi_2
*I *3615:A3 I *D sky130_fd_sc_hd__a31o_2
*I *3614:A2 I *D sky130_fd_sc_hd__a21oi_2
*I *3612:A2 I *D sky130_fd_sc_hd__a21oi_2
*I *3613:A2 I *D sky130_fd_sc_hd__o21a_2
*I *3610:X O *D sky130_fd_sc_hd__and4_2
*CAP
1 *3611:B1 0
2 *3615:A3 0
3 *3614:A2 0.000201484
4 *3612:A2 0
5 *3613:A2 5.15388e-05
6 *3610:X 0.000276848
7 *531:51 4.04306e-05
8 *531:38 0.000328249
9 *531:32 0.000545526
10 *531:28 0.0005269
11 *531:14 0.000460679
12 *531:10 0.000318389
13 *3613:A2 *532:6 9.84794e-05
14 *3614:A2 *3614:A1 0.000253547
15 *3614:A2 *533:10 4.95081e-05
16 *3614:A2 *1102:22 6.48142e-05
17 *531:10 *3501:B 0
18 *531:10 *609:20 0
19 *531:10 *903:25 0.000167452
20 *531:10 *1101:20 9.45591e-05
21 *531:14 *903:25 9.84794e-05
22 *531:28 *3501:C 4.54033e-05
23 *531:28 *4299:A 2.60152e-05
24 *531:28 *903:25 4.19743e-05
25 *531:28 *903:29 7.44257e-05
26 *531:28 *1102:22 0
27 *531:28 *1103:8 3.3577e-05
28 *531:28 *1103:21 3.3746e-05
29 *531:32 *3615:A2 0.000100733
30 *531:32 *534:12 4.93341e-05
31 *531:38 *532:6 8.60475e-05
32 *531:38 *899:116 0
33 *531:38 *1102:22 0.000383503
34 *531:51 *899:116 0
35 *531:51 *1102:22 1.59208e-05
36 *3606:B *531:10 1.57571e-05
37 *254:10 *3614:A2 6.17437e-06
38 *254:10 *531:38 0
39 *255:8 *3614:A2 0
40 *255:8 *531:38 0
41 *464:8 *531:10 0.000305425
42 *529:8 *531:10 0.000219383
*RES
1 *3610:X *531:10 45.1671 
2 *531:10 *531:14 16.0979 
3 *531:14 *531:28 38.5343 
4 *531:28 *531:32 17.5271 
5 *531:32 *531:38 21.1729 
6 *531:38 *3613:A2 24.0979 
7 *531:38 *531:51 30.8493 
8 *531:51 *3612:A2 23 
9 *531:32 *3614:A2 43.0129 
10 *531:28 *3615:A3 23 
11 *531:14 *3611:B1 23 
*END

*D_NET *532 0.000744704
*CONN
*I *3613:B1 I *D sky130_fd_sc_hd__o21a_2
*I *3612:Y O *D sky130_fd_sc_hd__a21oi_2
*CAP
1 *3613:B1 0
2 *3612:Y 0.000166212
3 *532:6 0.000166212
4 *532:6 *3501:D 9.84851e-05
5 *532:6 *3613:A1 7.42621e-05
6 *532:6 *1102:24 5.50049e-05
7 *3613:A2 *532:6 9.84794e-05
8 *531:38 *532:6 8.60475e-05
*RES
1 *3612:Y *532:6 27.4329 
2 *532:6 *3613:B1 23 
*END

*D_NET *533 0.000926316
*CONN
*I *3616:A I *D sky130_fd_sc_hd__nor2_2
*I *3614:Y O *D sky130_fd_sc_hd__a21oi_2
*CAP
1 *3616:A 0
2 *3614:Y 0.000311009
3 *533:10 0.000311009
4 *533:10 *3614:A1 1.32314e-05
5 *533:10 *3843:A2 0.000182826
6 *533:10 *659:99 4.5051e-05
7 *3614:A2 *533:10 4.95081e-05
8 *254:10 *533:10 1.36806e-05
*RES
1 *3614:Y *533:10 28.9036 
2 *533:10 *3616:A 23 
*END

*D_NET *534 0.00181105
*CONN
*I *3616:B I *D sky130_fd_sc_hd__nor2_2
*I *3615:X O *D sky130_fd_sc_hd__a31o_2
*CAP
1 *3616:B 0
2 *3615:X 0.000816965
3 *534:12 0.000816965
4 *534:12 *885:104 1.59312e-05
5 *151:10 *534:12 0.000111852
6 *531:32 *534:12 4.93341e-05
*RES
1 *3615:X *534:12 48.9993 
2 *534:12 *3616:B 38 
*END

*D_NET *535 0.00151457
*CONN
*I *3619:A I *D sky130_fd_sc_hd__nor2_2
*I *3617:X O *D sky130_fd_sc_hd__or4_2
*CAP
1 *3619:A 0.000224623
2 *3617:X 0.000285336
3 *535:10 0.000509959
4 *3619:A *905:42 0.000220047
5 *535:10 *632:12 4.66036e-05
6 *535:10 *961:40 0.000228001
7 *535:10 *962:10 0
8 *535:10 *962:16 0
*RES
1 *3617:X *535:10 42.785 
2 *535:10 *3619:A 42.9093 
*END

*D_NET *536 0.00130685
*CONN
*I *3619:B I *D sky130_fd_sc_hd__nor2_2
*I *3618:X O *D sky130_fd_sc_hd__or4_2
*CAP
1 *3619:B 4.68028e-05
2 *3618:X 0.000216023
3 *536:8 0.000262826
4 *536:8 *3754:S 0.000166676
5 *536:8 *4058:RESET_B 0.000430643
6 *536:8 *905:42 0.000117102
7 *536:8 *961:26 6.67764e-05
*RES
1 *3618:X *536:8 45.54 
2 *536:8 *3619:B 38.6214 
*END

*D_NET *537 0.000875068
*CONN
*I *3624:A I *D sky130_fd_sc_hd__or3_2
*I *3619:Y O *D sky130_fd_sc_hd__nor2_2
*CAP
1 *3624:A 0
2 *3619:Y 0.000300339
3 *537:6 0.000300339
4 *537:6 *3621:A1 3.04308e-05
5 *537:6 *3621:B1 1.57571e-05
6 *537:6 *3621:B2 5.87137e-05
7 *537:6 *3624:B 4.9662e-05
8 *537:6 *951:25 0.000119825
*RES
1 *3619:Y *537:6 28.3857 
2 *537:6 *3624:A 23 
*END

*D_NET *538 0.00152284
*CONN
*I *3621:C1 I *D sky130_fd_sc_hd__a221o_2
*I *3620:X O *D sky130_fd_sc_hd__a22o_2
*CAP
1 *3621:C1 0
2 *3620:X 0.000457505
3 *538:10 0.000457505
4 *538:10 *634:116 8.16356e-05
5 *538:10 *961:40 0.000526198
*RES
1 *3620:X *538:10 46.12 
2 *538:10 *3621:C1 38 
*END

*D_NET *539 0.000224141
*CONN
*I *3624:B I *D sky130_fd_sc_hd__or3_2
*I *3621:X O *D sky130_fd_sc_hd__a221o_2
*CAP
1 *3624:B 8.72395e-05
2 *3621:X 8.72395e-05
3 *537:6 *3624:B 4.9662e-05
*RES
1 *3621:X *3624:B 47.0979 
*END

*D_NET *540 0.00205455
*CONN
*I *3623:C1 I *D sky130_fd_sc_hd__a221o_2
*I *3622:X O *D sky130_fd_sc_hd__a22o_2
*CAP
1 *3623:C1 5.39072e-05
2 *3622:X 0.000806827
3 *540:8 0.000860735
4 *3623:C1 *3621:B1 6.43005e-05
5 *3623:C1 *3623:B2 1.14452e-05
6 *3623:C1 *634:116 0.000141879
7 *540:8 *634:116 5.50106e-05
8 *540:8 *742:10 6.04475e-05
*RES
1 *3622:X *540:8 48.5384 
2 *540:8 *3623:C1 39.9057 
*END

*D_NET *541 0.000607573
*CONN
*I *3624:C I *D sky130_fd_sc_hd__or3_2
*I *3623:X O *D sky130_fd_sc_hd__a221o_2
*CAP
1 *3624:C 0
2 *3623:X 0.000130619
3 *541:10 0.000130619
4 *541:10 *3623:A1 0.000163361
5 *541:10 *3623:A2 1.59094e-05
6 *541:10 *4231:A 3.7122e-06
7 *541:10 *951:25 0.000163352
*RES
1 *3623:X *541:10 40.8793 
2 *541:10 *3624:C 38 
*END

*D_NET *542 0.00392203
*CONN
*I *3635:C I *D sky130_fd_sc_hd__nor3_2
*I *3634:X O *D sky130_fd_sc_hd__or3b_2
*CAP
1 *3635:C 0
2 *3634:X 0.000479063
3 *542:22 0.00047727
4 *542:14 0.000956333
5 *542:14 *3634:A 0.000701923
6 *542:14 *3634:C_N 4.73682e-05
7 *542:14 *613:35 7.88828e-05
8 *542:14 *690:6 2.88036e-05
9 *542:14 *706:26 0.000358425
10 *542:14 *751:10 0.000184527
11 *542:22 *3634:A 0
12 *542:22 *4180:A 0
13 *542:22 *672:14 0.000234706
14 *542:22 *921:26 0.000138718
15 *542:22 *1011:10 0
16 *173:10 *542:22 0.000100477
17 *272:30 *542:22 0.000135534
*RES
1 *3634:X *542:14 35.9982 
2 *542:14 *542:22 39.9429 
3 *542:22 *3635:C 23 
*END

*D_NET *543 0.007117
*CONN
*I *3658:B1 I *D sky130_fd_sc_hd__o21a_2
*I *3654:B1 I *D sky130_fd_sc_hd__o21a_2
*I *3656:B1 I *D sky130_fd_sc_hd__o21a_2
*I *3652:B1 I *D sky130_fd_sc_hd__o21a_2
*I *3650:B1 I *D sky130_fd_sc_hd__o21a_2
*I *3648:Y O *D sky130_fd_sc_hd__nand2b_2
*CAP
1 *3658:B1 0
2 *3654:B1 0.000278935
3 *3656:B1 2.82509e-05
4 *3652:B1 0.00023258
5 *3650:B1 1.71939e-05
6 *3648:Y 0.000237602
7 *543:31 0.000413171
8 *543:27 0.000464392
9 *543:25 0.00195572
10 *543:6 0.00217739
11 *3650:B1 *745:31 1.1258e-05
12 *3652:B1 *3652:A1 0.000230718
13 *3652:B1 *3652:A2 5.5792e-05
14 *3652:B1 *4070:A 5.51442e-05
15 *3652:B1 *4167:A 5.82833e-05
16 *3654:B1 *3654:A2 5.76359e-05
17 *3656:B1 *4070:A 9.79925e-05
18 *543:6 *3648:B 2.95526e-05
19 *543:25 *3967:CLK 2.89351e-05
20 *543:25 *548:10 0.000104328
21 *543:25 *745:31 0.000145171
22 *543:25 *857:14 0.000142678
23 *543:25 *920:10 4.49358e-06
24 *543:25 *998:12 3.90213e-05
25 *543:27 *768:10 1.00286e-05
26 *543:31 *758:12 0
27 *543:31 *759:8 1.74874e-06
28 *543:31 *768:10 2.28401e-05
29 *543:31 *910:72 2.17615e-05
30 *55:8 *543:25 3.82058e-06
31 *286:10 *3652:B1 2.95423e-05
32 *288:10 *3652:B1 1.35999e-05
33 *288:10 *3656:B1 4.69418e-05
34 *289:10 *3654:B1 0.000100477
*RES
1 *3648:Y *543:6 26.9564 
2 *543:6 *3650:B1 23.4971 
3 *543:6 *543:25 42.9436 
4 *543:25 *543:27 0.849286 
5 *543:27 *543:31 17.2579 
6 *543:31 *3652:B1 28.8829 
7 *543:31 *3656:B1 24.0979 
8 *543:27 *3654:B1 43.4064 
9 *543:25 *3658:B1 38 
*END

*D_NET *544 0.00190734
*CONN
*I *3650:A2 I *D sky130_fd_sc_hd__o21a_2
*I *3649:X O *D sky130_fd_sc_hd__and2b_2
*CAP
1 *3650:A2 0.00024817
2 *3649:X 0.000625349
3 *544:8 0.000873519
4 *3650:A2 *1012:10 6.35124e-05
5 *544:8 *614:101 9.67908e-05
*RES
1 *3649:X *544:8 45.7679 
2 *544:8 *3650:A2 42.3707 
*END

*D_NET *545 0.000394079
*CONN
*I *3652:A2 I *D sky130_fd_sc_hd__o21a_2
*I *3651:X O *D sky130_fd_sc_hd__and2b_2
*CAP
1 *3652:A2 3.3042e-05
2 *3651:X 6.11798e-05
3 *545:8 9.42218e-05
4 *545:8 *758:12 0.000113235
5 *3652:B1 *3652:A2 5.5792e-05
6 *286:10 *545:8 3.6608e-05
*RES
1 *3651:X *545:8 39.5536 
2 *545:8 *3652:A2 38.6214 
*END

*D_NET *546 0.00173993
*CONN
*I *3654:A2 I *D sky130_fd_sc_hd__o21a_2
*I *3653:X O *D sky130_fd_sc_hd__and2b_2
*CAP
1 *3654:A2 0.000286349
2 *3653:X 0.00033609
3 *546:10 0.000622439
4 *546:10 *3653:B 1.39431e-05
5 *546:10 *3946:RESET_B 1.97402e-05
6 *546:10 *650:10 0.000157355
7 *546:10 *650:17 7.81829e-05
8 *546:10 *1016:18 3.70071e-06
9 *546:10 *1024:8 0.000164495
10 *3654:B1 *3654:A2 5.76359e-05
11 *287:8 *546:10 0
*RES
1 *3653:X *546:10 45.9336 
2 *546:10 *3654:A2 43.3857 
*END

*D_NET *547 0.000780021
*CONN
*I *3656:A2 I *D sky130_fd_sc_hd__o21a_2
*I *3655:X O *D sky130_fd_sc_hd__and2b_2
*CAP
1 *3656:A2 0
2 *3655:X 0.000163358
3 *547:8 0.000163358
4 *547:8 *548:10 5.28455e-05
5 *547:8 *768:10 0.00018872
6 *547:8 *994:18 7.73061e-05
7 *289:10 *547:8 0.000134433
*RES
1 *3655:X *547:8 42.7229 
2 *547:8 *3656:A2 38 
*END

*D_NET *548 0.000663627
*CONN
*I *3658:A2 I *D sky130_fd_sc_hd__o21a_2
*I *3657:X O *D sky130_fd_sc_hd__and2b_2
*CAP
1 *3658:A2 0
2 *3657:X 0.000253227
3 *548:10 0.000253227
4 *543:25 *548:10 0.000104328
5 *547:8 *548:10 5.28455e-05
*RES
1 *3657:X *548:10 42.0807 
2 *548:10 *3658:A2 38 
*END

*D_NET *549 0.00260404
*CONN
*I *3662:B1 I *D sky130_fd_sc_hd__a21o_2
*I *3661:X O *D sky130_fd_sc_hd__a21bo_2
*CAP
1 *3662:B1 0.000345439
2 *3661:X 7.53472e-05
3 *549:8 0.000420786
4 *3662:B1 *3402:B 5.75972e-05
5 *3662:B1 *3661:B1_N 0.000318411
6 *3662:B1 *4228:A 0.000262178
7 *3662:B1 *602:18 0.000453335
8 *3662:B1 *937:20 5.6572e-05
9 *3662:B1 *939:12 2.60152e-05
10 *549:8 *3661:B1_N 0.000223698
11 *549:8 *646:53 0.000264564
12 *549:8 *936:21 1.32939e-05
13 *292:8 *3662:B1 8.68081e-05
*RES
1 *3661:X *549:8 41.0036 
2 *549:8 *3662:B1 49.0614 
*END

*D_NET *550 0.00240685
*CONN
*I *3664:S I *D sky130_fd_sc_hd__mux2_1
*I *3663:Y O *D sky130_fd_sc_hd__nand2_2
*CAP
1 *3664:S 2.77387e-05
2 *3663:Y 0.000356309
3 *550:8 0.000384047
4 *3664:S *3664:A1 5.50106e-05
5 *3664:S *3745:A0 2.4754e-05
6 *3664:S *3745:A1 9.5877e-05
7 *550:8 *703:8 0.000561356
8 *550:8 *907:10 0
9 *550:8 *907:18 0.000853289
10 *550:8 *907:26 1.14452e-05
11 *550:8 *907:102 3.70187e-05
12 *341:8 *550:8 0
*RES
1 *3663:Y *550:8 49.7657 
2 *550:8 *3664:S 39.0979 
*END

*D_NET *551 0.00446113
*CONN
*I *3666:S I *D sky130_fd_sc_hd__mux2_1
*I *3665:Y O *D sky130_fd_sc_hd__nand2_2
*CAP
1 *3666:S 0
2 *3665:Y 0.000108072
3 *551:14 0.00140766
4 *551:8 0.00151573
5 *551:8 *646:61 7.98155e-05
6 *551:8 *907:136 0.000222113
7 *551:14 *3671:B 3.71251e-05
8 *551:14 *3747:A0 8.35679e-05
9 *551:14 *3747:S 5.50049e-05
10 *551:14 *554:10 0.000391473
11 *551:14 *889:105 9.48055e-05
12 *551:14 *889:109 3.53115e-05
13 *551:14 *907:102 4.17736e-05
14 *551:14 *907:104 0.00030342
15 *551:14 *945:12 1.46324e-05
16 *3666:A0 *551:14 7.06229e-05
*RES
1 *3665:Y *551:8 41.3143 
2 *551:8 *551:14 36.0043 
3 *551:14 *3666:S 23 
*END

*D_NET *552 0.00319125
*CONN
*I *3668:S I *D sky130_fd_sc_hd__mux2_1
*I *3667:Y O *D sky130_fd_sc_hd__nand2_2
*CAP
1 *3668:S 0.00069054
2 *3667:Y 0.000497059
3 *552:12 0.0011876
4 *3668:S *4055:CLK 5.47927e-05
5 *3668:S *624:143 2.93431e-05
6 *3668:S *940:6 0.000114907
7 *552:12 *624:10 6.4393e-05
8 *552:12 *624:12 0.000138185
9 *552:12 *624:16 2.99231e-05
10 *552:12 *641:54 5.50106e-05
11 *552:12 *889:140 0.000190794
12 *338:10 *552:12 0.000138708
*RES
1 *3667:Y *552:12 49.1236 
2 *552:12 *3668:S 48.0671 
*END

*D_NET *553 0.0024028
*CONN
*I *3670:S I *D sky130_fd_sc_hd__mux2_1
*I *3669:Y O *D sky130_fd_sc_hd__nand2_2
*CAP
1 *3670:S 0.000249263
2 *3669:Y 0.000295977
3 *553:10 0.00054524
4 *3670:S *3670:A1 0.000141954
5 *3670:S *4207:A 0.00013962
6 *3670:S *698:12 0.000182826
7 *3670:S *868:18 5.3304e-05
8 *553:10 *865:10 0.000354769
9 *553:10 *868:18 0.000352538
10 *553:10 *889:126 3.47277e-05
11 *3670:A0 *3670:S 5.25848e-05
*RES
1 *3669:Y *553:10 44.7736 
2 *553:10 *3670:S 44.3593 
*END

*D_NET *554 0.000992864
*CONN
*I *3672:S I *D sky130_fd_sc_hd__mux2_1
*I *3671:Y O *D sky130_fd_sc_hd__nand2_2
*CAP
1 *3672:S 0
2 *3671:Y 0.000178511
3 *554:10 0.000178511
4 *554:10 *3672:A1 0.000139352
5 *554:10 *889:109 2.93845e-05
6 *3666:A0 *554:10 2.32004e-05
7 *359:87 *554:10 5.24338e-05
8 *551:14 *554:10 0.000391473
*RES
1 *3671:Y *554:10 28.4271 
2 *554:10 *3672:S 23 
*END

*D_NET *555 0.000494701
*CONN
*I *3674:S I *D sky130_fd_sc_hd__mux2_1
*I *3673:Y O *D sky130_fd_sc_hd__nand2_2
*CAP
1 *3674:S 0
2 *3673:Y 0.000141415
3 *555:10 0.000141415
4 *555:10 *623:60 0
5 *555:10 *694:14 0.000111852
6 *555:10 *816:10 3.69105e-05
7 *555:10 *869:8 1.05235e-05
8 *359:67 *555:10 5.25841e-05
*RES
1 *3673:Y *555:10 41.2314 
2 *555:10 *3674:S 38 
*END

*D_NET *556 0.00106895
*CONN
*I *3676:S I *D sky130_fd_sc_hd__mux2_1
*I *3675:Y O *D sky130_fd_sc_hd__nand2_2
*CAP
1 *3676:S 0.000260713
2 *3675:Y 8.908e-05
3 *556:8 0.000349793
4 *3676:S *805:6 0.00011123
5 *556:8 *623:101 1.14452e-05
6 *556:8 *623:107 0.000169683
7 *556:8 *646:61 0
8 *299:10 *3676:S 5.56279e-05
9 *337:10 *556:8 0
10 *359:45 *3676:S 2.13733e-05
*RES
1 *3675:Y *556:8 40.2579 
2 *556:8 *3676:S 42.93 
*END

*D_NET *557 0.00179072
*CONN
*I *3678:S I *D sky130_fd_sc_hd__mux2_1
*I *3677:Y O *D sky130_fd_sc_hd__nand2_2
*CAP
1 *3678:S 0.000188936
2 *3677:Y 0.000304883
3 *557:8 0.000493819
4 *3678:S *4285:A 9.84794e-05
5 *557:8 *4053:RESET_B 5.24393e-05
6 *557:8 *4378:A 0.000168744
7 *557:8 *581:12 0.000218962
8 *557:8 *871:8 0
9 *557:8 *939:30 7.76364e-06
10 *557:8 *947:8 0.000256696
11 *11:10 *557:8 0
12 *293:10 *557:8 0
*RES
1 *3677:Y *557:8 46.2443 
2 *557:8 *3678:S 41.48 
*END

*D_NET *558 0.000704973
*CONN
*I *3681:B I *D sky130_fd_sc_hd__nor2_2
*I *3680:X O *D sky130_fd_sc_hd__a2bb2o_2
*CAP
1 *3681:B 0
2 *3680:X 0.000304365
3 *558:10 0.000304365
4 *558:10 *3945:SET_B 0
5 *558:10 *3951:RESET_B 6.68587e-05
6 *558:10 *652:16 0
7 *558:10 *994:48 2.93845e-05
8 *79:10 *558:10 0
*RES
1 *3680:X *558:10 43.3443 
2 *558:10 *3681:B 38 
*END

*D_NET *559 0.00150434
*CONN
*I *3684:A2 I *D sky130_fd_sc_hd__a22o_2
*I *3685:A2 I *D sky130_fd_sc_hd__a22o_2
*I *3682:Y O *D sky130_fd_sc_hd__a21oi_2
*CAP
1 *3684:A2 1.04533e-05
2 *3685:A2 0.000103424
3 *3682:Y 0.000342117
4 *559:10 0.000455994
5 *3684:A2 *682:27 1.46586e-05
6 *3685:A2 *560:16 0.000106527
7 *3685:A2 *676:24 0.000263272
8 *3685:A2 *981:84 3.70094e-05
9 *559:10 *3682:B1 1.21972e-05
10 *559:10 *3683:A_N 2.54046e-05
11 *559:10 *605:12 9.62666e-05
12 *559:10 *605:20 0
13 *559:10 *676:24 3.70187e-05
14 *559:10 *838:12 0
*RES
1 *3682:Y *559:10 42.9093 
2 *559:10 *3685:A2 41.4852 
3 *559:10 *3684:A2 38.1709 
*END

*D_NET *560 0.000971226
*CONN
*I *3684:B1 I *D sky130_fd_sc_hd__a22o_2
*I *3685:B1 I *D sky130_fd_sc_hd__a22o_2
*I *3683:X O *D sky130_fd_sc_hd__and3b_2
*CAP
1 *3684:B1 0
2 *3685:B1 0
3 *3683:X 0.00013069
4 *560:16 0.000103416
5 *560:10 0.000234106
6 *560:10 *3683:A_N 2.02872e-05
7 *560:10 *682:27 3.91386e-05
8 *560:16 *981:84 3.70094e-05
9 *3685:A2 *560:16 0.000106527
10 *363:49 *560:10 5.3304e-05
11 *363:49 *560:16 0.000246748
*RES
1 *3683:X *560:10 25.5686 
2 *560:10 *560:16 33.3143 
3 *560:16 *3685:B1 23 
4 *560:10 *3684:B1 23 
*END

*D_NET *561 0.000913603
*CONN
*I *3688:B1 I *D sky130_fd_sc_hd__o21a_2
*I *3687:X O *D sky130_fd_sc_hd__a221o_2
*CAP
1 *3688:B1 0.000171106
2 *3687:X 9.80864e-05
3 *561:8 0.000269192
4 *561:8 *981:39 5.18573e-05
5 *561:8 *1002:51 6.5117e-06
6 *306:10 *3688:B1 3.71887e-05
7 *435:8 *3688:B1 0.000279661
*RES
1 *3687:X *561:8 39.9057 
2 *561:8 *3688:B1 43.3857 
*END

*D_NET *562 0.00628122
*CONN
*I *3692:B1 I *D sky130_fd_sc_hd__a22o_2
*I *3694:B1 I *D sky130_fd_sc_hd__a22o_2
*I *3696:B1 I *D sky130_fd_sc_hd__a22o_2
*I *3689:Y O *D sky130_fd_sc_hd__a21oi_2
*CAP
1 *3692:B1 0
2 *3694:B1 0.000192061
3 *3696:B1 0
4 *3689:Y 0.00126796
5 *562:35 0.000593048
6 *562:22 0.000261348
7 *562:14 0.0019303
8 *3694:B1 *564:14 0.000145171
9 *562:14 *3481:A 2.95526e-05
10 *562:14 *569:24 0.000281823
11 *562:14 *924:35 5.58003e-05
12 *562:14 *951:10 5.82853e-05
13 *562:22 *3696:A1 0.000138859
14 *562:22 *564:14 6.12392e-05
15 *562:22 *569:24 3.89149e-05
16 *3692:A2 *3694:B1 0.000103839
17 *3898:D *562:14 8.68775e-05
18 *3898:D *562:22 5.82853e-05
19 *307:10 *562:35 0.000137982
20 *308:10 *3694:B1 0.000179812
21 *308:10 *562:35 0.000113389
22 *309:10 *562:22 6.33771e-05
23 *434:43 *3694:B1 1.46586e-05
24 *434:73 *562:14 7.19639e-05
25 *441:16 *562:14 0.000187363
26 *446:10 *562:14 2.60063e-05
27 *448:18 *562:14 0.000183309
*RES
1 *3689:Y *562:14 43.4864 
2 *562:14 *562:22 34.3293 
3 *562:22 *3696:B1 23 
4 *562:14 *562:35 37.8093 
5 *562:35 *3694:B1 27.4329 
6 *562:35 *3692:B1 23 
*END

*D_NET *563 0.00949004
*CONN
*I *3704:B1 I *D sky130_fd_sc_hd__o22a_2
*I *3700:B1 I *D sky130_fd_sc_hd__o22a_2
*I *3698:B1 I *D sky130_fd_sc_hd__o22a_2
*I *3702:B1 I *D sky130_fd_sc_hd__o22a_2
*I *3690:X O *D sky130_fd_sc_hd__a21o_2
*CAP
1 *3704:B1 3.73824e-05
2 *3700:B1 0.000306802
3 *3698:B1 0
4 *3702:B1 0.000219401
5 *3690:X 0.000193044
6 *563:47 0.000729183
7 *563:39 0.00114993
8 *563:22 0.0014575
9 *563:6 0.00135458
10 *3700:B1 *3700:B2 6.17437e-06
11 *3700:B1 *3901:RESET_B 4.89921e-05
12 *3700:B1 *954:10 0.000218563
13 *3702:B1 *567:16 0.000251725
14 *3702:B1 *569:24 9.64943e-05
15 *3702:B1 *841:38 2.46906e-05
16 *3702:B1 *913:78 3.34818e-06
17 *3702:B1 *956:12 0
18 *563:22 *4244:A 5.58003e-05
19 *563:22 *913:78 3.70325e-05
20 *563:22 *953:8 0.000124242
21 *563:22 *955:6 0.000184707
22 *563:22 *955:21 0.000223077
23 *563:39 *567:16 0.000244057
24 *563:39 *913:78 5.6339e-05
25 *563:39 *913:88 6.5117e-06
26 *563:47 *3901:CLK 0.000277792
27 *563:47 *608:77 0
28 *563:47 *608:79 0
29 *3902:D *563:22 0.000491204
30 *310:8 *563:47 0.000144073
31 *313:10 *563:6 0.000192342
32 *434:22 *563:6 0.000120817
33 *434:22 *563:22 0.000435252
34 *435:22 *3700:B1 0.000452455
35 *435:22 *563:47 0.000103948
36 *435:61 *563:22 9.91548e-05
37 *438:8 *3702:B1 0.000143423
*RES
1 *3690:X *563:6 28.3857 
2 *563:6 *563:22 41.1932 
3 *563:22 *3702:B1 43.5618 
4 *563:22 *563:39 18.4904 
5 *563:39 *563:47 41.89 
6 *563:47 *3698:B1 23 
7 *563:39 *3700:B1 30.8093 
8 *563:6 *3704:B1 23.8493 
*END

*D_NET *564 0.00436145
*CONN
*I *3692:B2 I *D sky130_fd_sc_hd__a22o_2
*I *3691:X O *D sky130_fd_sc_hd__mux2_1
*CAP
1 *3692:B2 0
2 *3691:X 0.000674146
3 *564:14 0.000720032
4 *564:8 0.00139418
5 *564:8 *3482:B 0.00017761
6 *564:8 *912:35 2.44364e-05
7 *564:8 *913:10 0.000223698
8 *564:14 *3631:A1 3.34818e-06
9 *564:14 *3631:S 9.89274e-05
10 *564:14 *566:10 0.000371862
11 *564:14 *632:12 0
12 *564:14 *743:8 1.16455e-05
13 *564:14 *844:14 1.19591e-05
14 *3691:S *564:8 7.43114e-05
15 *3692:A2 *564:14 0.000145171
16 *3694:B1 *564:14 0.000145171
17 *309:10 *564:14 7.92146e-05
18 *427:55 *564:14 9.28078e-06
19 *434:43 *564:14 0.00013522
20 *562:22 *564:14 6.12392e-05
*RES
1 *3691:X *564:8 49.5793 
2 *564:8 *564:14 31.1571 
3 *564:14 *3692:B2 23 
*END

*D_NET *565 0.00334406
*CONN
*I *3694:B2 I *D sky130_fd_sc_hd__a22o_2
*I *3693:X O *D sky130_fd_sc_hd__mux2_1
*CAP
1 *3694:B2 0
2 *3693:X 0
3 *565:14 0.0010885
4 *565:6 0.0010885
5 *565:14 *4230:A 4.42603e-05
6 *565:14 *604:48 0
7 *565:14 *853:22 0.00027452
8 *565:14 *913:10 0.000193117
9 *565:14 *956:12 0.000571174
10 *565:14 *956:27 3.44029e-05
11 *565:14 *983:52 2.8133e-05
12 *3697:S *565:14 0
13 *311:8 *565:14 2.14486e-05
14 *427:67 *565:14 0
*RES
1 *3693:X *565:6 38 
2 *565:6 *565:14 37.4336 
3 *565:14 *3694:B2 23 
*END

*D_NET *566 0.00173201
*CONN
*I *3696:B2 I *D sky130_fd_sc_hd__a22o_2
*I *3695:X O *D sky130_fd_sc_hd__mux2_1
*CAP
1 *3696:B2 0
2 *3695:X 0.000418214
3 *566:10 0.000418214
4 *566:10 *4243:A 0
5 *566:10 *743:8 0.000164392
6 *566:10 *912:35 0.000359326
7 *564:14 *566:10 0.000371862
*RES
1 *3695:X *566:10 47.0314 
2 *566:10 *3696:B2 38 
*END

*D_NET *567 0.00363334
*CONN
*I *3698:B2 I *D sky130_fd_sc_hd__o22a_2
*I *3697:X O *D sky130_fd_sc_hd__mux2_1
*CAP
1 *3698:B2 0
2 *3697:X 0.000152801
3 *567:16 0.000928261
4 *567:8 0.00108106
5 *567:8 *909:25 0.000235687
6 *567:16 *3698:A1 7.58413e-05
7 *567:16 *3758:A0 0.000203605
8 *567:16 *608:77 0
9 *567:16 *760:6 0.000130971
10 *567:16 *760:16 0.000102389
11 *567:16 *905:71 5.44889e-06
12 *567:16 *983:46 2.04346e-05
13 *3698:A2 *567:16 9.80703e-06
14 *3702:B1 *567:16 0.000251725
15 *312:10 *567:16 0
16 *350:10 *567:16 0.000191255
17 *563:39 *567:16 0.000244057
*RES
1 *3697:X *567:8 40.5271 
2 *567:8 *567:16 35.2379 
3 *567:16 *3698:B2 23 
*END

*D_NET *568 0.00342899
*CONN
*I *3700:B2 I *D sky130_fd_sc_hd__o22a_2
*I *3699:X O *D sky130_fd_sc_hd__mux2_1
*CAP
1 *3700:B2 0.000331298
2 *3699:X 0.000405681
3 *568:12 0.000736979
4 *3700:B2 *3899:CLK 4.16051e-06
5 *3700:B2 *604:48 0.000616627
6 *3700:B2 *620:58 3.35885e-06
7 *3700:B2 *620:79 5.70885e-05
8 *3700:B2 *620:90 6.16603e-05
9 *3700:B2 *954:10 8.06804e-06
10 *3700:B2 *955:21 0.000160125
11 *568:12 *3482:B 0.000376093
12 *568:12 *604:48 7.37814e-06
13 *568:12 *620:58 9.56865e-05
14 *568:12 *853:22 3.74605e-05
15 *568:12 *986:27 7.53384e-06
16 *3700:B1 *3700:B2 6.17437e-06
17 *269:8 *568:12 0.000397305
18 *427:55 *568:12 4.39488e-05
19 *435:22 *3700:B2 7.23581e-05
*RES
1 *3699:X *568:12 48.0361 
2 *568:12 *3700:B2 47.8911 
*END

*D_NET *569 0.00496334
*CONN
*I *3702:B2 I *D sky130_fd_sc_hd__o22a_2
*I *3701:X O *D sky130_fd_sc_hd__mux2_1
*CAP
1 *3702:B2 0
2 *3701:X 0.000133709
3 *569:24 0.000974264
4 *569:8 0.00110797
5 *569:8 *3704:B2 0.000100202
6 *569:8 *632:65 0.000141879
7 *569:24 *3702:A1 5.82853e-05
8 *569:24 *3898:CLK 0.000306147
9 *569:24 *841:38 0.000545519
10 *3485:B *569:24 7.17698e-05
11 *3702:B1 *569:24 9.64943e-05
12 *3898:D *569:24 8.26478e-05
13 *309:10 *569:24 0.000138859
14 *438:8 *569:24 0.00049066
15 *441:16 *569:24 4.67488e-05
16 *449:20 *569:8 0.000347446
17 *562:14 *569:24 0.000281823
18 *562:22 *569:24 3.89149e-05
*RES
1 *3701:X *569:8 42.7229 
2 *569:8 *569:24 40.8929 
3 *569:24 *3702:B2 23 
*END

*D_NET *570 0.00192975
*CONN
*I *3704:B2 I *D sky130_fd_sc_hd__o22a_2
*I *3703:X O *D sky130_fd_sc_hd__mux2_1
*CAP
1 *3704:B2 0.00042515
2 *3703:X 0.000169459
3 *570:8 0.000594609
4 *3704:B2 *3481:A 0
5 *3704:B2 *632:65 0.000246748
6 *3704:B2 *987:10 2.71291e-05
7 *3704:B2 *987:23 8.05114e-05
8 *3704:B2 *987:38 0
9 *570:8 *3703:A1 9.84851e-05
10 *570:8 *854:26 0.000139357
11 *427:29 *570:8 1.56665e-05
12 *427:43 *570:8 2.4754e-05
13 *449:20 *3704:B2 7.6774e-06
14 *569:8 *3704:B2 0.000100202
*RES
1 *3703:X *570:8 41.48 
2 *570:8 *3704:B2 46.9486 
*END

*D_NET *571 9.61103e-05
*CONN
*I *3714:A I *D sky130_fd_sc_hd__and4_2
*I *3705:Y O *D sky130_fd_sc_hd__xnor2_2
*CAP
1 *3714:A 1.94064e-05
2 *3705:Y 1.94064e-05
3 *3714:A *3714:B 5.72975e-05
*RES
1 *3705:Y *3714:A 46.6214 
*END

*D_NET *572 0.00116126
*CONN
*I *3714:B I *D sky130_fd_sc_hd__and4_2
*I *3706:Y O *D sky130_fd_sc_hd__xnor2_2
*CAP
1 *3714:B 0.0004484
2 *3706:Y 6.4428e-05
3 *572:8 0.000512828
4 *3714:B *3705:A 6.17437e-06
5 *3714:B *3705:B 3.22465e-05
6 *572:8 *3706:B 3.98887e-05
7 *3714:A *3714:B 5.72975e-05
*RES
1 *3706:Y *572:8 39.2014 
2 *572:8 *3714:B 43.8621 
*END

*D_NET *573 0.000372084
*CONN
*I *3713:A I *D sky130_fd_sc_hd__and4_2
*I *3707:Y O *D sky130_fd_sc_hd__xnor2_2
*CAP
1 *3713:A 7.23158e-05
2 *3707:Y 5.58952e-05
3 *573:8 0.000128211
4 *3713:A *3713:B 2.93747e-05
5 *573:8 *3707:B 8.62876e-05
6 *573:8 *739:18 0
*RES
1 *3707:Y *573:8 39.2014 
2 *573:8 *3713:A 39.1186 
*END

*D_NET *574 0.000576847
*CONN
*I *3714:C I *D sky130_fd_sc_hd__and4_2
*I *3708:Y O *D sky130_fd_sc_hd__xnor2_2
*CAP
1 *3714:C 0
2 *3708:Y 0.000244164
3 *574:8 0.000244164
4 *574:8 *576:10 8.85189e-05
5 *574:8 *588:16 0
6 *574:8 *604:30 0
*RES
1 *3708:Y *574:8 42.7229 
2 *574:8 *3714:C 38 
*END

*D_NET *575 0.000228937
*CONN
*I *3713:B I *D sky130_fd_sc_hd__and4_2
*I *3709:Y O *D sky130_fd_sc_hd__xnor2_2
*CAP
1 *3713:B 6.11118e-05
2 *3709:Y 6.11118e-05
3 *3713:B *577:10 7.73389e-05
4 *3713:A *3713:B 2.93747e-05
*RES
1 *3709:Y *3713:B 47.5743 
*END

*D_NET *576 0.000394034
*CONN
*I *3714:D I *D sky130_fd_sc_hd__and4_2
*I *3710:Y O *D sky130_fd_sc_hd__xnor2_2
*CAP
1 *3714:D 0
2 *3710:Y 0.000124237
3 *576:10 0.000124237
4 *576:10 *3710:B 5.70419e-05
5 *576:10 *588:16 0
6 *574:8 *576:10 8.85189e-05
*RES
1 *3710:Y *576:10 40.2993 
2 *576:10 *3714:D 38 
*END

*D_NET *577 0.00138807
*CONN
*I *3713:C I *D sky130_fd_sc_hd__and4_2
*I *3711:Y O *D sky130_fd_sc_hd__xnor2_2
*CAP
1 *3713:C 0
2 *3711:Y 0.000578974
3 *577:10 0.000578974
4 *577:10 *3709:A 0.000152787
5 *3713:B *577:10 7.73389e-05
*RES
1 *3711:Y *577:10 33.5436 
2 *577:10 *3713:C 23 
*END

*D_NET *578 0.000506872
*CONN
*I *3713:D I *D sky130_fd_sc_hd__and4_2
*I *3712:Y O *D sky130_fd_sc_hd__xnor2_2
*CAP
1 *3713:D 0
2 *3712:Y 0.00025158
3 *578:10 0.00025158
4 *578:10 *3707:B 3.7122e-06
5 *578:10 *646:61 0
*RES
1 *3712:Y *578:10 41.2521 
2 *578:10 *3713:D 38 
*END

*D_NET *579 0.00269899
*CONN
*I *3717:A1 I *D sky130_fd_sc_hd__a21oi_2
*I *3715:A1 I *D sky130_fd_sc_hd__a21oi_2
*I *3713:X O *D sky130_fd_sc_hd__and4_2
*CAP
1 *3717:A1 0
2 *3715:A1 0.000279415
3 *3713:X 0.000335256
4 *579:10 0.000503389
5 *579:8 0.00055923
6 *3715:A1 *3715:A2 0.000132754
7 *3715:A1 *582:23 6.60558e-05
8 *3715:A1 *632:32 3.53115e-05
9 *3715:A1 *971:59 0.000111158
10 *579:8 *623:115 0.000359326
11 *579:8 *646:57 7.42621e-05
12 *579:10 *3909:RESET_B 0
13 *579:10 *971:59 0.000189184
14 *318:10 *579:10 5.36457e-05
*RES
1 *3713:X *579:8 45.2914 
2 *579:8 *579:10 5.075 
3 *579:10 *3715:A1 44.9393 
4 *579:10 *3717:A1 38 
*END

*D_NET *580 0.00506042
*CONN
*I *3717:A2 I *D sky130_fd_sc_hd__a21oi_2
*I *3715:A2 I *D sky130_fd_sc_hd__a21oi_2
*I *3714:X O *D sky130_fd_sc_hd__and4_2
*CAP
1 *3717:A2 0.000228564
2 *3715:A2 0.000198849
3 *3714:X 0.000414935
4 *580:10 0.000807691
5 *580:8 0.000795213
6 *3715:A2 *3728:A 9.67842e-05
7 *3715:A2 *3728:B 2.98648e-05
8 *3715:A2 *632:32 0.000441076
9 *3717:A2 *3730:A 0.000221997
10 *3717:A2 *3909:RESET_B 2.35393e-05
11 *3717:A2 *582:10 2.32101e-05
12 *3717:A2 *588:49 0
13 *3717:A2 *590:8 3.69334e-05
14 *3717:A2 *591:10 0.000136486
15 *3717:A2 *871:22 0.00026457
16 *3717:A2 *973:66 0.000199169
17 *580:8 *619:14 0.000137613
18 *580:10 *3909:RESET_B 1.22803e-05
19 *580:10 *588:49 0
20 *580:10 *589:8 0.000114083
21 *580:10 *632:22 0.00018372
22 *3715:A1 *3715:A2 0.000132754
23 *316:8 *580:10 0.000218023
24 *317:10 *580:10 0.000343064
*RES
1 *3714:X *580:8 43.8621 
2 *580:8 *580:10 10.005 
3 *580:10 *3715:A2 44.3593 
4 *580:10 *3717:A2 45.0843 
*END

*D_NET *581 0.00221814
*CONN
*I *3716:B I *D sky130_fd_sc_hd__nor2_2
*I *3715:Y O *D sky130_fd_sc_hd__a21oi_2
*CAP
1 *3716:B 0
2 *3715:Y 7.41481e-05
3 *581:12 0.000514598
4 *581:8 0.000588747
5 *581:12 *871:8 0
6 *581:12 *936:12 0.000534499
7 *3716:A *581:12 6.3614e-05
8 *354:30 *581:12 0.000223575
9 *557:8 *581:12 0.000218962
*RES
1 *3715:Y *581:8 39.0979 
2 *581:8 *581:12 28.8786 
3 *581:12 *3716:B 23 
*END

*D_NET *582 0.0111146
*CONN
*I *3721:A I *D sky130_fd_sc_hd__and3_2
*I *3724:B I *D sky130_fd_sc_hd__and3b_2
*I *3727:C I *D sky130_fd_sc_hd__and3b_2
*I *3736:B I *D sky130_fd_sc_hd__and3b_2
*I *3742:A I *D sky130_fd_sc_hd__and3_2
*I *3739:A I *D sky130_fd_sc_hd__and3_2
*I *3733:B I *D sky130_fd_sc_hd__and3b_2
*I *3730:A I *D sky130_fd_sc_hd__and3_2
*I *3717:Y O *D sky130_fd_sc_hd__a21oi_2
*CAP
1 *3721:A 0.000371225
2 *3724:B 0
3 *3727:C 0
4 *3736:B 0
5 *3742:A 0
6 *3739:A 0.000101974
7 *3733:B 0
8 *3730:A 0.000119247
9 *3717:Y 0.000107267
10 *582:87 0.00015986
11 *582:74 0.000534307
12 *582:59 0.000673078
13 *582:44 0.000652112
14 *582:33 0.00103081
15 *582:31 0.000995481
16 *582:29 0.000470423
17 *582:23 0.000951293
18 *582:10 0.000552334
19 *3721:A *3722:B1 3.97681e-05
20 *3721:A *3726:A 7.73735e-05
21 *3721:A *585:14 1.94812e-05
22 *3721:A *586:10 0.0002246
23 *3721:A *970:77 0.000151657
24 *3730:A *3730:C 5.50106e-05
25 *3739:A *596:10 4.08537e-05
26 *3739:A *597:8 0.000111127
27 *3739:A *818:8 2.8241e-05
28 *3739:A *916:77 0
29 *582:10 *871:22 3.17516e-05
30 *582:23 *3726:B 6.48142e-05
31 *582:23 *3909:RESET_B 0.000138921
32 *582:23 *632:22 9.38027e-05
33 *582:23 *971:59 0
34 *582:29 *3719:A 2.93747e-05
35 *582:29 *3726:B 0.00033292
36 *582:29 *586:10 0.000293795
37 *582:29 *587:8 0.000111852
38 *582:29 *632:22 7.55595e-05
39 *582:31 *3719:A 0.000139774
40 *582:33 *3719:A 6.17437e-06
41 *582:33 *3731:A2 9.00922e-05
42 *582:33 *3731:B1 0.000171417
43 *582:33 *584:12 7.43025e-06
44 *582:33 *588:29 5.10805e-05
45 *582:44 *3731:B1 1.24376e-05
46 *582:44 *3737:A 2.93431e-05
47 *582:44 *595:47 2.07484e-05
48 *582:44 *596:10 0.000265472
49 *582:59 *3740:A1 5.50106e-05
50 *582:59 *3740:A2 5.50106e-05
51 *582:59 *597:8 0.000108662
52 *582:59 *599:8 1.14452e-05
53 *582:74 *3740:A1 0.000127821
54 *582:74 *3740:A2 0.000139352
55 *582:74 *595:24 0.000131751
56 *582:74 *595:30 0.000246757
57 *582:74 *597:8 0.000122407
58 *582:74 *599:8 0
59 *582:74 *871:22 7.43942e-05
60 *582:74 *976:21 1.12487e-05
61 *582:74 *976:61 0
62 *582:87 *3907:CLK 4.9054e-06
63 *582:87 *588:16 0
64 *582:87 *588:29 0.000138727
65 *3715:A1 *582:23 6.60558e-05
66 *3717:A2 *3730:A 0.000221997
67 *3717:A2 *582:10 2.32101e-05
68 *317:10 *582:87 0.000105175
69 *318:10 *3730:A 2.32004e-05
70 *318:10 *582:10 1.32314e-05
71 *321:8 *3739:A 0
72 *321:8 *582:59 0
*RES
1 *3717:Y *582:10 25.5686 
2 *582:10 *3730:A 26.0243 
3 *582:10 *582:23 21.4836 
4 *582:23 *582:29 21.7529 
5 *582:29 *582:31 3.00357 
6 *582:31 *582:33 9.19714 
7 *582:33 *3733:B 23 
8 *582:33 *582:44 22.3121 
9 *582:44 *3739:A 40.9621 
10 *582:44 *582:59 18.5836 
11 *582:59 *3742:A 23 
12 *582:59 *582:74 41.3929 
13 *582:74 *3736:B 23 
14 *582:31 *582:87 33.1538 
15 *582:87 *3727:C 23 
16 *582:29 *3724:B 23 
17 *582:23 *3721:A 45.8714 
*END

*D_NET *583 0.00489703
*CONN
*I *3722:A2 I *D sky130_fd_sc_hd__a21o_2
*I *3719:B I *D sky130_fd_sc_hd__or2_2
*I *3720:B I *D sky130_fd_sc_hd__nand2_2
*I *3723:C I *D sky130_fd_sc_hd__and3_2
*I *3718:X O *D sky130_fd_sc_hd__or2_2
*CAP
1 *3722:A2 0
2 *3719:B 0.000256396
3 *3720:B 0.000140542
4 *3723:C 0.000104621
5 *3718:X 7.79907e-05
6 *583:53 0.000353795
7 *583:16 0.000360724
8 *583:12 0.000497894
9 *583:6 0.000557723
10 *3719:B *3719:A 0.000428937
11 *3719:B *3724:A_N 9.84851e-05
12 *3719:B *584:12 0.000300388
13 *3719:B *970:23 0.00013463
14 *3719:B *970:77 8.80821e-05
15 *3719:B *971:20 0.000138579
16 *3719:B *972:47 2.13834e-05
17 *3720:B *632:12 0
18 *3720:B *970:23 3.35885e-06
19 *3720:B *970:53 9.20311e-06
20 *3720:B *971:20 1.86371e-05
21 *3720:B *972:26 0.000194318
22 *3723:C *970:23 2.24608e-05
23 *583:6 *972:47 5.50106e-05
24 *583:12 *971:20 2.31209e-05
25 *583:12 *972:47 9.58714e-05
26 *583:16 *970:23 7.48025e-05
27 *583:16 *971:20 9.94477e-05
28 *583:53 *3721:B 9.07655e-05
29 *583:53 *3906:RESET_B 0
30 *583:53 *585:14 0.00063842
31 *583:53 *632:32 1.14452e-05
*RES
1 *3718:X *583:6 24.5743 
2 *583:6 *583:12 17.3718 
3 *583:12 *583:16 3.58357 
4 *583:16 *3723:C 39.4189 
5 *583:16 *3720:B 41.4904 
6 *583:12 *3719:B 46.1718 
7 *583:6 *583:53 38.5964 
8 *583:53 *3722:A2 23 
*END

*D_NET *584 0.0026412
*CONN
*I *3721:B I *D sky130_fd_sc_hd__and3_2
*I *3719:X O *D sky130_fd_sc_hd__or2_2
*CAP
1 *3721:B 0.000196622
2 *3719:X 0.000789382
3 *584:12 0.000986003
4 *3721:B *3906:RESET_B 4.23817e-05
5 *584:12 *3719:A 4.5051e-05
6 *584:12 *3724:A_N 9.84851e-05
7 *584:12 *3724:C 1.74843e-05
8 *584:12 *588:29 5.50049e-05
9 *584:12 *970:77 1.21972e-05
10 *3719:B *584:12 0.000300388
11 *315:10 *3721:B 0
12 *582:33 *584:12 7.43025e-06
13 *583:53 *3721:B 9.07655e-05
*RES
1 *3719:X *584:12 49.2686 
2 *584:12 *3721:B 42.0186 
*END

*D_NET *585 0.00313535
*CONN
*I *3721:C I *D sky130_fd_sc_hd__and3_2
*I *3720:Y O *D sky130_fd_sc_hd__nand2_2
*CAP
1 *3721:C 0
2 *3720:Y 0
3 *585:14 0.000639773
4 *585:6 0.000639773
5 *585:14 *4172:A 3.22879e-05
6 *585:14 *632:32 2.95125e-05
7 *585:14 *875:58 0
8 *585:14 *970:53 0.000218943
9 *585:14 *971:20 0.000111699
10 *585:14 *971:37 0.000114092
11 *585:14 *971:59 0
12 *585:14 *972:8 5.20202e-05
13 *585:14 *972:47 0.00063935
14 *585:14 *999:14 0
15 *3721:A *585:14 1.94812e-05
16 *583:53 *585:14 0.00063842
*RES
1 *3720:Y *585:6 38 
2 *585:6 *585:14 32.1307 
3 *585:14 *3721:C 23 
*END

*D_NET *586 0.0015169
*CONN
*I *3724:C I *D sky130_fd_sc_hd__and3b_2
*I *3722:X O *D sky130_fd_sc_hd__a21o_2
*CAP
1 *3724:C 1.28451e-05
2 *3722:X 0.000326078
3 *586:10 0.000338923
4 *586:10 *3726:A 8.06804e-06
5 *586:10 *632:22 0.000295106
6 *3721:A *586:10 0.0002246
7 *582:29 *586:10 0.000293795
8 *584:12 *3724:C 1.74843e-05
*RES
1 *3722:X *586:10 45.0221 
2 *586:10 *3724:C 38.1916 
*END

*D_NET *587 0.00198157
*CONN
*I *3726:B I *D sky130_fd_sc_hd__or2_2
*I *3724:A_N I *D sky130_fd_sc_hd__and3b_2
*I *3723:X O *D sky130_fd_sc_hd__and3_2
*CAP
1 *3726:B 0.000203919
2 *3724:A_N 2.01521e-05
3 *3723:X 0.000191526
4 *587:8 0.000415598
5 *3726:B *971:20 7.98155e-05
6 *3726:B *971:44 0
7 *587:8 *632:12 3.56537e-05
8 *587:8 *632:22 6.11183e-05
9 *587:8 *970:23 0.000231584
10 *587:8 *971:20 3.56433e-05
11 *3719:B *3724:A_N 9.84851e-05
12 *582:23 *3726:B 6.48142e-05
13 *582:29 *3726:B 0.00033292
14 *582:29 *587:8 0.000111852
15 *584:12 *3724:A_N 9.84851e-05
*RES
1 *3723:X *587:8 43.4271 
2 *587:8 *3724:A_N 39.0979 
3 *587:8 *3726:B 43.4271 
*END

*D_NET *588 0.00879546
*CONN
*I *3735:D I *D sky130_fd_sc_hd__and4_2
*I *3728:B I *D sky130_fd_sc_hd__nand2_2
*I *3729:B I *D sky130_fd_sc_hd__or2_2
*I *3727:A_N I *D sky130_fd_sc_hd__and3b_2
*I *3732:C I *D sky130_fd_sc_hd__and3_2
*I *3731:A2 I *D sky130_fd_sc_hd__a21o_2
*I *3725:X O *D sky130_fd_sc_hd__o2111a_2
*CAP
1 *3735:D 0.000685217
2 *3728:B 0.000272845
3 *3729:B 0
4 *3727:A_N 0
5 *3732:C 0.000824071
6 *3731:A2 0.000107404
7 *3725:X 0.000484662
8 *588:58 0.000984256
9 *588:49 0.000357443
10 *588:33 0.000881748
11 *588:29 0.000565793
12 *588:16 0.000571627
13 *588:12 0.000772017
14 *3728:B *3728:A 9.62764e-05
15 *3728:B *591:10 5.50106e-05
16 *3732:C *3732:A 0.000173274
17 *3732:C *3907:CLK 9.86742e-05
18 *3732:C *4106:A 0
19 *3732:C *593:6 6.58415e-06
20 *3732:C *595:47 2.93335e-05
21 *3732:C *619:6 1.94693e-05
22 *3732:C *619:87 1.21972e-05
23 *3735:D *3735:A 0.000142577
24 *3735:D *3735:C 5.56356e-05
25 *3735:D *871:22 0.000153507
26 *3735:D *973:25 0
27 *3735:D *973:66 0.000123439
28 *588:12 *3710:B 0.000571494
29 *588:12 *3723:A 4.00259e-06
30 *588:12 *970:36 7.53542e-05
31 *588:12 *970:47 5.12254e-05
32 *588:16 *619:14 0
33 *588:16 *619:22 5.3656e-05
34 *588:16 *632:22 0
35 *588:29 *3731:A1 0
36 *588:29 *619:14 0
37 *588:33 *3907:CLK 0.000141954
38 *588:49 *3731:A1 0
39 *588:49 *973:25 0
40 *588:49 *973:66 6.07611e-06
41 *588:58 *973:25 0
42 *588:58 *973:66 3.31127e-05
43 *3715:A2 *3728:B 2.98648e-05
44 *3717:A2 *588:49 0
45 *317:10 *588:16 0
46 *317:10 *588:29 1.7992e-05
47 *317:10 *588:49 2.76611e-06
48 *574:8 *588:16 0
49 *576:10 *588:16 0
50 *580:10 *588:49 0
51 *582:33 *3731:A2 9.00922e-05
52 *582:33 *588:29 5.10805e-05
53 *582:87 *588:16 0
54 *582:87 *588:29 0.000138727
55 *584:12 *588:29 5.50049e-05
*RES
1 *3725:X *588:12 47.3629 
2 *588:12 *588:16 20.4271 
3 *588:16 *3731:A2 25.5271 
4 *588:16 *588:29 19.1843 
5 *588:29 *588:33 16.5743 
6 *588:33 *3732:C 34.4757 
7 *588:33 *3727:A_N 23 
8 *588:29 *588:49 5.77929 
9 *588:49 *3729:B 38 
10 *588:49 *588:58 0.849286 
11 *588:58 *3728:B 42.8057 
12 *588:58 *3735:D 49.5586 
*END

*D_NET *589 0.000759184
*CONN
*I *3727:B I *D sky130_fd_sc_hd__and3b_2
*I *3726:X O *D sky130_fd_sc_hd__or2_2
*CAP
1 *3727:B 0.000130457
2 *3726:X 4.27883e-05
3 *589:8 0.000173245
4 *3727:B *916:32 0.000184527
5 *589:8 *632:22 0.000114083
6 *580:10 *589:8 0.000114083
*RES
1 *3726:X *589:8 39.5536 
2 *589:8 *3727:B 40.0507 
*END

*D_NET *590 0.000377032
*CONN
*I *3730:B I *D sky130_fd_sc_hd__and3_2
*I *3728:Y O *D sky130_fd_sc_hd__nand2_2
*CAP
1 *3730:B 0
2 *3728:Y 5.64266e-05
3 *590:8 5.64266e-05
4 *590:8 *3909:RESET_B 0.000140958
5 *590:8 *591:10 8.62876e-05
6 *3717:A2 *590:8 3.69334e-05
*RES
1 *3728:Y *590:8 39.9057 
2 *590:8 *3730:B 38 
*END

*D_NET *591 0.000762389
*CONN
*I *3730:C I *D sky130_fd_sc_hd__and3_2
*I *3729:X O *D sky130_fd_sc_hd__or2_2
*CAP
1 *3730:C 3.27105e-05
2 *3729:X 0.000144317
3 *591:10 0.000177028
4 *591:10 *3909:RESET_B 4.60263e-05
5 *591:10 *973:66 2.95125e-05
6 *3717:A2 *591:10 0.000136486
7 *3728:B *591:10 5.50106e-05
8 *3730:A *3730:C 5.50106e-05
9 *590:8 *591:10 8.62876e-05
*RES
1 *3729:X *591:10 41.2314 
2 *591:10 *3730:C 38.6214 
*END

*D_NET *592 0.000366185
*CONN
*I *3733:C I *D sky130_fd_sc_hd__and3b_2
*I *3731:X O *D sky130_fd_sc_hd__a21o_2
*CAP
1 *3733:C 0.000101365
2 *3731:X 0.000101365
3 *3733:C *3731:B1 6.10662e-05
4 *319:10 *3733:C 0.000102389
*RES
1 *3731:X *3733:C 48.2889 
*END

*D_NET *593 0.00273849
*CONN
*I *3734:B I *D sky130_fd_sc_hd__or2_2
*I *3733:A_N I *D sky130_fd_sc_hd__and3b_2
*I *3732:X O *D sky130_fd_sc_hd__and3_2
*CAP
1 *3734:B 0
2 *3733:A_N 0
3 *3732:X 0.000112073
4 *593:27 0.000557654
5 *593:12 0.000152973
6 *593:6 0.0008227
7 *593:6 *3732:A 2.93335e-05
8 *593:6 *3732:B 0.000144494
9 *593:6 *3740:A2 6.17437e-06
10 *593:6 *595:47 7.14493e-05
11 *593:12 *595:47 7.28792e-05
12 *593:12 *604:30 6.3861e-05
13 *593:27 *3732:A 4.79008e-05
14 *593:27 *3732:B 9.77405e-05
15 *593:27 *3735:B 9.69326e-05
16 *593:27 *739:8 1.83327e-05
17 *593:27 *974:10 0.00010403
18 *593:27 *974:12 1.58805e-05
19 *593:27 *975:10 0.000190227
20 *593:27 *975:21 0.000127272
21 *3732:C *593:6 6.58415e-06
*RES
1 *3732:X *593:6 25.5271 
2 *593:6 *593:12 32.9621 
3 *593:12 *3733:A_N 23 
4 *593:6 *593:27 42.0764 
5 *593:27 *3734:B 23 
*END

*D_NET *594 0.00106467
*CONN
*I *3736:C I *D sky130_fd_sc_hd__and3b_2
*I *3734:X O *D sky130_fd_sc_hd__or2_2
*CAP
1 *3736:C 0.000246489
2 *3734:X 0.000122269
3 *594:10 0.000368758
4 *3736:C *3735:C 5.3304e-05
5 *3736:C *595:63 5.12812e-05
6 *3736:C *871:22 0.000108482
7 *594:10 *975:21 0.000114083
*RES
1 *3734:X *594:10 40.175 
2 *594:10 *3736:C 41.4334 
*END

*D_NET *595 0.00502152
*CONN
*I *3736:A_N I *D sky130_fd_sc_hd__and3b_2
*I *3741:C I *D sky130_fd_sc_hd__nand3_2
*I *3738:B I *D sky130_fd_sc_hd__nand2_2
*I *3737:B I *D sky130_fd_sc_hd__or2_2
*I *3740:A2 I *D sky130_fd_sc_hd__a21o_2
*I *3735:X O *D sky130_fd_sc_hd__and4_2
*CAP
1 *3736:A_N 0
2 *3741:C 0.000211457
3 *3738:B 0
4 *3737:B 0
5 *3740:A2 0.000194395
6 *3735:X 6.67432e-05
7 *595:63 0.000385135
8 *595:47 0.00019521
9 *595:30 0.000476609
10 *595:24 0.00052558
11 *595:8 0.000678997
12 *3740:A2 *3740:A1 0.0001396
13 *3740:A2 *598:8 9.62666e-05
14 *3741:C *871:22 0.000200655
15 *595:8 *871:22 0.000227473
16 *595:24 *3912:RESET_B 9.77405e-05
17 *595:24 *976:21 5.3304e-05
18 *595:24 *976:61 0
19 *595:30 *976:21 0.000219891
20 *595:47 *3740:A1 2.18409e-05
21 *595:47 *976:21 2.8183e-05
22 *595:47 *976:23 5.12512e-05
23 *595:63 *871:22 0.00014109
24 *595:63 *976:61 0
25 *3732:C *595:47 2.93335e-05
26 *3736:C *595:63 5.12812e-05
27 *320:10 *595:8 0.00018536
28 *582:44 *595:47 2.07484e-05
29 *582:59 *3740:A2 5.50106e-05
30 *582:74 *3740:A2 0.000139352
31 *582:74 *595:24 0.000131751
32 *582:74 *595:30 0.000246757
33 *593:6 *3740:A2 6.17437e-06
34 *593:6 *595:47 7.14493e-05
35 *593:12 *595:47 7.28792e-05
*RES
1 *3735:X *595:8 40.5271 
2 *595:8 *595:24 23.6793 
3 *595:24 *595:30 33.3143 
4 *595:30 *3740:A2 27.9093 
5 *595:30 *595:47 34.4536 
6 *595:47 *3737:B 23 
7 *595:24 *3738:B 23 
8 *595:8 *595:63 18.3764 
9 *595:63 *3741:C 27.4536 
10 *595:63 *3736:A_N 23 
*END

*D_NET *596 0.00105974
*CONN
*I *3739:B I *D sky130_fd_sc_hd__and3_2
*I *3737:X O *D sky130_fd_sc_hd__or2_2
*CAP
1 *3739:B 0
2 *3737:X 0.000332446
3 *596:10 0.000332446
4 *596:10 *818:8 8.85189e-05
5 *3739:A *596:10 4.08537e-05
6 *582:44 *596:10 0.000265472
*RES
1 *3737:X *596:10 43.1579 
2 *596:10 *3739:B 38 
*END

*D_NET *597 0.00165349
*CONN
*I *3739:C I *D sky130_fd_sc_hd__and3_2
*I *3738:Y O *D sky130_fd_sc_hd__nand2_2
*CAP
1 *3739:C 0.000158014
2 *3738:Y 0.000321314
3 *597:8 0.000479328
4 *597:8 *3706:B 0
5 *597:8 *4311:A 0.000274543
6 *597:8 *599:8 7.80954e-05
7 *597:8 *916:77 0
8 *597:8 *976:23 0
9 *3739:A *597:8 0.000111127
10 *582:59 *597:8 0.000108662
11 *582:74 *597:8 0.000122407
*RES
1 *3738:Y *597:8 47.3007 
2 *597:8 *3739:C 40.0507 
*END

*D_NET *598 0.000722024
*CONN
*I *3742:B I *D sky130_fd_sc_hd__and3_2
*I *3740:X O *D sky130_fd_sc_hd__a21o_2
*CAP
1 *3742:B 0
2 *3740:X 0.000292453
3 *598:8 0.000292453
4 *598:8 *3740:A1 1.14762e-05
5 *598:8 *977:14 2.93747e-05
6 *3740:A2 *598:8 9.62666e-05
*RES
1 *3740:X *598:8 27.93 
2 *598:8 *3742:B 23 
*END

*D_NET *599 0.00124601
*CONN
*I *3742:C I *D sky130_fd_sc_hd__and3_2
*I *3741:Y O *D sky130_fd_sc_hd__nand3_2
*CAP
1 *3742:C 0
2 *3741:Y 0.000307303
3 *599:8 0.000307303
4 *599:8 *976:61 0.000301419
5 *599:8 *977:14 0
6 *599:8 *977:25 4.08641e-05
7 *321:8 *599:8 3.39335e-05
8 *322:8 *599:8 0.000165644
9 *582:59 *599:8 1.14452e-05
10 *582:74 *599:8 0
11 *597:8 *599:8 7.80954e-05
*RES
1 *3741:Y *599:8 46.2443 
2 *599:8 *3742:C 38 
*END

*D_NET *600 0.000912542
*CONN
*I *3744:A2 I *D sky130_fd_sc_hd__a21o_2
*I *3743:Y O *D sky130_fd_sc_hd__nor2_2
*CAP
1 *3744:A2 0
2 *3743:Y 0.000417602
3 *600:8 0.000417602
4 *323:10 *600:8 7.73389e-05
*RES
1 *3743:Y *600:8 30.7886 
2 *600:8 *3744:A2 23 
*END

*D_NET *601 0.000634077
*CONN
*I *4071:TE_B I *D sky130_fd_sc_hd__ebufn_2
*I *3761:X O *D sky130_fd_sc_hd__buf_1
*CAP
1 *4071:TE_B 0.000267862
2 *3761:X 0.000267862
3 *4071:TE_B *3761:A 7.88828e-05
4 *4071:TE_B *4071:A 1.94693e-05
*RES
1 *3761:X *4071:TE_B 49.9771 
*END

*D_NET *602 0.00338799
*CONN
*I *4073:TE_B I *D sky130_fd_sc_hd__ebufn_2
*I *3396:X O *D sky130_fd_sc_hd__and4_2
*CAP
1 *4073:TE_B 0
2 *3396:X 0.000281414
3 *602:18 0.000724642
4 *602:8 0.00100606
5 *602:8 *3396:B 0.000141052
6 *602:8 *3396:C 7.13587e-05
7 *602:8 *937:20 1.57571e-05
8 *602:8 *944:8 4.9662e-05
9 *602:18 *4073:A 1.84294e-05
10 *602:18 *643:67 0
11 *602:18 *889:57 0.000247801
12 *602:18 *1039:8 0
13 *3662:B1 *602:18 0.000453335
14 *292:8 *602:18 0.000378483
*RES
1 *3396:X *602:8 43.3857 
2 *602:8 *602:18 29.7693 
3 *602:18 *4073:TE_B 23 
*END

*D_NET *603 0.0190904
*CONN
*I *4078:A I *D sky130_fd_sc_hd__clkbuf_16
*I *4079:A I *D sky130_fd_sc_hd__clkbuf_16
*I *4077:A I *D sky130_fd_sc_hd__clkbuf_16
*I *4076:A I *D sky130_fd_sc_hd__clkbuf_16
*I *4075:X O *D sky130_fd_sc_hd__clkbuf_16
*CAP
1 *4078:A 8.20515e-05
2 *4079:A 6.56813e-05
3 *4077:A 9.34661e-05
4 *4076:A 0.000115276
5 *4075:X 7.26725e-05
6 *603:105 0.00179712
7 *603:63 0.00110175
8 *603:55 0.0042482
9 *603:43 0.000528966
10 *603:27 0.00191013
11 *603:13 0.00371513
12 *603:8 0.00305451
13 *4076:A *604:68 5.12237e-05
14 *4076:A *905:28 9.75779e-05
15 *4077:A *3454:A2 3.71251e-05
16 *4078:A *644:10 5.45025e-05
17 *4079:A *607:12 6.17437e-06
18 *603:13 *3451:A2 0
19 *603:13 *3744:B1 0.000136007
20 *603:13 *3914:RESET_B 0
21 *603:13 *616:29 7.55832e-05
22 *603:13 *616:46 0.000269079
23 *603:13 *617:130 7.03766e-05
24 *603:13 *697:10 0.000130393
25 *603:13 *766:14 0
26 *603:13 *766:27 0
27 *603:13 *823:8 0
28 *603:13 *979:10 0
29 *603:13 *996:8 0
30 *603:13 *1008:10 0
31 *603:27 *3744:B1 4.55121e-05
32 *603:27 *604:68 3.4072e-05
33 *603:27 *638:76 0.000104935
34 *603:43 *750:10 7.70046e-05
35 *603:55 *627:104 1.00612e-05
36 *603:55 *766:27 0
37 *603:55 *767:10 0
38 *603:55 *878:16 0
39 *603:55 *892:139 0.000285452
40 *603:55 *894:83 0
41 *603:55 *996:8 0
42 *603:55 *1035:8 0
43 *603:63 *658:114 1.05658e-05
44 *603:63 *997:27 4.35681e-06
45 *603:105 *3790:B1 5.20223e-05
46 *603:105 *3791:A1 7.73735e-05
47 *603:105 *3791:A2 2.79257e-05
48 *603:105 *4121:A 2.93335e-05
49 *603:105 *627:104 1.28274e-05
50 *603:105 *644:10 9.21169e-06
51 *603:105 *878:43 6.3584e-05
52 *603:105 *878:47 0.000277649
53 *603:105 *892:31 0
54 *603:105 *892:52 4.62773e-05
55 *603:105 *894:96 0
56 *603:105 *1035:8 0
57 *603:105 *1036:10 0
58 *96:10 *603:55 0.000117868
59 *109:14 *603:27 0
60 *111:8 *4077:A 1.44499e-05
61 *111:8 *603:43 3.01144e-05
62 *190:10 *603:55 0
63 *195:10 *603:55 0
64 *238:10 *603:13 0
65 *323:10 *603:13 0
66 *354:10 *603:105 1.14876e-05
67 *354:54 *603:105 3.53051e-05
*RES
1 *4075:X *603:8 39.0979 
2 *603:8 *603:13 30.0771 
3 *603:13 *603:27 40.2678 
4 *603:27 *4076:A 25.843 
5 *603:13 *603:43 22.5814 
6 *603:43 *4077:A 24.7607 
7 *603:8 *603:55 28.4925 
8 *603:55 *603:63 19.2965 
9 *603:63 *4079:A 39.0979 
10 *603:55 *603:105 46.8482 
11 *603:105 *4078:A 24.9471 
*END

*D_NET *604 0.0227914
*CONN
*I *4089:A I *D sky130_fd_sc_hd__clkbuf_8
*I *4093:A I *D sky130_fd_sc_hd__clkbuf_8
*I *4090:A I *D sky130_fd_sc_hd__clkbuf_8
*I *4092:A I *D sky130_fd_sc_hd__clkbuf_8
*I *4080:A I *D sky130_fd_sc_hd__clkbuf_8
*I *4091:A I *D sky130_fd_sc_hd__clkbuf_8
*I *4076:X O *D sky130_fd_sc_hd__clkbuf_16
*CAP
1 *4089:A 0
2 *4093:A 0
3 *4090:A 0
4 *4092:A 0
5 *4080:A 0
6 *4091:A 0
7 *4076:X 0.00196132
8 *604:101 0.000637515
9 *604:89 0.00103534
10 *604:76 0.000755275
11 *604:70 0.0011531
12 *604:68 0.00089002
13 *604:48 0.000966788
14 *604:30 0.00111187
15 *604:24 0.00159002
16 *604:12 0.00251624
17 *604:12 *3623:A1 4.36401e-06
18 *604:12 *875:31 0.00067342
19 *604:12 *875:58 5.48536e-06
20 *604:24 *4064:CLK 4.21281e-05
21 *604:24 *4290:A 2.13733e-05
22 *604:24 *608:122 0.000306563
23 *604:24 *794:10 0.000139352
24 *604:24 *913:114 0.000273494
25 *604:24 *967:16 4.36401e-06
26 *604:30 *3705:A 0
27 *604:30 *3705:B 0.000113624
28 *604:30 *4288:A 0.000397491
29 *604:30 *608:10 9.5876e-06
30 *604:30 *608:122 5.3304e-05
31 *604:30 *820:10 0.000139647
32 *604:30 *908:93 3.85657e-05
33 *604:30 *913:114 2.31591e-05
34 *604:30 *929:10 0
35 *604:30 *974:12 9.27814e-05
36 *604:48 *3620:B1 4.73689e-05
37 *604:48 *4064:RESET_B 6.10551e-06
38 *604:48 *632:12 0
39 *604:48 *853:22 0.000488315
40 *604:48 *955:21 0.000225712
41 *604:48 *956:12 0
42 *604:48 *956:27 0.000167443
43 *604:48 *964:47 0.000166522
44 *604:48 *967:16 0
45 *604:48 *967:22 0.000192087
46 *604:48 *967:37 4.43717e-05
47 *604:48 *969:10 2.24151e-05
48 *604:48 *969:14 2.24151e-05
49 *604:68 *638:76 8.37266e-05
50 *604:68 *755:22 0.00023032
51 *604:68 *905:28 2.41707e-05
52 *604:76 *3445:A 4.98398e-05
53 *604:76 *618:12 9.91548e-05
54 *604:76 *646:37 0.00111905
55 *604:76 *646:43 1.40281e-05
56 *604:76 *1004:18 1.89075e-05
57 *604:76 *1004:26 0.00023048
58 *604:76 *1007:20 0.000111762
59 *604:89 *646:37 6.48224e-06
60 *604:89 *646:43 0.000279094
61 *604:89 *966:10 0.000169665
62 *604:101 *3470:B1 0.000219882
63 *604:101 *3806:A1 3.17027e-05
64 *604:101 *3958:RESET_B 0.000155805
65 *604:101 *621:87 5.37348e-06
66 *604:101 *636:14 3.31127e-05
67 *604:101 *636:109 0.000248752
68 *604:101 *738:8 0.000141879
69 *604:101 *894:22 5.3304e-05
70 *604:101 *894:32 5.3304e-05
71 *604:101 *936:29 0
72 *3700:B2 *604:48 0.000616627
73 *4076:A *604:68 5.12237e-05
74 *73:27 *604:89 0.000136486
75 *73:27 *604:101 2.86716e-05
76 *77:8 *604:101 0.000141888
77 *83:8 *604:76 0.000141879
78 *109:14 *604:76 9.69326e-05
79 *109:14 *604:89 0.000853733
80 *109:14 *604:101 0.000331074
81 *311:8 *604:48 8.57577e-05
82 *347:8 *604:24 1.09886e-05
83 *352:10 *604:48 0.000125342
84 *353:10 *604:12 2.26406e-05
85 *426:40 *604:76 0.000164282
86 *429:10 *604:76 0.000159802
87 *565:14 *604:48 0
88 *568:12 *604:48 7.37814e-06
89 *574:8 *604:30 0
90 *593:12 *604:30 6.3861e-05
91 *603:27 *604:68 3.4072e-05
*RES
1 *4076:X *604:12 49.4683 
2 *604:12 *604:24 30.0327 
3 *604:24 *604:30 37.9514 
4 *604:30 *4091:A 38 
5 *604:24 *4080:A 23 
6 *604:12 *604:48 45.8582 
7 *604:48 *4092:A 23 
8 *4076:X *604:68 37.2929 
9 *604:68 *604:70 15 
10 *604:70 *604:76 32.4414 
11 *604:76 *4090:A 23 
12 *604:70 *604:89 28.0086 
13 *604:89 *604:101 47.2757 
14 *604:101 *4093:A 23 
15 *604:89 *4089:A 23 
*END

*D_NET *605 0.02009
*CONN
*I *4084:A I *D sky130_fd_sc_hd__clkbuf_8
*I *4085:A I *D sky130_fd_sc_hd__clkbuf_8
*I *4086:A I *D sky130_fd_sc_hd__clkbuf_8
*I *4101:A I *D sky130_fd_sc_hd__clkbuf_8
*I *4088:A I *D sky130_fd_sc_hd__clkbuf_8
*I *4087:A I *D sky130_fd_sc_hd__clkbuf_8
*I *4077:X O *D sky130_fd_sc_hd__clkbuf_16
*CAP
1 *4084:A 0
2 *4085:A 0.000863087
3 *4086:A 0
4 *4101:A 0
5 *4088:A 0.000138919
6 *4087:A 0
7 *4077:X 0.00107088
8 *605:82 0.00184936
9 *605:64 0.000100843
10 *605:56 0.00133277
11 *605:50 0.00118414
12 *605:46 0.00367673
13 *605:20 0.000543905
14 *605:14 0.000682824
15 *605:12 0.000312362
16 *605:8 0.000371166
17 *4085:A *613:10 0.000120344
18 *4085:A *654:8 0.000145163
19 *4085:A *654:51 6.63159e-06
20 *4085:A *657:73 0.000141355
21 *4085:A *665:10 5.58003e-05
22 *4085:A *1012:14 9.79925e-05
23 *4085:A *1012:27 0.000173603
24 *4085:A *1015:55 6.8899e-05
25 *4088:A *3683:A_N 3.47781e-05
26 *4088:A *782:8 0.000179702
27 *4088:A *990:18 0.000106527
28 *4088:A *1003:18 0.00037243
29 *605:8 *616:78 0.000169683
30 *605:8 *838:12 8.51432e-05
31 *605:12 *3682:B1 5.3304e-05
32 *605:20 *3683:A_N 0.000138718
33 *605:20 *782:8 0.000563587
34 *605:20 *802:10 9.92469e-05
35 *605:20 *981:84 0.000191227
36 *605:20 *990:12 0.000166233
37 *605:20 *990:18 0.000135003
38 *605:46 *3893:CLK 0.000115
39 *605:46 *994:8 5.47927e-05
40 *605:50 *857:14 6.11923e-05
41 *605:50 *992:10 0.000783406
42 *605:50 *994:18 0
43 *605:50 *994:48 0
44 *605:50 *1014:10 0
45 *605:56 *770:10 1.59094e-05
46 *605:56 *1015:55 0.00014384
47 *605:64 *614:101 5.58003e-05
48 *605:64 *647:44 0.00013645
49 *605:64 *920:10 0.00013729
50 *605:82 *3563:A 1.41077e-05
51 *605:82 *797:12 0.000339969
52 *605:82 *881:103 0.000188926
53 *605:82 *881:121 2.18409e-05
54 *605:82 *881:137 0.000438174
55 *3893:D *605:46 0.000141954
56 *21:17 *4085:A 0.000275408
57 *107:12 *605:50 0
58 *231:10 *605:82 0.000264559
59 *363:49 *605:20 0.000583759
60 *455:10 *605:82 0.000111852
61 *457:8 *605:82 0.000208081
62 *498:10 *605:82 0
63 *498:21 *605:82 0.000614067
64 *498:29 *605:82 5.50106e-05
65 *501:25 *605:82 0
66 *559:10 *605:12 9.62666e-05
67 *559:10 *605:20 0
*RES
1 *4077:X *605:8 40.2579 
2 *605:8 *605:12 20.8621 
3 *605:12 *605:14 15 
4 *605:14 *605:20 30.5771 
5 *605:20 *4087:A 23 
6 *605:14 *4088:A 43.4271 
7 *605:12 *4101:A 23 
8 *4077:X *605:46 36.485 
9 *605:46 *605:50 35.5693 
10 *605:50 *605:56 21.235 
11 *605:56 *605:64 32.5271 
12 *605:64 *4086:A 23 
13 *605:56 *4085:A 39.3436 
14 *605:46 *605:82 49.1164 
15 *605:82 *4084:A 38 
*END

*D_NET *606 0.0182866
*CONN
*I *4097:A I *D sky130_fd_sc_hd__clkbuf_8
*I *4098:A I *D sky130_fd_sc_hd__clkbuf_8
*I *4095:A I *D sky130_fd_sc_hd__clkbuf_8
*I *4096:A I *D sky130_fd_sc_hd__clkbuf_8
*I *4102:A I *D sky130_fd_sc_hd__clkbuf_8
*I *4094:A I *D sky130_fd_sc_hd__clkbuf_8
*I *4078:X O *D sky130_fd_sc_hd__clkbuf_16
*CAP
1 *4097:A 0
2 *4098:A 0.000481004
3 *4095:A 2.38756e-05
4 *4096:A 3.95308e-05
5 *4102:A 0
6 *4094:A 0
7 *4078:X 0.000472196
8 *606:88 0.00140558
9 *606:67 0.00254048
10 *606:56 0.00121586
11 *606:45 0.00300419
12 *606:35 0.00280833
13 *606:12 0.000691334
14 *606:8 0.000781771
15 *4095:A *4390:A 2.64616e-05
16 *4095:A *623:101 5.56356e-05
17 *4098:A *1051:10 0.00010018
18 *606:8 *3789:A2 0
19 *606:8 *894:111 0.000157299
20 *606:12 *3789:A2 0
21 *606:12 *4041:CLK 0
22 *606:12 *622:126 0
23 *606:12 *643:67 0
24 *606:12 *643:76 0
25 *606:12 *643:89 0
26 *606:12 *663:12 2.76611e-06
27 *606:12 *667:10 4.53539e-05
28 *606:12 *894:111 0.000312154
29 *606:35 *3789:A2 5.31444e-05
30 *606:35 *878:76 6.7177e-06
31 *606:45 *624:10 5.50106e-05
32 *606:45 *715:10 0.000670743
33 *606:45 *716:10 0.0002263
34 *606:45 *779:10 9.58714e-05
35 *606:45 *876:139 0.000182826
36 *606:56 *4305:A 1.12487e-05
37 *606:56 *4395:A 0
38 *606:56 *640:28 0
39 *606:56 *640:35 0
40 *606:56 *780:8 4.842e-05
41 *606:56 *945:39 0.000315539
42 *606:67 *3381:A1 6.48142e-05
43 *606:67 *891:49 0.000144168
44 *606:67 *891:62 0.000449467
45 *606:67 *1050:56 0.000218686
46 *606:88 *3381:A1 0.000179702
47 *606:88 *4237:A 9.03784e-05
48 *606:88 *625:80 0.000239485
49 *606:88 *891:62 0.00013118
50 *606:88 *1044:8 1.59094e-05
51 *3515:A_N *606:88 2.64616e-05
52 *3515:C *606:88 5.92635e-05
53 *3920:D *606:88 0.000139352
54 *11:10 *606:12 0
55 *95:10 *606:35 0
56 *117:12 *4098:A 1.98462e-06
57 *200:8 *606:35 2.79004e-05
58 *260:8 *606:12 6.53342e-05
59 *326:10 *606:45 3.98818e-05
60 *344:10 *606:56 0.000139647
61 *359:57 *606:56 0.000192096
62 *396:10 *4098:A 0.000164306
63 *396:16 *606:88 3.89661e-05
64 *396:20 *606:88 2.7825e-05
*RES
1 *4078:X *606:8 40.2579 
2 *606:8 *606:12 29.5829 
3 *606:12 *4094:A 23 
4 *606:8 *4102:A 38 
5 *4078:X *606:35 43.945 
6 *606:35 *606:45 46.7757 
7 *606:45 *4096:A 23.6214 
8 *606:45 *606:56 37.33 
9 *606:56 *4095:A 38.6214 
10 *606:35 *606:67 17.7521 
11 *606:67 *4098:A 47.3629 
12 *606:67 *606:88 36.46 
13 *606:88 *4097:A 23 
*END

*D_NET *607 0.0225933
*CONN
*I *4081:A I *D sky130_fd_sc_hd__clkbuf_8
*I *4100:A I *D sky130_fd_sc_hd__clkbuf_8
*I *4105:A I *D sky130_fd_sc_hd__clkbuf_8
*I *4082:A I *D sky130_fd_sc_hd__clkbuf_8
*I *4083:A I *D sky130_fd_sc_hd__clkbuf_8
*I *4099:A I *D sky130_fd_sc_hd__clkbuf_8
*I *4079:X O *D sky130_fd_sc_hd__clkbuf_16
*CAP
1 *4081:A 0
2 *4100:A 0
3 *4105:A 0
4 *4082:A 0.000528055
5 *4083:A 0
6 *4099:A 0.000484062
7 *4079:X 7.94453e-05
8 *607:97 0.00116191
9 *607:86 0.000427498
10 *607:78 0.00239215
11 *607:58 0.00125513
12 *607:33 0.000409747
13 *607:27 0.00138663
14 *607:16 0.000955629
15 *607:12 0.000924253
16 *607:6 0.00158468
17 *4082:A *3831:A1 9.84794e-05
18 *4082:A *3831:A2 4.50413e-05
19 *4082:A *3831:B1 0.000310641
20 *4082:A *4103:A 0.00010018
21 *4082:A *660:64 0.000492178
22 *4082:A *887:24 3.84349e-05
23 *4099:A *3428:B1 2.4754e-05
24 *4099:A *3521:A 0.000100051
25 *4099:A *658:56 0.000185434
26 *4099:A *658:60 0.000334767
27 *4099:A *658:64 0.000656748
28 *4099:A *1089:34 0.00116973
29 *4099:A *1096:16 5.41385e-05
30 *607:12 *658:114 0
31 *607:12 *997:27 0.000407199
32 *607:12 *1114:23 0.000119818
33 *607:16 *658:114 0
34 *607:16 *997:10 0.000169683
35 *607:16 *997:27 0.000209739
36 *607:16 *1114:23 7.8128e-05
37 *607:27 *3776:A1 5.67058e-05
38 *607:27 *658:50 0.000162831
39 *607:27 *658:56 0.000212168
40 *607:27 *885:20 3.22879e-05
41 *607:33 *611:102 0
42 *607:33 *611:113 0
43 *607:33 *611:132 0
44 *607:33 *658:50 0.000215791
45 *607:33 *1089:8 6.02277e-06
46 *607:58 *3521:A 1.93498e-05
47 *607:58 *3831:A2 0
48 *607:58 *3831:B1 5.32463e-05
49 *607:58 *658:50 2.02872e-05
50 *607:58 *662:80 0
51 *607:58 *887:24 0.000777182
52 *607:78 *662:41 0.000175639
53 *607:78 *662:52 0.000487452
54 *607:78 *885:62 0
55 *607:78 *885:93 0
56 *607:78 *899:26 0.000487452
57 *607:78 *899:47 0.000166522
58 *607:78 *899:68 4.03628e-05
59 *607:78 *899:116 8.72173e-05
60 *607:86 *3845:A1 2.18506e-05
61 *607:86 *3845:B1 7.73389e-05
62 *607:86 *659:58 6.67764e-05
63 *607:86 *887:67 0.00026808
64 *607:86 *899:72 1.57571e-05
65 *607:86 *899:82 3.53115e-05
66 *607:86 *901:57 0
67 *607:86 *901:69 6.16531e-05
68 *607:97 *661:53 0.000326391
69 *607:97 *887:67 0.00133469
70 *607:97 *901:51 2.13733e-05
71 *607:97 *901:57 9.88574e-06
72 *607:97 *1113:27 0
73 *3608:B *607:97 0.000488848
74 *4039:D *607:78 0
75 *4079:A *607:12 6.17437e-06
76 *125:8 *607:58 1.14452e-05
77 *191:8 *607:33 9.64022e-05
78 *258:8 *607:78 0.000116314
79 *262:8 *607:86 5.56306e-05
80 *360:14 *4099:A 0.000331632
81 *423:36 *607:33 0
82 *518:35 *607:97 6.28695e-05
*RES
1 *4079:X *607:6 24.0979 
2 *607:6 *607:12 26.2893 
3 *607:12 *607:16 20.075 
4 *607:16 *4099:A 43.1757 
5 *607:16 *607:27 6.33857 
6 *607:27 *607:33 38.2443 
7 *607:33 *4083:A 23 
8 *607:27 *607:58 45.6393 
9 *607:58 *4082:A 36.9614 
10 *607:12 *4105:A 38 
11 *607:6 *607:78 48.4564 
12 *607:78 *607:86 38.9486 
13 *607:86 *4100:A 23 
14 *607:78 *607:97 43.0057 
15 *607:97 *4081:A 38 
*END

*D_NET *608 0.0123149
*CONN
*I *4064:CLK I *D sky130_fd_sc_hd__dfrtp_2
*I *4058:CLK I *D sky130_fd_sc_hd__dfrtp_2
*I *4059:CLK I *D sky130_fd_sc_hd__dfrtp_2
*I *3903:CLK I *D sky130_fd_sc_hd__dfrtp_2
*I *3901:CLK I *D sky130_fd_sc_hd__dfrtp_2
*I *3902:CLK I *D sky130_fd_sc_hd__dfrtp_2
*I *4062:CLK I *D sky130_fd_sc_hd__dfrtp_2
*I *3868:CLK I *D sky130_fd_sc_hd__dfrtp_2
*I *3874:CLK I *D sky130_fd_sc_hd__dfrtp_2
*I *3872:CLK I *D sky130_fd_sc_hd__dfrtp_2
*I *4057:CLK I *D sky130_fd_sc_hd__dfrtp_2
*I *4080:X O *D sky130_fd_sc_hd__clkbuf_8
*CAP
1 *4064:CLK 5.01315e-05
2 *4058:CLK 0.000410431
3 *4059:CLK 0.000287438
4 *3903:CLK 0.000169485
5 *3901:CLK 0.000117588
6 *3902:CLK 0.000251172
7 *4062:CLK 2.0995e-05
8 *3868:CLK 0.000277123
9 *3874:CLK 9.61844e-05
10 *3872:CLK 0
11 *4057:CLK 5.11633e-05
12 *4080:X 0.000113289
13 *608:128 0.00081203
14 *608:122 0.000379662
15 *608:79 0.00048022
16 *608:77 0.000858203
17 *608:42 0.000473842
18 *608:33 0.000512183
19 *608:27 0.00111937
20 *608:21 0.00126398
21 *608:10 0.000173453
22 *608:6 0.000450949
23 *3868:CLK *884:12 0
24 *3902:CLK *3902:RESET_B 0.000106277
25 *3902:CLK *853:10 0
26 *4057:CLK *4062:RESET_B 1.46784e-05
27 *4058:CLK *4059:RESET_B 0.000263159
28 *4058:CLK *914:57 0.000189118
29 *4058:CLK *967:10 2.93845e-05
30 *4064:CLK *4290:A 4.67488e-05
31 *608:6 *913:114 3.18322e-05
32 *608:10 *4062:RESET_B 3.11916e-05
33 *608:27 *4062:RESET_B 0.000136295
34 *608:27 *964:12 6.66937e-05
35 *608:33 *3646:S 0
36 *608:33 *862:8 7.4878e-05
37 *608:77 *3758:A0 0
38 *608:77 *4288:A 3.47781e-05
39 *608:77 *760:16 4.334e-05
40 *608:77 *761:10 0.000139647
41 *608:77 *792:10 0
42 *608:77 *964:12 0.000129736
43 *608:77 *964:37 3.51081e-05
44 *608:122 *4290:A 9.13824e-05
45 *608:122 *913:114 4.16015e-05
46 *608:128 *4288:A 0
47 *608:128 *792:10 0.000192087
48 *3698:A2 *3902:CLK 5.29888e-05
49 *3698:A2 *608:77 0.000132749
50 *3698:A2 *608:79 0.000189587
51 *3901:D *3901:CLK 8.15864e-05
52 *3902:D *3902:CLK 3.28224e-05
53 *3903:D *3903:CLK 0.000106894
54 *4059:D *4058:CLK 2.81066e-05
55 *4059:D *4059:CLK 0.000160224
56 *4062:D *608:27 0.000228663
57 *283:10 *3868:CLK 1.01436e-05
58 *283:10 *608:33 0.00014411
59 *283:10 *608:42 0.00019747
60 *435:32 *3902:CLK 0.000193362
61 *563:47 *3901:CLK 0.000277792
62 *563:47 *608:77 0
63 *563:47 *608:79 0
64 *567:16 *608:77 0
65 *604:24 *4064:CLK 4.21281e-05
66 *604:24 *608:122 0.000306563
67 *604:30 *608:10 9.5876e-06
68 *604:30 *608:122 5.3304e-05
*RES
1 *4080:X *608:6 25.0507 
2 *608:6 *608:10 17.2579 
3 *608:10 *4057:CLK 38.8493 
4 *608:10 *608:21 15 
5 *608:21 *608:27 10.7921 
6 *608:27 *608:33 23.555 
7 *608:33 *3872:CLK 38 
8 *608:33 *608:42 2.61 
9 *608:42 *3874:CLK 39.595 
10 *608:42 *3868:CLK 42.8886 
11 *608:27 *4062:CLK 23.4971 
12 *608:21 *608:77 25.875 
13 *608:77 *608:79 2.61 
14 *608:79 *3902:CLK 44.1314 
15 *608:79 *3901:CLK 41.5007 
16 *608:77 *3903:CLK 41.48 
17 *608:6 *608:122 6.525 
18 *608:122 *608:128 32.61 
19 *608:128 *4059:CLK 28.3857 
20 *608:128 *4058:CLK 31.7207 
21 *608:122 *4064:CLK 24.0979 
*END

*D_NET *609 0.0149121
*CONN
*I *4030:CLK I *D sky130_fd_sc_hd__dfrtp_2
*I *4031:CLK I *D sky130_fd_sc_hd__dfrtp_2
*I *4032:CLK I *D sky130_fd_sc_hd__dfrtp_2
*I *4029:CLK I *D sky130_fd_sc_hd__dfrtp_2
*I *4025:CLK I *D sky130_fd_sc_hd__dfrtp_2
*I *4027:CLK I *D sky130_fd_sc_hd__dfrtp_2
*I *4028:CLK I *D sky130_fd_sc_hd__dfrtp_2
*I *4112:A I *D sky130_fd_sc_hd__clkinv_2
*I *4033:CLK I *D sky130_fd_sc_hd__dfrtp_2
*I *4034:CLK I *D sky130_fd_sc_hd__dfrtp_2
*I *4081:X O *D sky130_fd_sc_hd__clkbuf_8
*CAP
1 *4030:CLK 5.96068e-05
2 *4031:CLK 6.34805e-05
3 *4032:CLK 0
4 *4029:CLK 0
5 *4025:CLK 0
6 *4027:CLK 0.000297046
7 *4028:CLK 0
8 *4112:A 2.34823e-05
9 *4033:CLK 0
10 *4034:CLK 0
11 *4081:X 0
12 *609:101 0.000872476
13 *609:95 0.00125665
14 *609:86 0.000447946
15 *609:82 0.000397353
16 *609:75 0.000529203
17 *609:54 0.00112248
18 *609:43 0.000783366
19 *609:20 0.000402869
20 *609:12 0.00156389
21 *609:6 0.00149496
22 *609:4 0.00100809
23 *4027:CLK *1108:49 2.69866e-05
24 *4027:CLK *1109:14 3.49677e-05
25 *609:12 *1100:10 5.78608e-05
26 *609:12 *1100:34 1.46756e-05
27 *609:20 *3501:B 0.000104869
28 *609:20 *3501:C 1.69668e-05
29 *609:20 *3612:B1 0.000161121
30 *609:20 *3615:B1 0.000169683
31 *609:20 *4299:A 1.02387e-05
32 *609:20 *903:25 0
33 *609:20 *1100:10 0.000192311
34 *609:43 *3594:B1 0
35 *609:43 *4312:A 0.000132665
36 *609:43 *903:80 0.000152951
37 *609:43 *903:94 0.000394193
38 *609:43 *903:110 9.90384e-05
39 *609:43 *903:125 6.79006e-05
40 *609:43 *1110:33 9.98727e-05
41 *609:54 *1108:49 1.38306e-06
42 *609:75 *610:87 7.36737e-05
43 *609:75 *661:30 0
44 *609:75 *806:8 0
45 *609:75 *887:14 0.000174396
46 *609:75 *887:52 2.19246e-05
47 *609:75 *901:10 0.000138708
48 *609:75 *1108:49 0
49 *609:75 *1110:10 4.08641e-05
50 *609:86 *3597:A1 0
51 *609:95 *3597:A1 0
52 *609:95 *3599:A1 0
53 *609:95 *3601:A 0
54 *609:95 *3602:B 5.97612e-05
55 *609:95 *1098:33 0
56 *609:95 *1112:60 2.24608e-05
57 *609:101 *3599:A1 0
58 *609:101 *747:10 0.000365295
59 *609:101 *1099:8 9.84794e-05
60 *609:101 *1099:14 0
61 *4028:D *609:54 4.54722e-05
62 *4031:D *4031:CLK 5.67058e-05
63 *4033:D *609:12 9.91701e-05
64 *4033:RESET_B *609:12 1.67944e-05
65 *149:8 *609:20 3.81391e-05
66 *157:10 *609:54 7.37167e-05
67 *157:18 *4027:CLK 0.000190759
68 *157:18 *609:54 0.000136841
69 *158:10 *609:43 0.000114083
70 *245:10 *609:75 0
71 *247:10 *4027:CLK 0
72 *247:10 *609:75 0
73 *251:10 *609:101 0
74 *465:10 *609:95 8.4047e-05
75 *511:46 *4027:CLK 0.000201892
76 *511:82 *609:86 0.000218952
77 *511:82 *609:95 7.80035e-05
78 *518:12 *4027:CLK 0
79 *518:27 *609:43 0.000206374
80 *520:10 *609:43 8.16253e-05
81 *523:10 *609:95 6.07611e-06
82 *523:10 *609:101 7.64851e-06
83 *528:8 *609:20 0.000199701
84 *531:10 *609:20 0
*RES
1 *4081:X *609:4 23 
2 *609:4 *609:6 4.90929 
3 *609:6 *609:12 15.66 
4 *609:12 *609:20 41.1236 
5 *609:20 *4034:CLK 23 
6 *609:12 *4033:CLK 23 
7 *609:6 *4112:A 23.4971 
8 *609:4 *609:43 43.8786 
9 *609:43 *4028:CLK 23 
10 *609:43 *609:54 20.6032 
11 *609:54 *4027:CLK 44.1625 
12 *609:54 *609:75 27.1075 
13 *609:75 *4025:CLK 23 
14 *609:4 *609:82 3.00357 
15 *609:82 *609:86 17.9621 
16 *609:86 *4029:CLK 38 
17 *609:86 *609:95 5.77929 
18 *609:95 *609:101 31.2814 
19 *609:101 *4032:CLK 23 
20 *609:95 *4031:CLK 39.2429 
21 *609:82 *4030:CLK 24.0979 
*END

*D_NET *610 0.0139314
*CONN
*I *3865:CLK I *D sky130_fd_sc_hd__dfrtp_2
*I *3864:CLK I *D sky130_fd_sc_hd__dfrtp_2
*I *3855:CLK I *D sky130_fd_sc_hd__dfstp_2
*I *4026:CLK I *D sky130_fd_sc_hd__dfrtp_2
*I *3854:CLK I *D sky130_fd_sc_hd__dfstp_2
*I *4024:CLK I *D sky130_fd_sc_hd__dfrtp_2
*I *4023:CLK I *D sky130_fd_sc_hd__dfrtp_2
*I *4000:CLK I *D sky130_fd_sc_hd__dfrtp_2
*I *4001:CLK I *D sky130_fd_sc_hd__dfrtp_2
*I *4103:A I *D sky130_fd_sc_hd__clkinv_2
*I *4082:X O *D sky130_fd_sc_hd__clkbuf_8
*CAP
1 *3865:CLK 0
2 *3864:CLK 0
3 *3855:CLK 0.000670007
4 *4026:CLK 0
5 *3854:CLK 0
6 *4024:CLK 0.000276436
7 *4023:CLK 0.000189091
8 *4000:CLK 0.000126517
9 *4001:CLK 0.00019667
10 *4103:A 0.000184765
11 *4082:X 0.000185321
12 *610:98 0.000803006
13 *610:94 0.000279168
14 *610:87 0.000463238
15 *610:81 0.000794727
16 *610:47 0.000984373
17 *610:25 0.000590072
18 *610:23 0.00137147
19 *610:19 0.00115121
20 *610:4 0.000750238
21 *3855:CLK *685:18 0
22 *3855:CLK *918:12 1.14452e-05
23 *4023:CLK *901:40 0.000185133
24 *4024:CLK *662:33 1.55622e-05
25 *4024:CLK *1104:10 0
26 *4103:A *660:64 0.000272377
27 *4103:A *887:24 9.0102e-05
28 *610:19 *660:31 0
29 *610:19 *660:64 0
30 *610:23 *1087:8 0.000284305
31 *610:25 *662:104 0.000225265
32 *610:47 *660:68 0
33 *610:47 *662:104 0.000278634
34 *610:47 *886:33 0
35 *610:47 *1104:10 0
36 *610:81 *685:10 1.94693e-05
37 *610:81 *887:24 0.000308039
38 *610:87 *3351:A 9.65791e-05
39 *610:87 *3499:A_N 0
40 *610:87 *680:22 0
41 *610:87 *886:8 0
42 *610:87 *887:14 0.000562276
43 *610:87 *887:20 0.000195248
44 *610:87 *887:52 3.81338e-05
45 *610:87 *1068:19 0
46 *610:87 *1108:49 6.48142e-05
47 *610:94 *918:6 1.59094e-05
48 *610:98 *680:22 1.12487e-05
49 *610:98 *886:8 0.000164282
50 *610:98 *918:12 0.000124102
51 *610:98 *1068:19 0
52 *3533:A *4001:CLK 3.22879e-05
53 *3533:B *4001:CLK 8.1796e-05
54 *3533:C *4001:CLK 3.17634e-05
55 *3535:A2 *4001:CLK 0
56 *4082:A *4103:A 0.00010018
57 *122:10 *3855:CLK 5.25997e-05
58 *133:10 *4001:CLK 0.000114083
59 *153:10 *4024:CLK 0
60 *153:10 *610:47 0
61 *155:10 *610:87 0.000346225
62 *237:10 *610:25 0
63 *241:8 *610:47 0.000434074
64 *242:8 *610:47 6.32688e-05
65 *244:8 *610:19 7.03766e-05
66 *274:10 *3855:CLK 0
67 *274:10 *610:98 0
68 *382:10 *4023:CLK 0.000153145
69 *382:10 *4024:CLK 0
70 *459:8 *610:19 0.000398664
71 *481:8 *4001:CLK 0
72 *481:8 *610:25 0
73 *609:75 *610:87 7.36737e-05
*RES
1 *4082:X *610:4 23 
2 *610:4 *4103:A 27.9093 
3 *610:4 *610:19 41.2893 
4 *610:19 *610:23 27.5321 
5 *610:23 *610:25 5.77929 
6 *610:25 *4001:CLK 42.8886 
7 *610:25 *4000:CLK 40.0507 
8 *610:23 *610:47 11.4136 
9 *610:47 *4023:CLK 43.3857 
10 *610:47 *4024:CLK 42.3293 
11 *610:19 *3854:CLK 23 
12 *4082:X *610:81 26.9564 
13 *610:81 *610:87 43.8786 
14 *610:87 *4026:CLK 23 
15 *610:81 *610:94 2.52714 
16 *610:94 *610:98 17.9621 
17 *610:98 *3855:CLK 48.2536 
18 *610:98 *3864:CLK 38 
19 *610:94 *3865:CLK 23 
*END

*D_NET *611 0.0144889
*CONN
*I *4022:CLK I *D sky130_fd_sc_hd__dfrtp_2
*I *3928:CLK I *D sky130_fd_sc_hd__dfstp_2
*I *4104:A I *D sky130_fd_sc_hd__clkbuf_4
*I *4018:CLK I *D sky130_fd_sc_hd__dfrtp_2
*I *3937:CLK I *D sky130_fd_sc_hd__dfrtp_2
*I *3975:CLK I *D sky130_fd_sc_hd__dfrtp_2
*I *3932:CLK I *D sky130_fd_sc_hd__dfrtp_2
*I *3935:CLK I *D sky130_fd_sc_hd__dfrtp_2
*I *3933:CLK I *D sky130_fd_sc_hd__dfrtp_2
*I *3980:CLK I *D sky130_fd_sc_hd__dfrtp_2
*I *4015:CLK I *D sky130_fd_sc_hd__dfrtp_2
*I *4020:CLK I *D sky130_fd_sc_hd__dfrtp_2
*I *4083:X O *D sky130_fd_sc_hd__clkbuf_8
*CAP
1 *4022:CLK 0.000233693
2 *3928:CLK 0
3 *4104:A 1.49804e-05
4 *4018:CLK 0.000398471
5 *3937:CLK 0.000489707
6 *3975:CLK 0.000350501
7 *3932:CLK 0.000153979
8 *3935:CLK 0
9 *3933:CLK 0.000147561
10 *3980:CLK 2.28373e-05
11 *4015:CLK 0
12 *4020:CLK 0.000110185
13 *4083:X 0
14 *611:138 0.000222948
15 *611:132 0.000874913
16 *611:113 0.000592195
17 *611:102 0.000716157
18 *611:87 0.00064845
19 *611:58 0.000254652
20 *611:52 0.00052077
21 *611:27 0.000573148
22 *611:14 0.000818998
23 *611:12 0.000325246
24 *611:10 0.000556887
25 *611:8 0.000642597
26 *611:4 0.000330418
27 *3937:CLK *3826:A2 1.24376e-05
28 *3937:CLK *3937:D 6.02707e-05
29 *3937:CLK *883:122 3.85902e-05
30 *3937:CLK *1094:10 4.93223e-05
31 *3975:CLK *658:105 9.38027e-05
32 *3975:CLK *883:85 6.46163e-05
33 *3975:CLK *898:67 6.17437e-06
34 *3980:CLK *822:10 1.94693e-05
35 *3980:CLK *883:36 2.93747e-05
36 *4020:CLK *704:8 7.28526e-05
37 *4020:CLK *883:38 0
38 *4022:CLK *4198:A 2.4754e-05
39 *4104:A *3975:RESET_B 5.50106e-05
40 *4104:A *1089:20 5.50106e-05
41 *611:8 *4212:A 9.84794e-05
42 *611:8 *708:10 1.21972e-05
43 *611:8 *731:10 5.12254e-05
44 *611:10 *658:105 0.000119108
45 *611:10 *883:58 0
46 *611:12 *822:10 0.000352547
47 *611:12 *883:58 0
48 *611:14 *883:38 0
49 *611:14 *883:58 0
50 *611:27 *898:6 6.82611e-05
51 *611:27 *898:8 0.000141154
52 *611:27 *898:16 0.000954262
53 *611:52 *658:105 2.34364e-05
54 *611:52 *731:10 0.000114083
55 *611:132 *4198:A 0.000171898
56 *611:132 *692:6 9.41704e-05
57 *611:132 *899:10 5.31514e-05
58 *611:132 *997:10 6.18399e-05
59 *611:138 *885:28 0.000131077
60 *611:138 *899:26 0.00014411
61 *3426:C1 *611:132 3.70094e-05
62 *3932:D *3937:CLK 0
63 *3932:D *611:102 0
64 *3932:RESET_B *4018:CLK 4.81382e-05
65 *3937:RESET_B *3937:CLK 0.000144921
66 *4015:D *611:27 7.44354e-05
67 *4022:D *4022:CLK 0.000185434
68 *97:6 *3933:CLK 0.00011501
69 *101:12 *3937:CLK 9.28739e-05
70 *101:12 *611:102 4.6318e-06
71 *102:10 *4022:CLK 0.000177909
72 *102:10 *611:132 0.000114856
73 *102:10 *611:138 0
74 *111:23 *3975:CLK 0.00019369
75 *111:23 *4020:CLK 0.000111148
76 *111:23 *611:10 0.000158134
77 *111:23 *611:12 0.00021622
78 *111:23 *611:14 9.04083e-05
79 *111:23 *611:52 7.91596e-05
80 *152:8 *611:138 0
81 *187:8 *611:132 0.00014576
82 *360:73 *611:102 0
83 *360:73 *611:113 0
84 *360:73 *611:132 0
85 *423:10 *611:10 0.000140958
86 *423:36 *611:8 0.000186205
87 *607:33 *611:102 0
88 *607:33 *611:113 0
89 *607:33 *611:132 0
*RES
1 *4083:X *611:4 23 
2 *611:4 *611:8 21.815 
3 *611:8 *611:10 6.13143 
4 *611:10 *611:12 5.77929 
5 *611:12 *611:14 2.61 
6 *611:14 *4020:CLK 40.9621 
7 *611:14 *611:27 30.8671 
8 *611:27 *4015:CLK 23 
9 *611:12 *3980:CLK 38.6214 
10 *611:10 *3933:CLK 40.5271 
11 *611:8 *611:52 2.25786 
12 *611:52 *611:58 16.595 
13 *611:58 *3935:CLK 23 
14 *611:58 *3932:CLK 25.5271 
15 *611:52 *3975:CLK 45.0843 
16 *611:4 *611:87 15 
17 *611:87 *3937:CLK 48.3986 
18 *611:87 *611:102 2.96214 
19 *611:102 *4018:CLK 44.815 
20 *611:102 *611:113 2.96214 
21 *611:113 *4104:A 38.6214 
22 *611:113 *611:132 25.0257 
23 *611:132 *611:138 35.4271 
24 *611:138 *3928:CLK 23 
25 *611:132 *4022:CLK 29.3386 
*END

*D_NET *612 0.0128284
*CONN
*I *4005:CLK I *D sky130_fd_sc_hd__dfrtp_2
*I *4003:CLK I *D sky130_fd_sc_hd__dfrtp_2
*I *4004:CLK I *D sky130_fd_sc_hd__dfrtp_2
*I *4006:CLK I *D sky130_fd_sc_hd__dfrtp_2
*I *4007:CLK I *D sky130_fd_sc_hd__dfrtp_2
*I *4002:CLK I *D sky130_fd_sc_hd__dfrtp_2
*I *3999:CLK I *D sky130_fd_sc_hd__dfrtp_2
*I *4011:CLK I *D sky130_fd_sc_hd__dfrtp_2
*I *4012:CLK I *D sky130_fd_sc_hd__dfrtp_2
*I *3951:CLK I *D sky130_fd_sc_hd__dfrtp_2
*I *4084:X O *D sky130_fd_sc_hd__clkbuf_8
*CAP
1 *4005:CLK 0
2 *4003:CLK 0.00020039
3 *4004:CLK 5.40838e-05
4 *4006:CLK 0
5 *4007:CLK 0
6 *4002:CLK 0.000129755
7 *3999:CLK 0.000245113
8 *4011:CLK 0
9 *4012:CLK 0.000184532
10 *3951:CLK 0.000409186
11 *4084:X 0.00120226
12 *612:98 0.000605228
13 *612:94 0.000474296
14 *612:78 0.000570205
15 *612:72 0.000637071
16 *612:68 0.000872317
17 *612:43 0.00047974
18 *612:21 0.000649466
19 *612:8 0.000987219
20 *612:6 0.000738324
21 *3951:CLK *3823:A2 5.50106e-05
22 *3951:CLK *3823:B1 0.00010655
23 *3999:CLK *902:62 0.000176355
24 *4002:CLK *4289:A 0
25 *4002:CLK *1071:21 0
26 *4003:CLK *3346:A 3.72639e-05
27 *4003:CLK *1081:10 0.000154147
28 *4003:CLK *1081:12 0.000158727
29 *4003:CLK *1081:53 5.55911e-05
30 *4004:CLK *902:38 5.3304e-05
31 *4012:CLK *654:72 2.76611e-06
32 *4012:CLK *654:78 0
33 *612:6 *3529:A1 7.73389e-05
34 *612:6 *4289:A 9.5877e-05
35 *612:21 *654:78 0
36 *612:43 *4289:A 0
37 *612:78 *3551:A 2.30292e-05
38 *612:78 *896:133 0
39 *612:78 *896:146 0
40 *612:94 *3347:A 4.65917e-05
41 *612:98 *3547:A 2.24608e-05
42 *612:98 *3547:C 2.24608e-05
43 *612:98 *1081:12 0.000199664
44 *612:98 *1083:36 0.000124072
45 *612:98 *1083:38 4.70291e-05
46 *3493:B *612:78 5.41288e-05
47 *3529:A2 *4002:CLK 0.000154138
48 *3529:A2 *612:21 1.19692e-05
49 *3529:A2 *612:43 0.000195248
50 *3539:B *4003:CLK 0
51 *3551:B *612:78 0.000248437
52 *3551:C *612:78 1.80023e-05
53 *3999:RESET_B *3999:CLK 5.03716e-05
54 *4015:D *4002:CLK 3.70187e-05
55 *126:10 *3951:CLK 6.88885e-05
56 *126:10 *612:8 5.10805e-05
57 *126:10 *612:21 0
58 *137:12 *4004:CLK 1.88405e-05
59 *234:10 *3951:CLK 0.00010018
60 *380:10 *612:68 7.15126e-05
61 *380:10 *612:94 2.02872e-05
62 *389:12 *612:21 0
63 *483:39 *612:72 0.000222104
64 *483:39 *612:78 0.000419486
65 *483:39 *612:98 6.68004e-05
66 *483:41 *612:78 0.00015637
67 *485:18 *4003:CLK 9.88303e-05
68 *485:18 *612:98 6.3303e-05
69 *488:10 *612:72 0.000210659
70 *488:10 *612:78 0.000196549
71 *490:8 *612:98 0.000396786
72 *491:10 *612:78 0
73 *498:10 *612:78 0
*RES
1 *4084:X *612:6 31.7207 
2 *612:6 *612:8 2.05071 
3 *612:8 *3951:CLK 31.265 
4 *612:8 *612:21 23.9486 
5 *612:21 *4012:CLK 41.5836 
6 *612:21 *4011:CLK 38 
7 *612:6 *612:43 17.61 
8 *612:43 *3999:CLK 43.3857 
9 *612:43 *4002:CLK 40.61 
10 *4084:X *612:68 34.1029 
11 *612:68 *612:72 17.9621 
12 *612:72 *612:78 29.065 
13 *612:78 *4007:CLK 23 
14 *612:72 *4006:CLK 38 
15 *612:68 *612:94 2.54786 
16 *612:94 *612:98 23.9486 
17 *612:98 *4004:CLK 39.1186 
18 *612:98 *4003:CLK 43.075 
19 *612:94 *4005:CLK 23 
*END

*D_NET *613 0.0142132
*CONN
*I *4046:CLK I *D sky130_fd_sc_hd__dfrtp_2
*I *4009:CLK I *D sky130_fd_sc_hd__dfrtp_2
*I *4014:CLK I *D sky130_fd_sc_hd__dfrtp_2
*I *4010:CLK I *D sky130_fd_sc_hd__dfrtp_2
*I *4008:CLK I *D sky130_fd_sc_hd__dfrtp_2
*I *3876:CLK I *D sky130_fd_sc_hd__dfrtp_2
*I *4048:CLK I *D sky130_fd_sc_hd__dfrtp_2
*I *4047:CLK I *D sky130_fd_sc_hd__dfrtp_2
*I *3968:CLK I *D sky130_fd_sc_hd__dfrtp_2
*I *3964:CLK I *D sky130_fd_sc_hd__dfrtp_2
*I *3863:CLK I *D sky130_fd_sc_hd__dfrtp_2
*I *4085:X O *D sky130_fd_sc_hd__clkbuf_8
*CAP
1 *4046:CLK 0.000195656
2 *4009:CLK 7.10439e-05
3 *4014:CLK 0
4 *4010:CLK 0
5 *4008:CLK 4.75294e-05
6 *3876:CLK 0
7 *4048:CLK 0.000965251
8 *4047:CLK 0
9 *3968:CLK 0
10 *3964:CLK 0
11 *3863:CLK 0
12 *4085:X 0
13 *613:118 0.00135219
14 *613:103 0.001806
15 *613:97 0.000693541
16 *613:82 0.000506329
17 *613:78 0.000518993
18 *613:57 0.000965251
19 *613:45 0.000342283
20 *613:35 0.00052086
21 *613:28 0.000132374
22 *613:22 0.000712831
23 *613:16 0.000539946
24 *613:10 0.000657139
25 *613:4 0.00055229
26 *4009:CLK *3553:A1 7.87425e-05
27 *4048:CLK *4047:D 0.000352677
28 *4048:CLK *4047:RESET_B 0.000140454
29 *4048:CLK *4048:D 2.64616e-05
30 *4048:CLK *4048:RESET_B 7.51256e-05
31 *4048:CLK *656:47 4.58951e-05
32 *4048:CLK *921:26 0.000188324
33 *4048:CLK *1118:10 2.93845e-05
34 *613:10 *3648:B 4.44607e-05
35 *613:10 *706:12 3.19892e-06
36 *613:10 *1011:10 2.75733e-06
37 *613:10 *1012:27 0.000113141
38 *613:16 *706:12 9.68088e-05
39 *613:16 *1011:10 1.50072e-05
40 *613:22 *706:12 0.000202524
41 *613:22 *706:26 2.11066e-05
42 *613:22 *746:10 4.0919e-05
43 *613:22 *863:10 7.91752e-05
44 *613:22 *1011:10 0
45 *613:22 *1012:10 3.05419e-05
46 *613:28 *3968:RESET_B 2.22079e-05
47 *613:28 *672:14 0
48 *613:28 *1011:10 0.000215216
49 *613:35 *3968:RESET_B 5.03619e-05
50 *613:35 *690:6 7.88828e-05
51 *613:35 *863:10 5.52293e-05
52 *613:45 *3634:A 2.76611e-06
53 *613:45 *647:12 2.33476e-05
54 *613:45 *666:8 0
55 *613:45 *672:14 0
56 *613:82 *1086:21 0
57 *613:97 *904:126 6.16439e-05
58 *613:97 *1086:21 0
59 *613:97 *1086:36 0
60 *613:103 *3553:A1 0.000221084
61 *613:103 *3822:A1 0.000141954
62 *613:103 *896:73 0
63 *613:118 *896:73 0
64 *3553:A2 *613:103 4.95081e-05
65 *3554:A2 *613:82 1.50409e-05
66 *4014:D *613:118 5.47927e-05
67 *4014:RESET_B *613:118 0.00013273
68 *4085:A *613:10 0.000120344
69 *25:15 *613:45 0.000341097
70 *128:8 *613:103 0
71 *128:8 *613:118 0
72 *141:8 *613:82 5.18573e-05
73 *227:10 *613:82 8.36198e-05
74 *229:8 *613:97 6.02277e-06
75 *285:8 *613:10 8.64915e-05
76 *409:12 *613:22 0
77 *493:18 *613:103 0
78 *493:18 *613:118 0
79 *494:8 *4008:CLK 2.46922e-05
80 *494:8 *613:82 5.788e-05
81 *494:8 *613:97 7.13794e-05
82 *499:10 *613:118 0
83 *542:14 *613:35 7.88828e-05
*RES
1 *4085:X *613:4 23 
2 *613:4 *613:10 25.73 
3 *613:10 *613:16 3.72857 
4 *613:16 *613:22 23.3064 
5 *613:22 *613:28 32.9621 
6 *613:28 *3863:CLK 23 
7 *613:22 *613:35 4.43286 
8 *613:35 *613:45 36.5457 
9 *613:45 *3964:CLK 23 
10 *613:35 *3968:CLK 23 
11 *613:16 *613:57 15 
12 *613:57 *4047:CLK 23 
13 *613:57 *4048:CLK 42.6786 
14 *613:10 *3876:CLK 38 
15 *613:4 *613:78 0.621429 
16 *613:78 *613:82 20.9554 
17 *613:82 *4008:CLK 38.9425 
18 *613:82 *613:97 18.1382 
19 *613:97 *613:103 23.4721 
20 *613:103 *4010:CLK 38 
21 *613:103 *613:118 33.9536 
22 *613:118 *4014:CLK 23 
23 *613:97 *4009:CLK 24.595 
24 *613:78 *4046:CLK 26.48 
*END

*D_NET *614 0.0134923
*CONN
*I *3967:CLK I *D sky130_fd_sc_hd__dfrtp_2
*I *3969:CLK I *D sky130_fd_sc_hd__dfrtp_2
*I *3973:CLK I *D sky130_fd_sc_hd__dfrtp_2
*I *4013:CLK I *D sky130_fd_sc_hd__dfrtp_2
*I *3879:CLK I *D sky130_fd_sc_hd__dfrtp_2
*I *3880:CLK I *D sky130_fd_sc_hd__dfrtp_2
*I *3882:CLK I *D sky130_fd_sc_hd__dfrtp_2
*I *3877:CLK I *D sky130_fd_sc_hd__dfrtp_2
*I *3878:CLK I *D sky130_fd_sc_hd__dfrtp_2
*I *3881:CLK I *D sky130_fd_sc_hd__dfrtp_2
*I *4086:X O *D sky130_fd_sc_hd__clkbuf_8
*CAP
1 *3967:CLK 0.000588389
2 *3969:CLK 0.000189166
3 *3973:CLK 5.96476e-05
4 *4013:CLK 0.000451582
5 *3879:CLK 0.000148995
6 *3880:CLK 5.60162e-05
7 *3882:CLK 0
8 *3877:CLK 0
9 *3878:CLK 0
10 *3881:CLK 0.00023594
11 *4086:X 0.000525216
12 *614:101 0.00118978
13 *614:74 0.000760374
14 *614:63 0.00051262
15 *614:37 0.000269817
16 *614:29 0.000842665
17 *614:27 0.000572848
18 *614:12 0.000502707
19 *614:10 0.000476785
20 *614:8 0.000381478
21 *3880:CLK *994:26 5.41288e-05
22 *3881:CLK *3394:A1 1.32314e-05
23 *3881:CLK *3394:A2 0.000103027
24 *3881:CLK *3394:B1 6.21625e-05
25 *3881:CLK *1018:23 7.70737e-05
26 *3881:CLK *1025:12 8.1229e-05
27 *3967:CLK *654:51 8.57577e-05
28 *3967:CLK *657:73 0.000163256
29 *3967:CLK *745:31 2.53095e-05
30 *3967:CLK *1013:29 0.000113622
31 *3969:CLK *921:8 0.000159633
32 *3969:CLK *1013:29 0.0001332
33 *3973:CLK *994:18 0.000185095
34 *3973:CLK *1014:10 0.000194318
35 *4013:CLK *4189:A 5.3304e-05
36 *614:8 *3656:A1 0.000364782
37 *614:8 *1022:12 8.26478e-05
38 *614:10 *857:14 0
39 *614:10 *994:26 4.60997e-05
40 *614:12 *857:14 0
41 *614:12 *1018:23 0.000212546
42 *614:12 *1018:36 0
43 *614:12 *1025:12 6.32688e-05
44 *614:12 *1025:40 9.22823e-05
45 *614:29 *3877:RESET_B 0.000120167
46 *614:37 *650:10 0.000164369
47 *614:37 *872:14 0.000272377
48 *614:37 *874:10 0
49 *614:63 *857:14 0
50 *614:63 *994:18 2.56281e-05
51 *614:74 *994:18 0.000630666
52 *614:74 *1014:10 0.000402954
53 *614:101 *3649:A_N 5.5792e-05
54 *614:101 *3656:A1 0.000160743
55 *614:101 *1022:12 0.000306147
56 *3394:A3 *3881:CLK 3.6485e-05
57 *3880:D *3880:CLK 7.59794e-05
58 *21:17 *3967:CLK 7.74215e-05
59 *21:17 *3969:CLK 0.000205676
60 *107:6 *4013:CLK 7.44257e-05
61 *286:10 *614:37 0
62 *288:10 *614:10 8.54174e-05
63 *288:10 *614:63 0.000128144
64 *289:10 *3879:CLK 1.59094e-05
65 *289:10 *614:10 1.4731e-05
66 *289:10 *614:12 1.97329e-05
67 *410:8 *3881:CLK 0.000308033
68 *543:25 *3967:CLK 2.89351e-05
69 *544:8 *614:101 9.67908e-05
70 *605:64 *614:101 5.58003e-05
*RES
1 *4086:X *614:8 41.9564 
2 *614:8 *614:10 3.31429 
3 *614:10 *614:12 5.77929 
4 *614:12 *3881:CLK 44.5871 
5 *614:12 *614:27 15 
6 *614:27 *614:29 10.15 
7 *614:29 *614:37 36.09 
8 *614:37 *3878:CLK 23 
9 *614:29 *3877:CLK 23 
10 *614:27 *3882:CLK 23 
11 *614:10 *3880:CLK 39.5743 
12 *614:8 *614:63 2.61 
13 *614:63 *3879:CLK 40.0507 
14 *614:63 *614:74 8.59643 
15 *614:74 *4013:CLK 46.2443 
16 *614:74 *3973:CLK 40.61 
17 *4086:X *614:101 46.7207 
18 *614:101 *3969:CLK 43.7793 
19 *614:101 *3967:CLK 48.4814 
*END

*D_NET *615 0.0128267
*CONN
*I *3959:CLK I *D sky130_fd_sc_hd__dfrtp_2
*I *3894:CLK I *D sky130_fd_sc_hd__dfrtp_2
*I *3892:CLK I *D sky130_fd_sc_hd__dfrtp_2
*I *3946:CLK I *D sky130_fd_sc_hd__dfrtp_2
*I *3952:CLK I *D sky130_fd_sc_hd__dfrtp_2
*I *3963:CLK I *D sky130_fd_sc_hd__dfrtp_2
*I *3966:CLK I *D sky130_fd_sc_hd__dfrtp_2
*I *3970:CLK I *D sky130_fd_sc_hd__dfrtp_2
*I *3960:CLK I *D sky130_fd_sc_hd__dfrtp_2
*I *3971:CLK I *D sky130_fd_sc_hd__dfrtp_2
*I *3978:CLK I *D sky130_fd_sc_hd__dfrtp_2
*I *4087:X O *D sky130_fd_sc_hd__clkbuf_8
*CAP
1 *3959:CLK 0.000190055
2 *3894:CLK 0
3 *3892:CLK 0.000343221
4 *3946:CLK 0.000193645
5 *3952:CLK 0.00019197
6 *3963:CLK 0
7 *3966:CLK 2.56814e-05
8 *3970:CLK 0.000218656
9 *3960:CLK 0.00021454
10 *3971:CLK 0
11 *3978:CLK 3.67489e-05
12 *4087:X 2.93548e-05
13 *615:127 8.38156e-05
14 *615:121 0.000632882
15 *615:97 0.000741069
16 *615:86 0.000531965
17 *615:84 0.000749558
18 *615:41 0.000998157
19 *615:33 0.00132089
20 *615:22 0.000239902
21 *615:20 0.000506354
22 *615:14 0.000371146
23 *615:10 0.000264256
24 *615:8 0.00039564
25 *3892:CLK *3892:RESET_B 0.000341474
26 *3892:CLK *936:47 3.12385e-05
27 *3892:CLK *949:25 0.000368447
28 *3946:CLK *3462:B1 9.6916e-05
29 *3960:CLK *3960:D 0.00010655
30 *3966:CLK *4167:A 1.84917e-05
31 *3970:CLK *3970:D 0.000102301
32 *615:8 *981:84 5.5792e-05
33 *615:10 *691:14 0.000105283
34 *615:14 *691:14 9.75126e-05
35 *615:14 *1016:10 0
36 *615:20 *4167:A 5.64575e-05
37 *615:20 *981:65 0.000194198
38 *615:20 *989:20 9.12802e-05
39 *615:22 *981:65 0.000246748
40 *615:22 *989:20 0.000115299
41 *615:33 *981:65 0.000194318
42 *615:33 *989:20 4.6318e-06
43 *615:41 *3971:D 0.00014196
44 *615:41 *649:36 0.000178818
45 *615:41 *671:10 4.334e-05
46 *615:41 *981:65 0.000186912
47 *615:41 *990:8 8.1947e-05
48 *615:84 *691:14 0.000107507
49 *615:84 *990:18 0
50 *615:86 *3403:A 7.0127e-05
51 *615:97 *3443:A 2.5343e-05
52 *615:97 *3892:RESET_B 6.48049e-05
53 *615:97 *3947:RESET_B 0.000138727
54 *615:97 *949:25 0.000196761
55 *615:97 *949:38 1.99391e-05
56 *615:97 *989:20 0.00016534
57 *615:121 *3403:A 2.193e-05
58 *615:121 *4330:A 0.000179725
59 *615:121 *1023:10 8.30371e-05
60 *615:127 *3946:RESET_B 6.63801e-05
61 *615:127 *838:12 6.63801e-05
62 *3403:B *615:121 3.0918e-05
63 *3946:D *3946:CLK 8.1796e-05
64 *363:32 *615:86 2.93747e-05
65 *363:49 *615:86 2.32101e-05
66 *363:49 *615:121 0.000315965
*RES
1 *4087:X *615:8 38.6214 
2 *615:8 *615:10 2.96214 
3 *615:10 *615:14 17.9621 
4 *615:14 *615:20 19.6607 
5 *615:20 *615:22 3.31429 
6 *615:22 *3978:CLK 38.6214 
7 *615:22 *615:33 2.61 
8 *615:33 *615:41 30.1629 
9 *615:41 *3971:CLK 23 
10 *615:33 *3960:CLK 42.4329 
11 *615:20 *3970:CLK 42.4329 
12 *615:14 *3966:CLK 23.6214 
13 *615:10 *3963:CLK 38 
14 *615:8 *615:84 18.9357 
15 *615:84 *615:86 2.52714 
16 *615:86 *3952:CLK 26.48 
17 *615:86 *615:97 20.7793 
18 *615:97 *3946:CLK 42.4329 
19 *615:97 *3892:CLK 46.0993 
20 *615:84 *615:121 9.19714 
21 *615:121 *615:127 32.61 
22 *615:127 *3894:CLK 23 
23 *615:121 *3959:CLK 26.48 
*END

*D_NET *616 0.00824465
*CONN
*I *3976:CLK I *D sky130_fd_sc_hd__dfrtp_2
*I *3893:CLK I *D sky130_fd_sc_hd__dfrtp_2
*I *3961:CLK I *D sky130_fd_sc_hd__dfrtp_2
*I *3895:CLK I *D sky130_fd_sc_hd__dfrtp_2
*I *3945:CLK I *D sky130_fd_sc_hd__dfstp_2
*I *3950:CLK I *D sky130_fd_sc_hd__dfrtp_2
*I *3953:CLK I *D sky130_fd_sc_hd__dfrtp_2
*I *4019:CLK I *D sky130_fd_sc_hd__dfrtp_2
*I *3914:CLK I *D sky130_fd_sc_hd__dfrtp_2
*I *3948:CLK I *D sky130_fd_sc_hd__dfrtp_2
*I *4088:X O *D sky130_fd_sc_hd__clkbuf_8
*CAP
1 *3976:CLK 0
2 *3893:CLK 0.00014154
3 *3961:CLK 1.49804e-05
4 *3895:CLK 0.000191256
5 *3945:CLK 0.000169249
6 *3950:CLK 0
7 *3953:CLK 0
8 *4019:CLK 0
9 *3914:CLK 0
10 *3948:CLK 0
11 *4088:X 0
12 *616:78 0.000386933
13 *616:76 0.000414574
14 *616:72 0.000205472
15 *616:58 0.000231088
16 *616:46 0.000533926
17 *616:29 0.000708546
18 *616:23 0.000517223
19 *616:21 0.000567006
20 *616:10 0.000376459
21 *616:4 0.000327031
22 *3895:CLK *682:27 0
23 *3895:CLK *838:12 7.61943e-05
24 *3945:CLK *990:35 9.67842e-05
25 *3945:CLK *1000:8 7.88926e-05
26 *3961:CLK *676:24 5.50106e-05
27 *3961:CLK *682:27 5.50106e-05
28 *616:10 *990:35 0.000123944
29 *616:10 *1003:12 1.02561e-05
30 *616:10 *1003:18 3.80962e-05
31 *616:10 *1003:42 2.72055e-05
32 *616:21 *1003:42 7.75329e-06
33 *616:21 *1003:53 5.33213e-05
34 *616:23 *3953:D 3.22879e-05
35 *616:23 *3953:RESET_B 0.000120003
36 *616:23 *1005:10 0.00023878
37 *616:29 *3953:D 7.69528e-05
38 *616:29 *3953:RESET_B 0.00010655
39 *616:29 *757:8 0
40 *616:29 *978:26 0
41 *616:46 *4154:A 0.000168985
42 *616:46 *756:8 0
43 *616:46 *978:26 0
44 *616:72 *990:35 7.53384e-06
45 *616:76 *838:12 6.88819e-05
46 *616:76 *1000:29 0.00021673
47 *616:78 *833:10 0
48 *616:78 *838:12 8.65932e-05
49 *616:78 *1000:29 0.000277695
50 *3950:D *3945:CLK 0.000123944
51 *3950:D *616:58 7.40397e-05
52 *111:10 *616:10 0
53 *111:10 *616:21 0
54 *120:27 *616:46 7.88828e-05
55 *238:10 *616:46 0
56 *365:16 *616:46 5.97296e-05
57 *374:12 *3945:CLK 1.41129e-05
58 *374:12 *616:23 0.000118041
59 *374:12 *616:58 9.45591e-05
60 *433:38 *616:10 0.000126847
61 *433:38 *616:72 0.0001164
62 *603:13 *616:29 7.55832e-05
63 *603:13 *616:46 0.000269079
64 *605:8 *616:78 0.000169683
65 *605:46 *3893:CLK 0.000115
*RES
1 *4088:X *616:4 23 
2 *616:4 *616:10 20.4893 
3 *616:10 *3948:CLK 38 
4 *616:10 *616:21 17.9621 
5 *616:21 *616:23 8.24429 
6 *616:23 *616:29 20.0129 
7 *616:29 *3914:CLK 38 
8 *616:29 *616:46 27.8429 
9 *616:46 *4019:CLK 23 
10 *616:23 *3953:CLK 23 
11 *616:21 *616:58 2.05071 
12 *616:58 *3950:CLK 23 
13 *616:58 *3945:CLK 27.4329 
14 *616:4 *616:72 2.52714 
15 *616:72 *616:76 17.9621 
16 *616:76 *616:78 5.77929 
17 *616:78 *3895:CLK 41.7286 
18 *616:78 *3961:CLK 38.6214 
19 *616:76 *3893:CLK 40.5271 
20 *616:72 *3976:CLK 23 
*END

*D_NET *617 0.0142041
*CONN
*I *3896:CLK I *D sky130_fd_sc_hd__dfrtp_2
*I *4017:CLK I *D sky130_fd_sc_hd__dfrtp_2
*I *3956:CLK I *D sky130_fd_sc_hd__dfrtp_2
*I *3974:CLK I *D sky130_fd_sc_hd__dfrtp_2
*I *3955:CLK I *D sky130_fd_sc_hd__dfstp_2
*I *4107:A I *D sky130_fd_sc_hd__clkbuf_8
*I *3954:CLK I *D sky130_fd_sc_hd__dfrtp_2
*I *3983:CLK I *D sky130_fd_sc_hd__dfrtp_2
*I *4060:CLK I *D sky130_fd_sc_hd__dfrtp_2
*I *4061:CLK I *D sky130_fd_sc_hd__dfrtp_2
*I *4089:X O *D sky130_fd_sc_hd__clkbuf_8
*CAP
1 *3896:CLK 0.000207927
2 *4017:CLK 0
3 *3956:CLK 0.00014836
4 *3974:CLK 0
5 *3955:CLK 0
6 *4107:A 0
7 *3954:CLK 6.05827e-05
8 *3983:CLK 0.000259378
9 *4060:CLK 0
10 *4061:CLK 0
11 *4089:X 0.000137481
12 *617:130 9.13723e-05
13 *617:124 0.00130653
14 *617:107 0.00140163
15 *617:93 8.11505e-05
16 *617:54 0.000589706
17 *617:40 0.000800683
18 *617:36 0.00070346
19 *617:32 0.000473184
20 *617:26 0.000250125
21 *617:24 0.000328993
22 *617:18 0.000765414
23 *617:6 0.000971719
24 *3896:CLK *3896:RESET_B 9.42474e-05
25 *3896:CLK *651:75 0
26 *3954:CLK *3979:RESET_B 0.000113897
27 *3956:CLK *3956:D 5.50106e-05
28 *3956:CLK *1067:42 0.000223043
29 *3983:CLK *905:20 7.59794e-05
30 *3983:CLK *961:22 9.91798e-05
31 *3983:CLK *966:10 3.71251e-05
32 *617:18 *905:16 6.79006e-05
33 *617:26 *3444:A 6.9805e-05
34 *617:32 *3444:A 0.000170529
35 *617:32 *3979:RESET_B 9.18447e-05
36 *617:32 *755:12 2.70469e-05
37 *617:32 *933:20 0.000269775
38 *617:36 *3979:RESET_B 4.21594e-06
39 *617:36 *755:12 5.97612e-05
40 *617:36 *755:22 0.000241355
41 *617:36 *907:36 0
42 *617:40 *961:22 0.000247704
43 *617:54 *4060:RESET_B 0
44 *617:54 *965:8 0.000104775
45 *617:54 *968:8 1.39317e-05
46 *617:93 *3450:A1 0.000136486
47 *617:93 *936:29 0.000194318
48 *617:107 *807:10 4.9662e-05
49 *617:107 *960:27 9.41704e-05
50 *617:124 *3896:RESET_B 0.000176484
51 *617:124 *978:10 0.000320519
52 *617:124 *978:18 0.000191157
53 *617:124 *993:14 0.000484255
54 *617:124 *1067:42 0.000515688
55 *617:130 *766:14 0
56 *3450:B1 *617:93 0
57 *3974:D *617:18 0.000266894
58 *78:14 *3956:CLK 0
59 *78:14 *617:124 0
60 *88:10 *617:32 0.000222113
61 *109:6 *617:18 1.59094e-05
62 *109:6 *617:24 0.000145038
63 *109:6 *617:26 9.62666e-05
64 *109:6 *617:32 2.18409e-05
65 *112:8 *617:18 0.000139647
66 *120:27 *617:124 0.000333286
67 *348:10 *617:36 0
68 *348:10 *617:54 1.44546e-05
69 *353:10 *617:54 6.79006e-05
70 *372:8 *617:93 2.76611e-06
71 *603:13 *617:130 7.03766e-05
*RES
1 *4089:X *617:6 25.0507 
2 *617:6 *617:18 39.715 
3 *617:18 *617:24 4.12214 
4 *617:24 *617:26 2.05071 
5 *617:26 *617:32 22.1464 
6 *617:32 *617:36 20.075 
7 *617:36 *617:40 5.40643 
8 *617:40 *617:54 39.3836 
9 *617:54 *4061:CLK 23 
10 *617:40 *4060:CLK 23 
11 *617:36 *3983:CLK 28.3857 
12 *617:32 *3954:CLK 39.595 
13 *617:26 *4107:A 23 
14 *617:24 *617:93 32.61 
15 *617:93 *3955:CLK 23 
16 *617:18 *3974:CLK 23 
17 *617:6 *617:107 18.9564 
18 *617:107 *3956:CLK 41.5836 
19 *617:107 *617:124 36.75 
20 *617:124 *617:130 31.9057 
21 *617:130 *4017:CLK 23 
22 *617:124 *3896:CLK 26.3764 
*END

*D_NET *618 0.0149226
*CONN
*I *3972:CLK I *D sky130_fd_sc_hd__dfrtp_2
*I *3947:CLK I *D sky130_fd_sc_hd__dfrtp_2
*I *3965:CLK I *D sky130_fd_sc_hd__dfrtp_2
*I *3867:CLK I *D sky130_fd_sc_hd__dfrtp_2
*I *3962:CLK I *D sky130_fd_sc_hd__dfrtp_2
*I *3949:CLK I *D sky130_fd_sc_hd__dfrtp_2
*I *3897:CLK I *D sky130_fd_sc_hd__dfrtp_2
*I *3904:CLK I *D sky130_fd_sc_hd__dfrtp_2
*I *3866:CLK I *D sky130_fd_sc_hd__dfrtp_2
*I *3977:CLK I *D sky130_fd_sc_hd__dfrtp_2
*I *3862:CLK I *D sky130_fd_sc_hd__dfrtp_2
*I *4090:X O *D sky130_fd_sc_hd__clkbuf_8
*CAP
1 *3972:CLK 0.000341612
2 *3947:CLK 0.000200289
3 *3965:CLK 4.29221e-05
4 *3867:CLK 0
5 *3962:CLK 9.04263e-05
6 *3949:CLK 0.000511148
7 *3897:CLK 0
8 *3904:CLK 0.000103414
9 *3866:CLK 3.23488e-05
10 *3977:CLK 0.000114286
11 *3862:CLK 0.000500813
12 *4090:X 0.000434659
13 *618:134 0.000885986
14 *618:109 0.0003602
15 *618:105 0.000935084
16 *618:95 0.000991187
17 *618:68 0.000623868
18 *618:57 0.000772679
19 *618:20 0.000856737
20 *618:18 0.000420536
21 *618:12 0.00111304
22 *3862:CLK *3474:A 3.92407e-05
23 *3862:CLK *3861:RESET_B 0.000163502
24 *3862:CLK *846:23 0.000222123
25 *3862:CLK *988:6 3.16784e-05
26 *3862:CLK *988:12 3.3577e-05
27 *3866:CLK *924:27 5.45644e-05
28 *3904:CLK *3904:RESET_B 0.000233211
29 *3947:CLK *3448:B 4.21281e-05
30 *3947:CLK *3453:A1 5.50106e-05
31 *3949:CLK *729:10 0
32 *3962:CLK *740:10 4.5882e-05
33 *3962:CLK *981:10 0
34 *3972:CLK *646:43 0
35 *3972:CLK *821:8 0.000163361
36 *3972:CLK *875:18 0.000323822
37 *3972:CLK *948:12 9.22856e-05
38 *3977:CLK *3475:B 2.53879e-05
39 *618:12 *3445:A 0.000132483
40 *618:12 *847:20 7.29477e-06
41 *618:20 *3474:A 0.000158229
42 *618:20 *646:37 0
43 *618:57 *3904:RESET_B 0.000485227
44 *618:57 *1004:26 2.76611e-06
45 *618:57 *1007:20 9.83179e-05
46 *618:95 *3445:A 5.5792e-05
47 *618:105 *3638:A0 7.40449e-05
48 *618:105 *908:10 8.62783e-05
49 *618:105 *924:19 2.50612e-05
50 *618:105 *924:51 4.41587e-05
51 *618:109 *3639:S 0
52 *618:109 *3862:RESET_B 8.33469e-05
53 *618:109 *784:10 0
54 *618:109 *908:16 0
55 *618:109 *981:10 0
56 *618:109 *981:23 0
57 *618:134 *3445:A 0.000217543
58 *618:134 *3448:A 0
59 *618:134 *924:51 2.78105e-05
60 *618:134 *948:26 0.000266399
61 *618:134 *1002:45 0.000126517
62 *3687:C1 *618:12 4.55107e-05
63 *24:15 *3962:CLK 0.000224336
64 *86:8 *618:134 8.27285e-05
65 *106:10 *3866:CLK 3.46302e-05
66 *106:18 *3965:CLK 8.60475e-05
67 *106:18 *618:105 0.000282662
68 *109:28 *618:134 0
69 *113:23 *3972:CLK 2.93666e-05
70 *114:10 *3949:CLK 0
71 *275:10 *3862:CLK 0
72 *275:10 *618:20 0
73 *276:8 *618:109 3.81391e-05
74 *306:10 *618:68 6.63801e-05
75 *361:10 *3972:CLK 6.71223e-05
76 *361:10 *618:134 0.000114436
77 *363:32 *3949:CLK 0
78 *363:32 *618:68 0
79 *364:31 *3972:CLK 6.01125e-05
80 *364:31 *618:134 3.41998e-06
81 *426:16 *3947:CLK 4.93341e-05
82 *427:12 *618:12 1.09834e-05
83 *427:12 *618:57 8.65972e-05
84 *427:20 *618:18 0.000127296
85 *427:20 *618:20 0.000109751
86 *427:20 *618:57 5.29888e-05
87 *428:12 *618:57 0.000165394
88 *428:30 *618:57 6.13373e-05
89 *428:30 *618:68 0
90 *431:10 *618:134 0
91 *432:10 *3947:CLK 0.000221997
92 *434:10 *618:57 5.45652e-05
93 *604:76 *618:12 9.91548e-05
*RES
1 *4090:X *618:12 45.9336 
2 *618:12 *618:18 2.67214 
3 *618:18 *618:20 5.42714 
4 *618:20 *3862:CLK 48.1293 
5 *618:20 *3977:CLK 40.0714 
6 *618:18 *3866:CLK 39.0979 
7 *618:12 *618:57 27.2214 
8 *618:57 *3904:CLK 25.5271 
9 *618:57 *618:68 17.61 
10 *618:68 *3897:CLK 38 
11 *618:68 *3949:CLK 47.2593 
12 *4090:X *618:95 38.6214 
13 *618:95 *618:105 27.3664 
14 *618:105 *618:109 20.7793 
15 *618:109 *3962:CLK 40.9621 
16 *618:109 *3867:CLK 38 
17 *618:105 *3965:CLK 24.0979 
18 *618:95 *618:134 8.59643 
19 *618:134 *3947:CLK 42.4329 
20 *618:134 *3972:CLK 46.2443 
*END

*D_NET *619 0.011036
*CONN
*I *3907:CLK I *D sky130_fd_sc_hd__dfrtp_2
*I *4106:A I *D sky130_fd_sc_hd__clkinv_2
*I *3911:CLK I *D sky130_fd_sc_hd__dfrtp_2
*I *3913:CLK I *D sky130_fd_sc_hd__dfrtp_2
*I *3912:CLK I *D sky130_fd_sc_hd__dfrtp_2
*I *3870:CLK I *D sky130_fd_sc_hd__dfrtp_2
*I *3910:CLK I *D sky130_fd_sc_hd__dfrtp_2
*I *3908:CLK I *D sky130_fd_sc_hd__dfrtp_2
*I *4063:CLK I *D sky130_fd_sc_hd__dfrtp_2
*I *4091:X O *D sky130_fd_sc_hd__clkbuf_8
*CAP
1 *3907:CLK 0.000169573
2 *4106:A 2.34823e-05
3 *3911:CLK 0
4 *3913:CLK 0
5 *3912:CLK 0
6 *3870:CLK 0
7 *3910:CLK 0.00020375
8 *3908:CLK 0
9 *4063:CLK 0
10 *4091:X 1.97948e-05
11 *619:87 0.000218814
12 *619:63 0.000640952
13 *619:59 0.00119424
14 *619:53 0.00064115
15 *619:51 0.000635036
16 *619:34 0.000860925
17 *619:22 0.000952512
18 *619:14 0.00149245
19 *619:8 0.000649939
20 *619:6 4.55536e-05
21 *3907:CLK *3732:A 1.24376e-05
22 *3907:CLK *916:32 0.000588871
23 *619:6 *3732:A 5.50049e-05
24 *619:14 *3731:A1 0.000166513
25 *619:22 *632:12 0
26 *619:22 *632:22 0
27 *619:34 *3731:A1 3.47781e-05
28 *619:34 *3911:RESET_B 3.36312e-06
29 *619:34 *916:32 3.26703e-05
30 *619:34 *973:25 0.000206568
31 *619:51 *3911:RESET_B 2.71929e-05
32 *619:51 *973:25 0.000195248
33 *619:51 *975:10 0.00021823
34 *619:59 *873:12 0
35 *619:59 *977:6 0.000289852
36 *619:59 *977:25 9.74722e-05
37 *619:63 *4303:A 6.42505e-05
38 *619:63 *840:8 2.79004e-05
39 *619:63 *873:12 0
40 *619:63 *909:63 0
41 *619:87 *3732:A 5.3304e-05
42 *3732:C *3907:CLK 9.86742e-05
43 *3732:C *4106:A 0
44 *3732:C *619:6 1.94693e-05
45 *3732:C *619:87 1.21972e-05
46 *3907:D *3907:CLK 6.17437e-06
47 *3910:D *3910:CLK 3.7039e-05
48 *3911:D *619:51 0.000136236
49 *4063:D *619:22 5.50106e-05
50 *3:11 *619:63 0
51 *8:13 *619:59 0.000125802
52 *8:13 *619:63 0.000114656
53 *9:11 *619:63 0
54 *279:10 *619:63 4.90803e-05
55 *317:10 *3907:CLK 5.3304e-05
56 *319:10 *619:14 0.000111148
57 *319:10 *619:34 5.72749e-05
58 *580:8 *619:14 0.000137613
59 *582:87 *3907:CLK 4.9054e-06
60 *588:16 *619:14 0
61 *588:16 *619:22 5.3656e-05
62 *588:29 *619:14 0
63 *588:33 *3907:CLK 0.000141954
*RES
1 *4091:X *619:6 23.6214 
2 *619:6 *619:8 15 
3 *619:8 *619:14 26.0407 
4 *619:14 *619:22 46.965 
5 *619:22 *4063:CLK 23 
6 *619:14 *3908:CLK 23 
7 *619:8 *619:34 3.31429 
8 *619:34 *3910:CLK 41.5007 
9 *619:34 *619:51 26.8071 
10 *619:51 *619:53 1.57429 
11 *619:53 *619:59 27.5114 
12 *619:59 *619:63 28.8786 
13 *619:63 *3870:CLK 23 
14 *619:59 *3912:CLK 38 
15 *619:53 *3913:CLK 23 
16 *619:51 *3911:CLK 23 
17 *619:6 *619:87 0.621429 
18 *619:87 *4106:A 23.4971 
19 *619:87 *3907:CLK 29.815 
*END

*D_NET *620 0.0121425
*CONN
*I *3899:CLK I *D sky130_fd_sc_hd__dfrtp_2
*I *3900:CLK I *D sky130_fd_sc_hd__dfrtp_2
*I *3898:CLK I *D sky130_fd_sc_hd__dfrtp_2
*I *3861:CLK I *D sky130_fd_sc_hd__dfrtp_2
*I *3858:CLK I *D sky130_fd_sc_hd__dfrtp_2
*I *3860:CLK I *D sky130_fd_sc_hd__dfrtp_2
*I *3856:CLK I *D sky130_fd_sc_hd__dfrtp_2
*I *3857:CLK I *D sky130_fd_sc_hd__dfrtp_2
*I *3859:CLK I *D sky130_fd_sc_hd__dfrtp_2
*I *4108:A I *D sky130_fd_sc_hd__clkbuf_8
*I *4092:X O *D sky130_fd_sc_hd__clkbuf_8
*CAP
1 *3899:CLK 0.000265245
2 *3900:CLK 0
3 *3898:CLK 0.000144223
4 *3861:CLK 0.000724487
5 *3858:CLK 0
6 *3860:CLK 4.67873e-05
7 *3856:CLK 0
8 *3857:CLK 0.000332485
9 *3859:CLK 9.16478e-05
10 *4108:A 0
11 *4092:X 0
12 *620:90 0.000340147
13 *620:79 0.000345174
14 *620:58 0.000970062
15 *620:54 0.000631027
16 *620:32 0.000548485
17 *620:21 0.00121803
18 *620:12 0.000165978
19 *620:6 0.00118775
20 *620:4 0.000417579
21 *3857:CLK *839:14 0
22 *3857:CLK *852:8 0.000171906
23 *3861:CLK *3858:RESET_B 1.72e-05
24 *3898:CLK *3696:A1 9.2057e-05
25 *3899:CLK *3700:A1 5.3304e-05
26 *3899:CLK *632:12 0.00024189
27 *3899:CLK *722:8 0.000137744
28 *3899:CLK *955:21 3.63676e-05
29 *620:6 *3697:A1 1.24376e-05
30 *620:6 *909:25 0.000117769
31 *620:21 *3697:A0 1.21972e-05
32 *620:21 *3697:A1 0.000400209
33 *620:21 *3859:RESET_B 9.31794e-05
34 *620:21 *841:6 6.08617e-05
35 *620:21 *841:14 0.000180329
36 *620:21 *909:25 0.000279495
37 *620:21 *985:6 1.21972e-05
38 *620:32 *839:14 0
39 *620:32 *848:8 9.91382e-05
40 *620:32 *852:8 0.000241616
41 *620:54 *909:25 0.000304109
42 *620:58 *3482:B 0.000184168
43 *620:58 *3631:A0 0.000335485
44 *620:58 *3631:S 1.52259e-05
45 *620:58 *632:12 1.01436e-05
46 *620:79 *632:12 0.000212734
47 *620:90 *632:12 0.000223805
48 *3696:A2 *3898:CLK 1.60285e-05
49 *3697:S *620:12 7.37598e-05
50 *3700:B2 *3899:CLK 4.16051e-06
51 *3700:B2 *620:58 3.35885e-06
52 *3700:B2 *620:79 5.70885e-05
53 *3700:B2 *620:90 6.16603e-05
54 *3859:D *3859:CLK 6.17437e-06
55 *3859:D *620:21 2.02872e-05
56 *36:17 *620:12 0
57 *36:17 *620:21 5.50049e-05
58 *37:9 *3861:CLK 0.00026808
59 *265:10 *3857:CLK 6.63801e-05
60 *268:10 *620:32 6.25829e-05
61 *435:14 *3899:CLK 7.14661e-05
62 *568:12 *620:58 9.56865e-05
63 *569:24 *3898:CLK 0.000306147
*RES
1 *4092:X *620:4 23 
2 *620:4 *620:6 2.52714 
3 *620:6 *620:12 32.2579 
4 *620:12 *4108:A 23 
5 *620:6 *620:21 18.7464 
6 *620:21 *3859:CLK 24.5743 
7 *620:21 *620:32 20.7793 
8 *620:32 *3857:CLK 44.7943 
9 *620:32 *3856:CLK 38 
10 *620:4 *620:54 21.3386 
11 *620:54 *620:58 20.4271 
12 *620:58 *3860:CLK 23.6214 
13 *620:58 *3858:CLK 23 
14 *620:58 *3861:CLK 35.0557 
15 *620:54 *620:79 2.96214 
16 *620:79 *3898:CLK 41.48 
17 *620:79 *620:90 2.96214 
18 *620:90 *3900:CLK 38 
19 *620:90 *3899:CLK 44.3179 
*END

*D_NET *621 0.0114411
*CONN
*I *3958:CLK I *D sky130_fd_sc_hd__dfrtp_2
*I *3927:CLK I *D sky130_fd_sc_hd__dfrtp_2
*I *3934:CLK I *D sky130_fd_sc_hd__dfrtp_2
*I *3998:CLK I *D sky130_fd_sc_hd__dfrtp_2
*I *3984:CLK I *D sky130_fd_sc_hd__dfrtp_2
*I *3909:CLK I *D sky130_fd_sc_hd__dfrtp_2
*I *3957:CLK I *D sky130_fd_sc_hd__dfstp_2
*I *3981:CLK I *D sky130_fd_sc_hd__dfrtp_2
*I *3906:CLK I *D sky130_fd_sc_hd__dfrtp_2
*I *3979:CLK I *D sky130_fd_sc_hd__dfrtp_2
*I *4093:X O *D sky130_fd_sc_hd__clkbuf_8
*CAP
1 *3958:CLK 0
2 *3927:CLK 6.22175e-05
3 *3934:CLK 0
4 *3998:CLK 0
5 *3984:CLK 0
6 *3909:CLK 0.000602572
7 *3957:CLK 0
8 *3981:CLK 0
9 *3906:CLK 4.24211e-05
10 *3979:CLK 0.000334874
11 *4093:X 0.000618069
12 *621:118 0.000825765
13 *621:103 0.00121481
14 *621:97 0.000571772
15 *621:91 0.000369135
16 *621:87 0.000603119
17 *621:49 0.000887586
18 *621:35 0.00023499
19 *621:29 0.0008295
20 *621:23 0.000351917
21 *621:10 0.000598447
22 *3909:CLK *907:32 2.76611e-06
23 *3979:CLK *3979:RESET_B 6.17437e-06
24 *3979:CLK *907:36 0.000222193
25 *3979:CLK *933:12 0
26 *3979:CLK *933:20 0
27 *3979:CLK *935:20 0
28 *621:10 *3343:A 0.000224605
29 *621:10 *907:36 9.52677e-05
30 *621:29 *3984:RESET_B 0.00012103
31 *621:29 *4182:A 1.24376e-05
32 *621:29 *675:10 8.46575e-05
33 *621:35 *675:10 5.80963e-05
34 *621:35 *915:8 0
35 *621:35 *999:35 9.74235e-05
36 *621:49 *915:8 0
37 *621:87 *3806:A1 7.40275e-06
38 *621:87 *894:32 0.000164282
39 *621:87 *936:29 5.50955e-05
40 *621:91 *3958:D 2.64616e-05
41 *621:91 *3958:RESET_B 7.35087e-05
42 *621:91 *938:12 2.89917e-05
43 *621:91 *939:60 0.000161542
44 *621:97 *880:38 0.00016134
45 *621:103 *646:43 0.000435022
46 *621:103 *894:32 3.92407e-05
47 *621:118 *4122:A 0.00028049
48 *621:118 *646:43 6.16439e-05
49 *621:118 *880:57 9.91895e-05
50 *621:118 *894:32 0.000228981
51 *621:118 *894:51 0.000114092
52 *621:118 *1091:10 5.85822e-06
53 *3979:D *3979:CLK 5.10686e-05
54 *3984:D *3979:CLK 2.76611e-06
55 *3984:D *621:10 6.03737e-05
56 *11:14 *3909:CLK 0.000156589
57 *75:10 *621:10 2.93845e-05
58 *88:10 *3979:CLK 6.17437e-06
59 *353:10 *3909:CLK 0
60 *353:10 *621:35 0
61 *353:10 *621:49 0
62 *354:30 *3909:CLK 0
63 *370:14 *621:97 0
64 *376:10 *621:10 0.000114375
65 *604:101 *621:87 5.37348e-06
*RES
1 *4093:X *621:10 45.0429 
2 *621:10 *3979:CLK 45.83 
3 *621:10 *621:23 15 
4 *621:23 *621:29 21.8357 
5 *621:29 *621:35 18.9357 
6 *621:35 *3906:CLK 23.6214 
7 *621:35 *3981:CLK 23 
8 *621:29 *621:49 5.42714 
9 *621:49 *3957:CLK 38 
10 *621:49 *3909:CLK 49.2893 
11 *621:23 *3984:CLK 23 
12 *4093:X *621:87 44.8564 
13 *621:87 *621:91 19.9093 
14 *621:91 *621:97 32.9621 
15 *621:97 *621:103 23.3064 
16 *621:103 *3998:CLK 38 
17 *621:103 *621:118 28.34 
18 *621:118 *3934:CLK 23 
19 *621:97 *3927:CLK 24.0979 
20 *621:91 *3958:CLK 23 
*END

*D_NET *622 0.0129698
*CONN
*I *4041:CLK I *D sky130_fd_sc_hd__dfrtp_2
*I *3916:CLK I *D sky130_fd_sc_hd__dfrtp_2
*I *4016:CLK I *D sky130_fd_sc_hd__dfstp_2
*I *4052:CLK I *D sky130_fd_sc_hd__dfrtp_2
*I *3883:CLK I *D sky130_fd_sc_hd__dfstp_2
*I *3982:CLK I *D sky130_fd_sc_hd__dfstp_2
*I *4042:CLK I *D sky130_fd_sc_hd__dfrtp_2
*I *4053:CLK I *D sky130_fd_sc_hd__dfrtp_2
*I *4049:CLK I *D sky130_fd_sc_hd__dfrtp_2
*I *4054:CLK I *D sky130_fd_sc_hd__dfrtp_2
*I *3884:CLK I *D sky130_fd_sc_hd__dfxtp_2
*I *4094:X O *D sky130_fd_sc_hd__clkbuf_8
*CAP
1 *4041:CLK 0.000177375
2 *3916:CLK 0.000359564
3 *4016:CLK 0.000487853
4 *4052:CLK 0.000146617
5 *3883:CLK 0.000185504
6 *3982:CLK 0.000172695
7 *4042:CLK 0.000630879
8 *4053:CLK 0
9 *4049:CLK 0
10 *4054:CLK 0.000172635
11 *3884:CLK 3.78039e-05
12 *4094:X 0.000265202
13 *622:126 0.000834065
14 *622:82 0.000492809
15 *622:80 0.000378889
16 *622:78 0.00088996
17 *622:76 0.000684481
18 *622:42 0.000187901
19 *622:29 0.000719636
20 *622:27 0.00076479
21 *622:17 0.00118786
22 *622:6 0.000371391
23 *3883:CLK *643:43 3.7122e-06
24 *3916:CLK *3849:A2 0.00010018
25 *3982:CLK *907:32 0
26 *4016:CLK *3748:A0 0.00031495
27 *4016:CLK *3748:A1 2.18506e-05
28 *4016:CLK *4228:A 9.41704e-05
29 *4016:CLK *725:8 0.0002263
30 *4016:CLK *939:16 0.00011761
31 *4042:CLK *785:25 3.884e-05
32 *4042:CLK *934:28 0.000144231
33 *4052:CLK *4052:D 2.93747e-05
34 *4052:CLK *907:26 0.000267167
35 *622:6 *663:12 0.000182826
36 *622:17 *4053:RESET_B 0.000249337
37 *622:42 *641:37 0
38 *622:42 *646:61 0.000433525
39 *622:42 *790:8 3.46181e-05
40 *622:42 *864:21 5.61414e-05
41 *622:76 *663:12 0.000139352
42 *622:78 *3748:A1 0.000176164
43 *622:78 *3748:S 0
44 *622:78 *641:22 1.86973e-05
45 *622:78 *643:67 0
46 *622:78 *663:12 5.97612e-05
47 *622:80 *3748:S 0
48 *622:82 *907:32 0
49 *622:126 *3748:A1 0.000111287
50 *622:126 *663:12 3.86689e-05
51 *622:126 *943:21 5.61311e-05
52 *3359:A *4042:CLK 3.98859e-05
53 *3359:A *622:17 6.72184e-06
54 *4053:D *622:27 5.50106e-05
55 *4229:A *3883:CLK 0.00014196
56 *11:10 *3982:CLK 1.3856e-05
57 *11:10 *4041:CLK 1.15098e-05
58 *11:10 *4042:CLK 0
59 *11:10 *622:78 3.20038e-06
60 *11:10 *622:80 2.01505e-06
61 *340:10 *3982:CLK 1.14452e-05
62 *340:10 *622:80 9.85378e-05
63 *340:10 *622:82 0.000235293
64 *341:8 *4042:CLK 0
65 *341:8 *622:17 0
66 *354:22 *3883:CLK 0.000268011
67 *359:31 *4016:CLK 1.95556e-05
68 *606:12 *4041:CLK 0
69 *606:12 *622:126 0
*RES
1 *4094:X *622:6 26.48 
2 *622:6 *3884:CLK 23.6214 
3 *622:6 *622:17 18.6664 
4 *622:17 *622:27 21.0486 
5 *622:27 *622:29 5.38571 
6 *622:29 *4054:CLK 25.5271 
7 *622:29 *622:42 35.7793 
8 *622:42 *4049:CLK 23 
9 *622:27 *4053:CLK 23 
10 *622:17 *4042:CLK 47.9221 
11 *4094:X *622:76 39.5743 
12 *622:76 *622:78 5.77929 
13 *622:78 *622:80 1.90571 
14 *622:80 *622:82 3.31429 
15 *622:82 *3982:CLK 40.9621 
16 *622:82 *3883:CLK 43.3857 
17 *622:80 *4052:CLK 41.5007 
18 *622:78 *4016:CLK 48.1707 
19 *622:76 *622:126 7.105 
20 *622:126 *3916:CLK 44.3386 
21 *622:126 *4041:CLK 41.3764 
*END

*D_NET *623 0.0140724
*CONN
*I *3890:CLK I *D sky130_fd_sc_hd__dfxtp_2
*I *3891:CLK I *D sky130_fd_sc_hd__dfxtp_2
*I *3905:CLK I *D sky130_fd_sc_hd__dfrtp_2
*I *3888:CLK I *D sky130_fd_sc_hd__dfxtp_2
*I *3885:CLK I *D sky130_fd_sc_hd__dfxtp_2
*I *3889:CLK I *D sky130_fd_sc_hd__dfxtp_2
*I *3871:CLK I *D sky130_fd_sc_hd__dfrtp_2
*I *3875:CLK I *D sky130_fd_sc_hd__dfrtp_2
*I *3873:CLK I *D sky130_fd_sc_hd__dfrtp_2
*I *3869:CLK I *D sky130_fd_sc_hd__dfrtp_2
*I *4095:X O *D sky130_fd_sc_hd__clkbuf_8
*CAP
1 *3890:CLK 0
2 *3891:CLK 0
3 *3905:CLK 0
4 *3888:CLK 4.29745e-05
5 *3885:CLK 0
6 *3889:CLK 0.000260809
7 *3871:CLK 0
8 *3875:CLK 0
9 *3873:CLK 0.000112123
10 *3869:CLK 0.000269441
11 *4095:X 0
12 *623:115 0.000319858
13 *623:107 0.000750977
14 *623:101 0.000946979
15 *623:83 6.76233e-05
16 *623:77 0.00058646
17 *623:60 0.0012235
18 *623:33 0.000306767
19 *623:27 0.000530875
20 *623:25 0.00108151
21 *623:8 0.000766081
22 *623:4 0.000754049
23 *3869:CLK *3707:A 0
24 *3869:CLK *3871:RESET_B 6.7911e-05
25 *3869:CLK *932:28 0.000184527
26 *3869:CLK *932:34 7.35643e-05
27 *623:8 *4305:A 0
28 *623:8 *932:34 0.000180741
29 *623:25 *3871:RESET_B 0.000189972
30 *623:25 *928:8 0.0002263
31 *623:60 *3647:S 0.000122647
32 *623:60 *4204:A 0
33 *623:60 *811:10 0.00010337
34 *623:60 *816:10 0
35 *623:60 *851:8 0
36 *623:60 *870:16 0
37 *623:60 *909:72 8.22421e-06
38 *623:60 *909:89 9.04758e-05
39 *623:77 *3672:A1 1.06693e-05
40 *623:77 *701:12 5.56203e-05
41 *623:83 *3672:A1 0.000222113
42 *623:83 *694:14 0.000222113
43 *623:101 *4390:A 0.000192736
44 *623:101 *640:28 8.15955e-05
45 *623:101 *907:121 7.72976e-05
46 *623:101 *947:36 0.000137651
47 *623:107 *4300:A 0
48 *623:107 *640:14 0.000314606
49 *623:107 *640:28 0.000182158
50 *623:107 *646:61 0
51 *623:107 *739:18 0
52 *623:107 *926:8 0.000315852
53 *623:115 *641:10 0
54 *623:115 *646:53 2.4754e-05
55 *623:115 *646:57 0.000359332
56 *623:115 *646:61 0.000135262
57 *623:115 *971:59 0
58 o_receive_data[0] *623:60 2.11157e-05
59 o_receive_data[5] *3889:CLK 0.000101071
60 o_receive_data[6] *623:33 4.66645e-05
61 *3885:D *623:77 0.000114083
62 *3888:D *623:77 1.64354e-05
63 *3889:D *3889:CLK 0.00027663
64 *4095:A *623:101 5.56356e-05
65 *8:13 *3873:CLK 0.000220931
66 *8:13 *623:33 0.0001276
67 *10:11 *3873:CLK 0.000223153
68 *10:11 *623:33 0.000210163
69 *278:10 *3869:CLK 6.7177e-06
70 *298:8 *623:60 3.56537e-05
71 *300:10 *623:115 4.58924e-05
72 *337:10 *623:101 0
73 *359:67 *623:60 0.000193743
74 *359:67 *623:77 0.000236976
75 *555:10 *623:60 0
76 *556:8 *623:101 1.14452e-05
77 *556:8 *623:107 0.000169683
78 *579:8 *623:115 0.000359326
*RES
1 *4095:X *623:4 23 
2 *623:4 *623:8 20.075 
3 *623:8 *3869:CLK 44.1107 
4 *623:8 *623:25 21.3386 
5 *623:25 *623:27 5.38571 
6 *623:27 *623:33 19.5364 
7 *623:33 *3873:CLK 41.5836 
8 *623:33 *3875:CLK 38 
9 *623:27 *3871:CLK 23 
10 *623:25 *623:60 26.0614 
11 *623:60 *3889:CLK 43.8621 
12 *623:60 *623:77 22.975 
13 *623:77 *623:83 32.9621 
14 *623:83 *3885:CLK 23 
15 *623:77 *3888:CLK 23.6214 
16 *623:4 *623:101 25.8543 
17 *623:101 *623:107 27.1179 
18 *623:107 *623:115 40.2121 
19 *623:115 *3905:CLK 23 
20 *623:107 *3891:CLK 23 
21 *623:101 *3890:CLK 38 
*END

*D_NET *624 0.0139958
*CONN
*I *3917:CLK I *D sky130_fd_sc_hd__dfrtp_2
*I *4050:CLK I *D sky130_fd_sc_hd__dfrtp_2
*I *4056:CLK I *D sky130_fd_sc_hd__dfrtp_2
*I *3989:CLK I *D sky130_fd_sc_hd__dfrtp_2
*I *3988:CLK I *D sky130_fd_sc_hd__dfrtp_2
*I *3990:CLK I *D sky130_fd_sc_hd__dfrtp_2
*I *3987:CLK I *D sky130_fd_sc_hd__dfrtp_2
*I *4109:A I *D sky130_fd_sc_hd__clkbuf_4
*I *3886:CLK I *D sky130_fd_sc_hd__dfxtp_2
*I *3887:CLK I *D sky130_fd_sc_hd__dfxtp_2
*I *4055:CLK I *D sky130_fd_sc_hd__dfrtp_2
*I *4051:CLK I *D sky130_fd_sc_hd__dfrtp_2
*I *4096:X O *D sky130_fd_sc_hd__clkbuf_8
*CAP
1 *3917:CLK 0
2 *4050:CLK 0
3 *4056:CLK 0
4 *3989:CLK 0
5 *3988:CLK 0
6 *3990:CLK 0
7 *3987:CLK 0.000162897
8 *4109:A 0.000363884
9 *3886:CLK 6.31662e-05
10 *3887:CLK 0
11 *4055:CLK 0.000245051
12 *4051:CLK 0.000317254
13 *4096:X 0.000126586
14 *624:161 0.000818757
15 *624:143 0.000199664
16 *624:120 0.000630611
17 *624:106 0.00135656
18 *624:91 0.00122698
19 *624:83 0.000595452
20 *624:63 0.000450533
21 *624:59 0.000608458
22 *624:46 0.000597653
23 *624:44 0.0007605
24 *624:38 0.000290849
25 *624:16 0.000744648
26 *624:12 0.000336924
27 *624:10 0.00109992
28 *4051:CLK *4051:RESET_B 7.51453e-06
29 *4051:CLK *4056:RESET_B 0.000193691
30 *4051:CLK *889:97 1.94812e-05
31 *4055:CLK *4050:RESET_B 5.10513e-05
32 *4055:CLK *940:6 0.000220047
33 *4055:CLK *940:28 3.71369e-05
34 *624:16 *4056:RESET_B 5.48193e-05
35 *624:44 *3752:A0 9.21623e-05
36 *624:44 *3752:A1 0.000100072
37 *624:44 *4200:A 4.3198e-05
38 *624:44 *934:51 3.37685e-05
39 *624:46 *4200:A 9.77405e-05
40 *624:46 *694:8 5.97296e-05
41 *624:46 *889:126 2.64616e-05
42 *624:59 *698:12 2.95125e-05
43 *624:59 *889:126 2.75031e-05
44 *624:83 *698:12 4.95442e-05
45 *624:83 *700:10 7.06124e-05
46 *624:83 *701:12 0
47 *624:91 *3405:A 0.000138718
48 *624:91 *3405:B 5.26101e-05
49 *624:91 *4392:A 0
50 *624:91 *700:10 0.000139647
51 *624:120 *641:84 0
52 *624:120 *641:99 0
53 *624:120 *1055:8 0.000110024
54 *624:143 *4395:A 1.46784e-05
55 *624:143 *869:10 9.1906e-05
56 *624:143 *940:6 1.92253e-05
57 *624:161 *3746:A0 0.000351513
58 *624:161 *4287:A 5.50106e-05
59 *624:161 *1041:10 7.53384e-06
60 o_receive_data[5] *624:59 2.5415e-05
61 *3668:S *4055:CLK 5.47927e-05
62 *3668:S *624:143 2.93431e-05
63 *3670:A0 *624:59 0
64 *3670:A0 *624:83 0
65 *3887:D *624:59 7.10068e-06
66 *3988:D *624:120 6.17437e-06
67 *162:6 *3987:CLK 3.52937e-05
68 *162:6 *624:106 2.45549e-06
69 *163:10 *624:120 6.25829e-05
70 *164:10 *624:91 0
71 *165:10 *624:120 4.9613e-05
72 *206:10 *624:120 0
73 *295:14 *624:59 0.000169674
74 *338:10 *624:161 2.19998e-05
75 *344:10 *624:44 5.25436e-05
76 *552:12 *624:10 6.4393e-05
77 *552:12 *624:12 0.000138185
78 *552:12 *624:16 2.99231e-05
79 *606:45 *624:10 5.50106e-05
*RES
1 *4096:X *624:10 40.5271 
2 *624:10 *624:12 3.66643 
3 *624:12 *624:16 3.58357 
4 *624:16 *4051:CLK 44.09 
5 *624:16 *4055:CLK 44.3386 
6 *624:12 *624:38 15 
7 *624:38 *624:44 6.50429 
8 *624:44 *624:46 4.90929 
9 *624:46 *3887:CLK 23 
10 *624:46 *624:59 20.3857 
11 *624:59 *624:63 15.4971 
12 *624:63 *3886:CLK 24.595 
13 *624:63 *4109:A 28.8621 
14 *624:59 *624:83 20.075 
15 *624:83 *624:91 36.7736 
16 *624:91 *3987:CLK 25.4236 
17 *624:91 *624:106 9.715 
18 *624:106 *624:120 42.4907 
19 *624:120 *3990:CLK 23 
20 *624:106 *3988:CLK 23 
21 *624:83 *3989:CLK 23 
22 *624:44 *624:143 33.5836 
23 *624:143 *4056:CLK 23 
24 *624:38 *4050:CLK 23 
25 *624:10 *624:161 29.6036 
26 *624:161 *3917:CLK 23 
*END

*D_NET *625 0.0173207
*CONN
*I *3920:CLK I *D sky130_fd_sc_hd__dfrtp_2
*I *3921:CLK I *D sky130_fd_sc_hd__dfrtp_2
*I *3997:CLK I *D sky130_fd_sc_hd__dfrtp_2
*I *3919:CLK I *D sky130_fd_sc_hd__dfrtp_2
*I *3918:CLK I *D sky130_fd_sc_hd__dfrtp_2
*I *3994:CLK I *D sky130_fd_sc_hd__dfrtp_2
*I *3995:CLK I *D sky130_fd_sc_hd__dfrtp_2
*I *3992:CLK I *D sky130_fd_sc_hd__dfrtp_2
*I *3993:CLK I *D sky130_fd_sc_hd__dfrtp_2
*I *3991:CLK I *D sky130_fd_sc_hd__dfrtp_2
*I *4097:X O *D sky130_fd_sc_hd__clkbuf_8
*CAP
1 *3920:CLK 0
2 *3921:CLK 0.000369513
3 *3997:CLK 0.000178968
4 *3919:CLK 0
5 *3918:CLK 0.00018216
6 *3994:CLK 0.000420708
7 *3995:CLK 0.000148115
8 *3992:CLK 0
9 *3993:CLK 0
10 *3991:CLK 0.000506287
11 *4097:X 0.00151401
12 *625:109 0.00042276
13 *625:92 0.00102947
14 *625:86 0.000710836
15 *625:82 0.000476832
16 *625:80 0.000557887
17 *625:53 0.000768761
18 *625:41 0.000399284
19 *625:29 0.000814716
20 *625:21 0.000868287
21 *625:8 0.00171533
22 *3918:CLK *876:18 0.000238194
23 *3918:CLK *877:29 3.95159e-06
24 *3918:CLK *1041:73 8.85189e-05
25 *3921:CLK *1045:16 0.000136486
26 *3991:CLK *631:10 1.39317e-05
27 *3994:CLK *773:8 0
28 *3995:CLK *3420:A 0.000277173
29 *3995:CLK *3800:A1 4.7444e-05
30 *3995:CLK *3800:B1 5.56279e-05
31 *3997:CLK *3381:A1 0.000264823
32 *625:8 *641:107 1.98684e-05
33 *625:8 *890:79 0.000485984
34 *625:8 *1057:10 0.000147996
35 *625:21 *641:107 3.51526e-05
36 *625:21 *890:92 0
37 *625:41 *3415:A1 0.000229205
38 *625:41 *673:8 1.83564e-05
39 *625:92 *3383:A1 0
40 *625:109 *877:29 0.000260631
41 *625:109 *890:25 8.9458e-05
42 *3381:A2 *3997:CLK 9.84851e-05
43 *3416:A *625:41 5.12055e-06
44 *3420:B *625:41 0.000249318
45 *3515:A_N *625:80 0.000137651
46 *3515:B *625:80 0.000200635
47 *3515:C *625:80 3.1806e-05
48 *3991:D *3991:CLK 0.000132154
49 *3992:D *625:29 5.88758e-05
50 *3992:D *625:41 2.93845e-05
51 *3993:D *625:41 7.73389e-05
52 *11:10 *3918:CLK 0
53 *11:10 *3921:CLK 0.000333955
54 *11:10 *625:86 9.92213e-05
55 *117:12 *3997:CLK 0.000387324
56 *117:12 *625:92 7.15126e-05
57 *169:6 *3994:CLK 7.88828e-05
58 *170:12 *3995:CLK 6.52969e-05
59 *210:10 *625:21 8.29264e-05
60 *211:10 *3995:CLK 3.05276e-05
61 *211:10 *625:53 3.0556e-05
62 *327:14 *3918:CLK 7.20518e-05
63 *392:10 *3918:CLK 2.11887e-05
64 *392:10 *625:92 8.48131e-05
65 *392:25 *3997:CLK 0.000169595
66 *392:25 *625:92 1.32314e-05
67 *396:20 *625:80 5.12254e-05
68 *396:24 *625:86 6.4393e-05
69 *396:24 *625:92 0.000463729
70 *396:32 *3918:CLK 4.08641e-05
71 *396:32 *625:92 0.000131077
72 *396:57 *3921:CLK 0.000240702
73 *396:57 *625:86 3.0647e-05
74 *412:8 *625:21 0
75 *606:88 *625:80 0.000239485
*RES
1 *4097:X *625:8 36.5057 
2 *625:8 *3991:CLK 30.1879 
3 *625:8 *625:21 19.0186 
4 *625:21 *625:29 21.38 
5 *625:29 *625:41 39.6529 
6 *625:41 *3993:CLK 23 
7 *625:29 *3992:CLK 23 
8 *625:21 *625:53 4.01857 
9 *625:53 *3995:CLK 42.4329 
10 *625:53 *3994:CLK 45.3536 
11 *4097:X *625:80 35.0557 
12 *625:80 *625:82 15 
13 *625:82 *625:86 17.61 
14 *625:86 *625:92 26.2271 
15 *625:92 *3918:CLK 42.7229 
16 *625:92 *625:109 36.5871 
17 *625:109 *3919:CLK 38 
18 *625:86 *3997:CLK 30.7679 
19 *625:82 *3921:CLK 46.5964 
20 *625:80 *3920:CLK 23 
*END

*D_NET *626 0.0113323
*CONN
*I *3996:CLK I *D sky130_fd_sc_hd__dfstp_2
*I *4110:A I *D sky130_fd_sc_hd__clkbuf_8
*I *3924:CLK I *D sky130_fd_sc_hd__dfrtp_2
*I *3925:CLK I *D sky130_fd_sc_hd__dfrtp_2
*I *3922:CLK I *D sky130_fd_sc_hd__dfrtp_2
*I *3923:CLK I *D sky130_fd_sc_hd__dfrtp_2
*I *3926:CLK I *D sky130_fd_sc_hd__dfrtp_2
*I *3938:CLK I *D sky130_fd_sc_hd__dfstp_2
*I *3941:CLK I *D sky130_fd_sc_hd__dfrtp_2
*I *3986:CLK I *D sky130_fd_sc_hd__dfrtp_2
*I *4098:X O *D sky130_fd_sc_hd__clkbuf_8
*CAP
1 *3996:CLK 0.000246902
2 *4110:A 0
3 *3924:CLK 0
4 *3925:CLK 0.000156604
5 *3922:CLK 0.000342489
6 *3923:CLK 0
7 *3926:CLK 0
8 *3938:CLK 4.35742e-05
9 *3941:CLK 0.000565014
10 *3986:CLK 0
11 *4098:X 0
12 *626:81 0.000617495
13 *626:70 0.000376488
14 *626:64 0.00044757
15 *626:56 0.000421445
16 *626:23 0.000716592
17 *626:21 0.000520474
18 *626:10 0.00057935
19 *626:8 0.000429335
20 *626:4 0.000277398
21 *3922:CLK *3505:A 0.000256969
22 *3925:CLK *3375:A1 1.94693e-05
23 *3925:CLK *1049:8 1.55097e-05
24 *3938:CLK *3527:A1 5.74253e-05
25 *3941:CLK *645:101 8.68903e-05
26 *3941:CLK *826:10 2.64616e-05
27 *3941:CLK *993:58 0.000188926
28 *3941:CLK *1065:39 9.91165e-05
29 *3996:CLK *3369:A 0.000320984
30 *3996:CLK *3794:A2 9.41704e-05
31 *3996:CLK *645:122 0.000398503
32 *3996:CLK *1051:10 0.000172197
33 *3996:CLK *1051:16 4.04303e-05
34 *626:8 *1051:10 0.000185434
35 *626:10 *645:114 0
36 *626:21 *3774:A1 0
37 *626:21 *3805:A1 0
38 *626:21 *645:114 0
39 *626:21 *993:58 0.000276765
40 *626:23 *645:101 8.57661e-05
41 *626:23 *993:58 0.000243587
42 *626:56 *3773:B1 0
43 *626:56 *1047:76 0.000227208
44 *626:64 *3772:B1 7.88828e-05
45 *626:64 *644:77 0
46 *626:64 *1048:10 2.80394e-05
47 *626:70 *3772:B1 6.82611e-05
48 *626:70 *644:77 6.25829e-05
49 *626:70 *644:83 2.64616e-05
50 *626:70 *1048:10 1.76557e-05
51 *626:70 *1048:35 0.000139352
52 *626:70 *1048:69 3.43537e-05
53 *626:70 *1049:27 0.000218013
54 *626:81 *1049:27 0.000191138
55 *3363:A3 *626:23 0
56 *3375:B1 *3922:CLK 5.50106e-05
57 *3375:B1 *626:81 6.4393e-05
58 *3924:D *626:64 2.64616e-05
59 *3925:D *3922:CLK 0.000114856
60 *3925:D *3925:CLK 0.00026025
61 *3941:RESET_B *3941:CLK 0.000163502
62 *118:8 *626:21 0.000111998
63 *333:8 *626:64 0.000135547
64 *335:10 *626:21 4.48628e-05
65 *335:10 *626:23 4.21594e-06
66 *365:30 *626:21 2.19236e-05
67 *394:37 *3925:CLK 6.13092e-05
68 *394:37 *626:70 1.22906e-05
69 *396:10 *3996:CLK 0.000143655
70 *396:10 *626:8 0.000185434
71 *396:96 *626:70 0.000210639
72 *396:96 *626:81 2.70366e-05
73 *398:8 *626:56 0
74 *399:6 *626:56 0.000228903
75 *400:10 *3922:CLK 6.17437e-06
76 *400:10 *3925:CLK 2.06822e-05
77 *478:10 *3938:CLK 3.18322e-05
*RES
1 *4098:X *626:4 23 
2 *626:4 *626:8 17.0507 
3 *626:8 *626:10 2.96214 
4 *626:10 *3986:CLK 38 
5 *626:10 *626:21 9.21786 
6 *626:21 *626:23 3.31429 
7 *626:23 *3941:CLK 49.8071 
8 *626:23 *3938:CLK 39.0979 
9 *626:21 *3926:CLK 38 
10 *626:8 *626:56 20.8414 
11 *626:56 *626:64 34.1843 
12 *626:64 *626:70 22.83 
13 *626:70 *3923:CLK 38 
14 *626:70 *626:81 17.61 
15 *626:81 *3922:CLK 31.2443 
16 *626:81 *3925:CLK 26.9979 
17 *626:64 *3924:CLK 23 
18 *626:56 *4110:A 23 
19 *626:4 *3996:CLK 31.7207 
*END

*D_NET *627 0.0112711
*CONN
*I *3929:CLK I *D sky130_fd_sc_hd__dfrtp_2
*I *3985:CLK I *D sky130_fd_sc_hd__dfrtp_2
*I *3943:CLK I *D sky130_fd_sc_hd__dfrtp_2
*I *3944:CLK I *D sky130_fd_sc_hd__dfrtp_2
*I *4111:A I *D sky130_fd_sc_hd__clkinv_2
*I *3942:CLK I *D sky130_fd_sc_hd__dfstp_2
*I *4038:CLK I *D sky130_fd_sc_hd__dfstp_2
*I *4040:CLK I *D sky130_fd_sc_hd__dfrtp_2
*I *3931:CLK I *D sky130_fd_sc_hd__dfstp_2
*I *3936:CLK I *D sky130_fd_sc_hd__dfrtp_2
*I *4099:X O *D sky130_fd_sc_hd__clkbuf_8
*CAP
1 *3929:CLK 0.000205068
2 *3985:CLK 0
3 *3943:CLK 0
4 *3944:CLK 8.93806e-05
5 *4111:A 2.34823e-05
6 *3942:CLK 4.07326e-05
7 *4038:CLK 8.67843e-05
8 *4040:CLK 0.000857128
9 *3931:CLK 6.80978e-05
10 *3936:CLK 0.000377615
11 *4099:X 2.44744e-05
12 *627:104 9.8121e-05
13 *627:98 0.000639271
14 *627:77 0.000155284
15 *627:59 0.00022075
16 *627:55 0.000307226
17 *627:44 0.00114355
18 *627:42 0.000359835
19 *627:40 0.00102777
20 *627:10 0.000724465
21 *627:8 0.00074993
22 *3929:CLK *4152:A 5.50106e-05
23 *3936:CLK *767:10 7.28526e-05
24 *3936:CLK *993:14 4.83778e-05
25 *3936:CLK *993:23 1.44546e-05
26 *3936:CLK *1093:12 4.86103e-05
27 *3942:CLK *889:34 8.6949e-05
28 *4038:CLK *889:34 0.000184527
29 *4040:CLK *4040:D 7.59794e-05
30 *4040:CLK *993:38 0.000168975
31 *4040:CLK *1033:8 0.000351568
32 *4111:A *1034:39 0
33 *627:8 *1089:34 9.84794e-05
34 *627:10 *993:23 5.86328e-05
35 *627:10 *993:38 7.38195e-05
36 *627:40 *878:33 0.000164282
37 *627:40 *993:38 5.48415e-05
38 *627:40 *1035:8 0
39 *627:42 *892:8 7.56391e-05
40 *627:42 *993:38 0.000186359
41 *627:44 *993:38 0.000112087
42 *627:55 *713:20 0.000219882
43 *627:59 *763:12 5.19255e-05
44 *627:98 *892:8 0.000163765
45 *627:98 *892:139 4.93341e-05
46 *627:98 *1036:10 3.22879e-05
47 *627:104 *892:139 0.000141869
48 *627:104 *894:83 9.69609e-05
49 *627:104 *894:96 1.13579e-05
50 *3942:SET_B *627:40 0.000100533
51 *3943:D *627:42 6.37845e-05
52 *3943:D *627:44 9.17998e-05
53 *3944:D *3944:CLK 4.96717e-05
54 *3944:D *627:55 0.00010404
55 *3944:D *627:59 3.31127e-05
56 *4040:RESET_B *4040:CLK 2.33744e-05
57 *195:10 *3936:CLK 7.75329e-06
58 *195:10 *627:10 4.59027e-05
59 *204:10 *627:40 0.00046597
60 *360:14 *627:8 5.41288e-05
61 *360:33 *627:55 9.18611e-05
62 *360:33 *627:59 7.66188e-05
63 *425:10 *627:55 0.000141879
64 *603:55 *627:104 1.00612e-05
65 *603:105 *627:104 1.28274e-05
*RES
1 *4099:X *627:8 39.0979 
2 *627:8 *627:10 5.77929 
3 *627:10 *3936:CLK 45.3536 
4 *627:10 *3931:CLK 39.0979 
5 *627:8 *627:40 26.4136 
6 *627:40 *627:42 5.38571 
7 *627:42 *627:44 2.52714 
8 *627:44 *4040:CLK 39.3436 
9 *627:44 *627:55 20.7793 
10 *627:55 *627:59 17.9621 
11 *627:59 *4038:CLK 25.0507 
12 *627:59 *3942:CLK 24.0979 
13 *627:55 *627:77 15.6214 
14 *627:77 *4111:A 23.4971 
15 *627:77 *3944:CLK 24.5743 
16 *627:42 *3943:CLK 23 
17 *627:40 *627:98 6.815 
18 *627:98 *627:104 32.9621 
19 *627:104 *3985:CLK 23 
20 *627:98 *3929:CLK 26.48 
*END

*D_NET *628 0.0138108
*CONN
*I *4043:CLK I *D sky130_fd_sc_hd__dfrtp_2
*I *4021:CLK I *D sky130_fd_sc_hd__dfrtp_2
*I *4039:CLK I *D sky130_fd_sc_hd__dfrtp_2
*I *4037:CLK I *D sky130_fd_sc_hd__dfrtp_2
*I *3930:CLK I *D sky130_fd_sc_hd__dfrtp_2
*I *3915:CLK I *D sky130_fd_sc_hd__dfrtp_2
*I *4045:CLK I *D sky130_fd_sc_hd__dfrtp_2
*I *4035:CLK I *D sky130_fd_sc_hd__dfrtp_2
*I *4036:CLK I *D sky130_fd_sc_hd__dfrtp_2
*I *4044:CLK I *D sky130_fd_sc_hd__dfrtp_2
*I *3939:CLK I *D sky130_fd_sc_hd__dfrtp_2
*I *3940:CLK I *D sky130_fd_sc_hd__dfrtp_2
*I *4100:X O *D sky130_fd_sc_hd__clkbuf_8
*CAP
1 *4043:CLK 0
2 *4021:CLK 0.000575225
3 *4039:CLK 0
4 *4037:CLK 0.000475904
5 *3930:CLK 0
6 *3915:CLK 0
7 *4045:CLK 0.000295296
8 *4035:CLK 0
9 *4036:CLK 0
10 *4044:CLK 0
11 *3939:CLK 0.000260612
12 *3940:CLK 0
13 *4100:X 0.000139226
14 *628:127 0.00062629
15 *628:105 0.000786375
16 *628:97 0.00140786
17 *628:93 0.000276308
18 *628:91 0.00042694
19 *628:61 0.000177678
20 *628:53 0.000971137
21 *628:46 0.0010667
22 *628:42 0.00108891
23 *628:27 0.0010231
24 *628:16 0.000440266
25 *628:14 0.000607008
26 *628:12 0.000756141
27 *628:10 0.000139226
28 *3939:CLK *879:8 1.05235e-05
29 *3939:CLK *879:25 7.73301e-05
30 *4021:CLK *885:62 9.67756e-05
31 *4045:CLK *629:8 0
32 *4045:CLK *1040:8 0
33 *628:10 *683:12 0
34 *628:10 *911:10 0.000194327
35 *628:10 *1030:8 0
36 *628:10 *1030:12 5.50106e-05
37 *628:42 *754:10 0
38 *628:42 *879:25 0.000192849
39 *628:61 *887:82 0.00010018
40 *628:61 *887:90 0
41 *628:91 *3845:B1 5.3304e-05
42 *628:91 *659:47 0.000182873
43 *628:91 *659:58 3.47781e-05
44 *628:91 *899:82 0.000168754
45 *628:93 *659:16 3.09949e-05
46 *628:93 *659:47 9.26098e-05
47 *628:93 *899:82 0.000194318
48 *628:97 *659:16 1.02561e-05
49 *628:97 *911:10 0
50 *628:105 *658:114 0.000108681
51 *628:105 *911:10 0
52 *628:105 *997:27 0
53 *628:105 *1096:8 0
54 *628:105 *1096:29 3.1725e-05
55 *628:127 *885:62 3.71251e-05
56 *628:127 *899:82 5.50106e-05
57 *3939:RESET_B *3939:CLK 0.000181125
58 *3940:D *628:27 5.41385e-05
59 *4037:D *4037:CLK 7.20638e-05
60 *4039:D *4021:CLK 2.93845e-05
61 *4039:D *628:105 0
62 *150:10 *628:61 5.61414e-05
63 *151:10 *628:61 0
64 *199:8 *3939:CLK 4.59027e-05
65 *215:8 *628:42 0
66 *256:8 *628:93 5.62433e-06
67 *256:8 *628:97 4.83941e-05
68 *256:8 *628:105 1.19692e-05
69 *256:8 *628:127 1.02561e-05
70 *262:8 *628:91 1.4471e-05
71 *360:82 *628:105 1.37349e-05
*RES
1 *4100:X *628:10 41.2314 
2 *628:10 *628:12 15 
3 *628:12 *628:14 6.815 
4 *628:14 *628:16 3.48 
5 *628:16 *3940:CLK 23 
6 *628:16 *628:27 18.3764 
7 *628:27 *3939:CLK 43.8621 
8 *628:27 *628:42 10.7093 
9 *628:42 *628:46 19.9093 
10 *628:46 *4044:CLK 23 
11 *628:46 *628:53 13.485 
12 *628:53 *628:61 34.06 
13 *628:61 *4036:CLK 23 
14 *628:53 *4035:CLK 23 
15 *628:42 *4045:CLK 43.4271 
16 *628:14 *3915:CLK 23 
17 *628:12 *628:91 22.395 
18 *628:91 *628:93 2.78607 
19 *628:93 *628:97 3.05536 
20 *628:97 *628:105 27.0143 
21 *628:105 *3930:CLK 23 
22 *628:97 *4037:CLK 44.7114 
23 *628:93 *628:127 16.4189 
24 *628:127 *4039:CLK 23 
25 *628:127 *4021:CLK 33.15 
26 *628:91 *4043:CLK 38 
*END

*D_NET *629 0.00071272
*CONN
*I *4071:A I *D sky130_fd_sc_hd__ebufn_2
*I *4072:LO O *D sky130_fd_sc_hd__conb_1
*CAP
1 *4071:A 2.99646e-05
2 *4072:LO 0.000296229
3 *629:8 0.000326193
4 *629:8 *670:10 0
5 *629:8 *1040:8 0
6 *4045:CLK *629:8 0
7 *4071:TE_B *4071:A 1.94693e-05
8 *50:8 *629:8 0
9 *115:8 *629:8 4.08641e-05
*RES
1 *4072:LO *629:8 43.075 
2 *629:8 *4071:A 38.6214 
*END

*D_NET *630 0.000576444
*CONN
*I *3640:A1 I *D sky130_fd_sc_hd__mux2_1
*I *4333:X O *D sky130_fd_sc_hd__clkdlybuf4s25_1
*CAP
1 *3640:A1 3.68553e-05
2 *4333:X 9.43956e-05
3 *630:8 0.000131251
4 *3640:A1 *3640:A0 5.3304e-05
5 *630:8 *909:48 5.94125e-05
6 *630:8 *909:63 0.000141888
7 *630:8 *916:77 5.93381e-05
*RES
1 *4333:X *630:8 40.61 
2 *630:8 *3640:A1 38.6214 
*END

*D_NET *631 0.00522247
*CONN
*I *3406:A2 I *D sky130_fd_sc_hd__a21o_2
*I *3410:A2 I *D sky130_fd_sc_hd__a2111o_2
*I *3407:A I *D sky130_fd_sc_hd__nand2_2
*I *3405:B I *D sky130_fd_sc_hd__xor2_2
*I *4334:X O *D sky130_fd_sc_hd__clkdlybuf4s25_1
*CAP
1 *3406:A2 0.000250152
2 *3410:A2 8.12831e-06
3 *3407:A 0.000120074
4 *3405:B 0.00025748
5 *4334:X 0.000317173
6 *631:27 0.000538191
7 *631:12 0.00100897
8 *631:10 0.000908824
9 *3405:B *3405:A 0
10 *3406:A2 *3406:B1 5.50049e-05
11 *3406:A2 *3414:A 5.50049e-05
12 *3407:A *3407:B 3.52815e-05
13 *3410:A2 *3407:B 2.28308e-05
14 *631:10 *664:10 5.50049e-05
15 *631:12 *3410:D1 0.000404066
16 *631:12 *664:10 0.000166513
17 *631:27 *3407:B 0.000100066
18 *631:27 *3410:A1 3.22343e-05
19 *631:27 *906:12 0.000181125
20 *3408:B1 *631:12 0.000271392
21 *3991:CLK *631:10 1.39317e-05
22 *13:19 *3410:A2 0
23 *13:19 *631:27 0.000115847
24 *17:13 *631:10 3.22879e-05
25 *162:16 *3405:B 3.31683e-05
26 *162:16 *631:12 1.7387e-05
27 *164:10 *3405:B 0
28 *412:8 *3406:A2 0
29 *412:8 *631:12 0
30 *412:22 *631:12 0.000159831
31 *413:10 *3407:A 9.8971e-06
32 *414:23 *3406:A2 0
33 *624:91 *3405:B 5.26101e-05
*RES
1 *4334:X *631:10 43.4064 
2 *631:10 *631:12 8.59643 
3 *631:12 *3405:B 20.075 
4 *631:12 *631:27 21.5043 
5 *631:27 *3407:A 25.0714 
6 *631:27 *3410:A2 23.4971 
7 *631:10 *3406:A2 42.2879 
*END

*D_NET *632 0.0148372
*CONN
*I *4170:A I *D sky130_fd_sc_hd__clkdlybuf4s25_1
*I *4171:A I *D sky130_fd_sc_hd__clkdlybuf4s25_1
*I *3909:RESET_B I *D sky130_fd_sc_hd__dfrtp_2
*I *4172:A I *D sky130_fd_sc_hd__clkdlybuf4s25_1
*I *3908:RESET_B I *D sky130_fd_sc_hd__dfrtp_2
*I *4113:X O *D sky130_fd_sc_hd__clkdlybuf4s25_1
*CAP
1 *4170:A 0
2 *4171:A 0
3 *3909:RESET_B 0.000294166
4 *4172:A 0.000392053
5 *3908:RESET_B 6.84591e-05
6 *4113:X 0
7 *632:65 0.000557343
8 *632:32 0.000962883
9 *632:22 0.00125163
10 *632:12 0.00232693
11 *632:10 0.00245243
12 *632:6 0.000616897
13 *632:4 0.000593652
14 *3909:RESET_B *973:66 0
15 *632:6 *909:25 2.64616e-05
16 *632:10 *909:25 0.000676866
17 *632:12 *3620:B1 0.000175438
18 *632:12 *3631:S 1.83667e-05
19 *632:12 *3759:A1 0
20 *632:12 *742:10 0.000171796
21 *632:12 *774:10 0
22 *632:12 *775:8 0
23 *632:12 *954:10 9.03237e-05
24 *632:12 *955:21 1.26815e-05
25 *632:12 *962:10 0
26 *632:12 *962:16 0
27 *632:12 *967:37 2.64506e-05
28 *632:12 *970:23 0
29 *632:32 *971:59 0
30 *632:65 *854:26 0
31 *632:65 *855:10 0
32 *632:65 *909:25 4.67488e-05
33 *632:65 *987:10 3.39231e-05
34 *3696:A2 *632:12 0.000143166
35 *3704:B2 *632:65 0.000246748
36 *3715:A1 *632:32 3.53115e-05
37 *3715:A2 *632:32 0.000441076
38 *3717:A2 *3909:RESET_B 2.35393e-05
39 *3720:B *632:12 0
40 *3899:CLK *632:12 0.00024189
41 *309:10 *632:12 3.31149e-05
42 *315:10 *4172:A 5.47808e-05
43 *316:8 *632:22 0.000215791
44 *317:10 *632:22 1.94418e-05
45 *318:10 *3909:RESET_B 8.47413e-05
46 *352:10 *632:12 0
47 *434:43 *632:12 0.000425504
48 *441:16 *632:65 8.14166e-05
49 *449:20 *632:65 8.95443e-05
50 *535:10 *632:12 4.66036e-05
51 *564:14 *632:12 0
52 *569:8 *632:65 0.000141879
53 *579:10 *3909:RESET_B 0
54 *580:10 *3909:RESET_B 1.22803e-05
55 *580:10 *632:22 0.00018372
56 *582:23 *3909:RESET_B 0.000138921
57 *582:23 *632:22 9.38027e-05
58 *582:29 *632:22 7.55595e-05
59 *583:53 *632:32 1.14452e-05
60 *585:14 *4172:A 3.22879e-05
61 *585:14 *632:32 2.95125e-05
62 *586:10 *632:22 0.000295106
63 *587:8 *632:12 3.56537e-05
64 *587:8 *632:22 6.11183e-05
65 *588:16 *632:22 0
66 *589:8 *632:22 0.000114083
67 *590:8 *3909:RESET_B 0.000140958
68 *591:10 *3909:RESET_B 4.60263e-05
69 *604:48 *632:12 0
70 *619:22 *632:12 0
71 *619:22 *632:22 0
72 *620:58 *632:12 1.01436e-05
73 *620:79 *632:12 0.000212734
74 *620:90 *632:12 0.000223805
*RES
1 *4113:X *632:4 23 
2 *632:4 *632:6 0.621429 
3 *632:6 *632:10 28.485 
4 *632:10 *632:12 39.2329 
5 *632:12 *3908:RESET_B 16.0254 
6 *632:12 *632:22 11.0614 
7 *632:22 *632:32 38.8657 
8 *632:32 *4172:A 45.2914 
9 *632:22 *3909:RESET_B 22.25 
10 *632:6 *4171:A 23 
11 *632:4 *632:65 42.5114 
12 *632:65 *4170:A 23 
*END

*D_NET *633 0.00359394
*CONN
*I *3962:RESET_B I *D sky130_fd_sc_hd__dfrtp_2
*I *4376:A I *D sky130_fd_sc_hd__clkbuf_4
*I *3867:RESET_B I *D sky130_fd_sc_hd__dfrtp_2
*I *4114:X O *D sky130_fd_sc_hd__clkdlybuf4s25_1
*CAP
1 *3962:RESET_B 0.000175448
2 *4376:A 6.12022e-05
3 *3867:RESET_B 0.000507101
4 *4114:X 0.00058041
5 *633:10 0.000973265
6 *3867:RESET_B *981:10 0.000116314
7 *3867:RESET_B *981:23 0.000481112
8 *3962:RESET_B *671:10 0
9 *3962:RESET_B *981:10 0
10 *4376:A *638:26 3.7122e-06
11 *4376:A *646:18 9.41704e-05
12 *4376:A *909:23 6.17437e-06
13 *633:10 *4114:A 7.95762e-05
14 *633:10 *638:26 0.000141891
15 *633:10 *646:8 0
16 *633:10 *981:23 0.000373567
*RES
1 *4114:X *633:10 48.9371 
2 *633:10 *3867:RESET_B 22.8921 
3 *633:10 *4376:A 39.0979 
4 *3867:RESET_B *3962:RESET_B 33.3143 
*END

*D_NET *634 0.015219
*CONN
*I *3897:RESET_B I *D sky130_fd_sc_hd__dfrtp_2
*I *4063:RESET_B I *D sky130_fd_sc_hd__dfrtp_2
*I *3861:RESET_B I *D sky130_fd_sc_hd__dfrtp_2
*I *3952:RESET_B I *D sky130_fd_sc_hd__dfrtp_2
*I *3949:RESET_B I *D sky130_fd_sc_hd__dfrtp_2
*I *3904:RESET_B I *D sky130_fd_sc_hd__dfrtp_2
*I *3866:RESET_B I *D sky130_fd_sc_hd__dfrtp_2
*I *3862:RESET_B I *D sky130_fd_sc_hd__dfrtp_2
*I *4376:X O *D sky130_fd_sc_hd__clkbuf_4
*CAP
1 *3897:RESET_B 0.000118096
2 *4063:RESET_B 0
3 *3861:RESET_B 0.000414148
4 *3952:RESET_B 0.000217005
5 *3949:RESET_B 0.000404829
6 *3904:RESET_B 0.000883782
7 *3866:RESET_B 3.30162e-05
8 *3862:RESET_B 0.00115833
9 *4376:X 0.000181102
10 *634:116 0.000909234
11 *634:110 0.00115397
12 *634:42 0.00164451
13 *634:34 0.000956471
14 *634:24 0.000427844
15 *634:8 0.00106318
16 *3861:RESET_B *987:10 3.5895e-05
17 *3862:RESET_B *3639:A1 0.000185434
18 *3862:RESET_B *3639:S 0
19 *3862:RESET_B *638:10 0.000138708
20 *3862:RESET_B *908:10 0
21 *3862:RESET_B *908:16 0
22 *3862:RESET_B *909:8 0
23 *3862:RESET_B *988:6 0.000137039
24 *3866:RESET_B *924:8 2.57362e-05
25 *3904:RESET_B *924:65 5.3304e-05
26 *3904:RESET_B *1002:45 4.83798e-05
27 *3904:RESET_B *1002:51 0.00012016
28 *3904:RESET_B *1007:10 0
29 *3904:RESET_B *1007:14 0.000128571
30 *3949:RESET_B *646:37 0.000644234
31 *3949:RESET_B *1004:12 0
32 *3952:RESET_B *3445:A 4.16878e-06
33 *3952:RESET_B *1007:10 6.17437e-06
34 *3952:RESET_B *1007:43 4.46006e-05
35 *634:8 *909:23 0.000272383
36 *634:34 *3445:A 3.36703e-05
37 *634:42 *3448:A 2.86967e-05
38 *634:42 *3452:C 2.83509e-05
39 *634:42 *646:37 4.64777e-05
40 *634:42 *924:65 0.00022572
41 *634:42 *981:27 1.51481e-05
42 *634:42 *981:39 9.79925e-05
43 *634:42 *1002:20 4.38703e-05
44 *634:110 *729:10 0
45 *634:110 *951:25 0.000280747
46 *634:116 *3621:B1 6.7177e-06
47 *634:116 *3623:B2 0.000278373
48 *634:116 *4058:RESET_B 0
49 *634:116 *4242:A 9.91701e-05
50 *634:116 *4271:A 0.00014377
51 *634:116 *875:58 0.000147809
52 *634:116 *961:26 0
53 *634:116 *961:40 0
54 *634:116 *968:21 0.000122304
55 *3524:B1 *3949:RESET_B 6.85236e-05
56 *3623:C1 *634:116 0.000141879
57 *3862:CLK *3861:RESET_B 0.000163502
58 *3904:CLK *3904:RESET_B 0.000233211
59 *106:18 *3862:RESET_B 7.85313e-05
60 *106:18 *634:24 3.31053e-05
61 *109:28 *3904:RESET_B 0.000206318
62 *113:23 *3949:RESET_B 0
63 *275:10 *3862:RESET_B 4.39278e-05
64 *361:10 *3952:RESET_B 3.53794e-05
65 *361:10 *634:42 5.82853e-05
66 *431:10 *3949:RESET_B 0.000110222
67 *431:10 *634:42 0.000162424
68 *435:8 *634:42 5.82853e-05
69 *436:10 *3952:RESET_B 0.000111106
70 *538:10 *634:116 8.16356e-05
71 *540:8 *634:116 5.50106e-05
72 *618:57 *3904:RESET_B 0.000485227
73 *618:109 *3862:RESET_B 8.33469e-05
*RES
1 *4376:X *634:8 41.0036 
2 *634:8 *3862:RESET_B 30.6496 
3 *634:8 *634:24 2.61 
4 *634:24 *3866:RESET_B 15.5489 
5 *634:24 *634:34 4.72286 
6 *634:34 *634:42 39.5286 
7 *634:42 *3904:RESET_B 32.5968 
8 *634:42 *3949:RESET_B 24.715 
9 *634:34 *3952:RESET_B 19.4639 
10 *3862:RESET_B *3861:RESET_B 7.47786 
11 *3904:RESET_B *634:110 33.6664 
12 *634:110 *634:116 35.5279 
13 *634:116 *4063:RESET_B 15 
14 *634:110 *3897:RESET_B 1.97821 
*END

*D_NET *635 0.0016559
*CONN
*I *4377:A I *D sky130_fd_sc_hd__buf_2
*I *4060:RESET_B I *D sky130_fd_sc_hd__dfrtp_2
*I *4061:RESET_B I *D sky130_fd_sc_hd__dfrtp_2
*I *4115:X O *D sky130_fd_sc_hd__clkdlybuf4s25_1
*CAP
1 *4377:A 0.000285621
2 *4060:RESET_B 8.22426e-05
3 *4061:RESET_B 0.000178047
4 *4115:X 0
5 *635:6 0.000421364
6 *635:4 0.000446695
7 *4060:RESET_B *755:22 0.000141888
8 *4061:RESET_B *965:8 7.80291e-05
9 *4377:A *936:41 2.20111e-05
10 *348:10 *4060:RESET_B 0
11 *617:54 *4060:RESET_B 0
*RES
1 *4115:X *635:4 23 
2 *635:4 *635:6 2.52714 
3 *635:6 *4061:RESET_B 3.4075 
4 *635:6 *4060:RESET_B 31.9057 
5 *635:4 *4377:A 27.4536 
*END

*D_NET *636 0.010704
*CONN
*I *3775:B1 I *D sky130_fd_sc_hd__o21a_2
*I *3806:B1 I *D sky130_fd_sc_hd__o21a_2
*I *3905:RESET_B I *D sky130_fd_sc_hd__dfrtp_2
*I *3957:SET_B I *D sky130_fd_sc_hd__dfstp_2
*I *3984:RESET_B I *D sky130_fd_sc_hd__dfrtp_2
*I *3981:RESET_B I *D sky130_fd_sc_hd__dfrtp_2
*I *3979:RESET_B I *D sky130_fd_sc_hd__dfrtp_2
*I *3954:RESET_B I *D sky130_fd_sc_hd__dfrtp_2
*I *4377:X O *D sky130_fd_sc_hd__buf_2
*CAP
1 *3775:B1 0.00025673
2 *3806:B1 0
3 *3905:RESET_B 0.000628857
4 *3957:SET_B 0
5 *3984:RESET_B 0.000645203
6 *3981:RESET_B 0
7 *3979:RESET_B 0.000874891
8 *3954:RESET_B 0.000840871
9 *4377:X 0.000472669
10 *636:109 0.000526
11 *636:74 0.000858432
12 *636:64 0.000694582
13 *636:57 0.000237647
14 *636:14 0.000587222
15 *3775:B1 *3806:A1 0.000218476
16 *3775:B1 *880:21 0.000334975
17 *3775:B1 *894:22 0.000559452
18 *3905:RESET_B *3402:B 0
19 *3905:RESET_B *646:53 0.000234388
20 *3905:RESET_B *907:36 0.000161725
21 *3905:RESET_B *936:12 0.000102093
22 *3905:RESET_B *936:21 0.000267991
23 *3979:RESET_B *907:36 0.000211671
24 *636:14 *638:76 0
25 *636:14 *936:29 0
26 *636:14 *936:41 9.84851e-05
27 *636:14 *1009:8 0.000140958
28 *636:57 *907:36 0.00010981
29 *636:64 *907:36 4.58924e-05
30 *636:74 *907:36 0.000144475
31 *636:109 *3470:B1 1.12487e-05
32 *636:109 *3806:A1 9.77405e-05
33 *636:109 *738:8 1.01436e-05
34 *636:109 *894:22 2.65505e-05
35 *636:109 *894:32 6.16531e-05
36 *636:109 *933:12 0.000100559
37 *636:109 *936:29 0
38 *3954:CLK *3979:RESET_B 0.000113897
39 *3979:CLK *3979:RESET_B 6.17437e-06
40 *3982:D *3905:RESET_B 5.3304e-05
41 *73:14 *636:14 0.000238194
42 *75:10 *3905:RESET_B 7.75329e-06
43 *75:10 *636:74 4.59027e-05
44 *88:10 *3979:RESET_B 0
45 *109:14 *636:14 0.000178377
46 *353:10 *3905:RESET_B 0
47 *353:10 *636:57 0
48 *353:10 *636:64 0
49 *353:10 *636:74 0
50 *604:101 *636:14 3.31127e-05
51 *604:101 *636:109 0.000248752
52 *617:32 *3979:RESET_B 9.18447e-05
53 *617:36 *3979:RESET_B 4.21594e-06
54 *621:29 *3984:RESET_B 0.00012103
*RES
1 *4377:X *636:14 49.165 
2 *636:14 *3954:RESET_B 17.1439 
3 *3954:RESET_B *3979:RESET_B 43.2571 
4 *3979:RESET_B *636:57 19.0186 
5 *636:57 *3981:RESET_B 15 
6 *636:57 *636:64 1.90571 
7 *636:64 *3984:RESET_B 21.2661 
8 *636:64 *636:74 5.77929 
9 *636:74 *3957:SET_B 15 
10 *636:74 *3905:RESET_B 31.6646 
11 *3984:RESET_B *636:109 37.1568 
12 *636:109 *3806:B1 23 
13 *636:109 *3775:B1 31.41 
*END

*D_NET *637 0.00524972
*CONN
*I *3958:RESET_B I *D sky130_fd_sc_hd__dfrtp_2
*I *3955:SET_B I *D sky130_fd_sc_hd__dfstp_2
*I *3974:RESET_B I *D sky130_fd_sc_hd__dfrtp_2
*I *3956:RESET_B I *D sky130_fd_sc_hd__dfrtp_2
*I *3983:RESET_B I *D sky130_fd_sc_hd__dfrtp_2
*I *4116:X O *D sky130_fd_sc_hd__clkdlybuf4s25_1
*CAP
1 *3958:RESET_B 0.000376773
2 *3955:SET_B 0.000458445
3 *3974:RESET_B 0
4 *3956:RESET_B 0
5 *3983:RESET_B 0.000228858
6 *4116:X 0.000499767
7 *637:12 0.000482645
8 *637:10 0.000351411
9 *637:6 0.000679062
10 *3958:RESET_B *3470:B1 0.000370859
11 *3958:RESET_B *4323:A 1.01436e-05
12 *3958:RESET_B *646:43 0.000492086
13 *3958:RESET_B *938:12 9.282e-05
14 *3983:RESET_B *646:43 0
15 *3983:RESET_B *749:12 0
16 *3983:RESET_B *905:16 9.28842e-05
17 *3983:RESET_B *905:20 1.19087e-05
18 *637:6 *3468:A2 3.52821e-05
19 *637:6 *960:27 5.14746e-06
20 *637:10 *646:43 0
21 *637:10 *905:16 0
22 *637:12 *646:43 0
23 *637:12 *905:16 0.000206779
24 *3451:A1 *637:6 0.000137658
25 *73:27 *3958:RESET_B 0.000283088
26 *77:8 *3958:RESET_B 0.000141888
27 *362:25 *637:6 6.28997e-05
28 *604:101 *3958:RESET_B 0.000155805
29 *621:91 *3958:RESET_B 7.35087e-05
*RES
1 *4116:X *637:6 29.3386 
2 *637:6 *637:10 16.5536 
3 *637:10 *637:12 5.77929 
4 *637:12 *3983:RESET_B 19.5675 
5 *637:12 *3956:RESET_B 15 
6 *637:10 *3974:RESET_B 15 
7 *637:6 *3955:SET_B 1.5225 
8 *3955:SET_B *3958:RESET_B 43.0604 
*END

*D_NET *638 0.0105411
*CONN
*I *4115:A I *D sky130_fd_sc_hd__clkdlybuf4s25_1
*I *4116:A I *D sky130_fd_sc_hd__clkdlybuf4s25_1
*I *3972:RESET_B I *D sky130_fd_sc_hd__dfrtp_2
*I *4114:A I *D sky130_fd_sc_hd__clkdlybuf4s25_1
*I *3977:RESET_B I *D sky130_fd_sc_hd__dfrtp_2
*I *4117:X O *D sky130_fd_sc_hd__clkdlybuf4s25_1
*CAP
1 *4115:A 0
2 *4116:A 0
3 *3972:RESET_B 0.00093843
4 *4114:A 6.16632e-05
5 *3977:RESET_B 0
6 *4117:X 0.000731179
7 *638:76 0.000194176
8 *638:59 0.000500961
9 *638:37 0.00187822
10 *638:26 0.000993027
11 *638:10 0.000432821
12 *3972:RESET_B *936:41 0.000168821
13 *3972:RESET_B *949:14 0.000138444
14 *3972:RESET_B *949:25 2.18409e-05
15 *638:10 *646:18 0.000523705
16 *638:26 *646:18 2.47815e-05
17 *638:26 *981:23 1.70419e-05
18 *638:37 *3462:A1 3.56537e-05
19 *638:37 *905:140 0.000196178
20 *638:37 *981:23 2.35536e-05
21 *638:37 *1002:16 0
22 *638:37 *1008:16 0.000169674
23 *638:59 *3451:A2 0.000367038
24 *638:59 *766:14 1.01436e-05
25 *638:59 *905:140 0.00022294
26 *638:59 *978:18 1.59094e-05
27 *638:59 *1008:10 0.000269411
28 *638:59 *1008:16 0.000668213
29 *638:76 *905:28 0
30 *638:76 *936:29 9.26098e-05
31 *3451:A1 *638:59 5.3304e-05
32 *3862:RESET_B *638:10 0.000138708
33 *4376:A *638:26 3.7122e-06
34 *78:14 *638:59 0.000415415
35 *80:8 *638:37 0.000558249
36 *81:8 *638:37 0
37 *106:18 *638:10 0.000140949
38 *109:14 *638:76 0
39 *114:10 *638:76 0
40 *364:45 *3972:RESET_B 2.65879e-05
41 *426:67 *638:37 9.75984e-05
42 *603:27 *638:76 0.000104935
43 *604:68 *638:76 8.37266e-05
44 *633:10 *4114:A 7.95762e-05
45 *633:10 *638:26 0.000141891
46 *636:14 *638:76 0
*RES
1 *4117:X *638:10 45.7679 
2 *638:10 *3977:RESET_B 15 
3 *4117:X *638:26 43.8207 
4 *638:26 *4114:A 39.5743 
5 *638:26 *638:37 16.6957 
6 *638:37 *3972:RESET_B 28.2675 
7 *638:37 *638:59 33.0214 
8 *638:59 *4116:A 23 
9 *3972:RESET_B *638:76 34.8161 
10 *638:76 *4115:A 23 
*END

*D_NET *639 0.00351982
*CONN
*I *4053:RESET_B I *D sky130_fd_sc_hd__dfrtp_2
*I *4378:A I *D sky130_fd_sc_hd__clkbuf_4
*I *4118:X O *D sky130_fd_sc_hd__clkdlybuf4s25_1
*CAP
1 *4053:RESET_B 0.000280879
2 *4378:A 8.62031e-05
3 *4118:X 0.000616703
4 *639:8 0.000983785
5 *4053:RESET_B *3677:B 4.43717e-05
6 *4378:A *3677:B 4.60263e-05
7 *4378:A *939:30 8.98289e-05
8 *639:8 *641:22 0.000566295
9 *639:8 *889:57 0.000170365
10 *3359:A *4053:RESET_B 1.05658e-05
11 *11:10 *4053:RESET_B 0
12 *51:12 *4053:RESET_B 0.000134792
13 *293:10 *4053:RESET_B 0
14 *359:31 *4378:A 1.94812e-05
15 *557:8 *4053:RESET_B 5.24393e-05
16 *557:8 *4378:A 0.000168744
17 *622:17 *4053:RESET_B 0.000249337
*RES
1 *4118:X *639:8 47.6736 
2 *639:8 *4378:A 40.8793 
3 *639:8 *4053:RESET_B 22.1879 
*END

*D_NET *640 0.00975392
*CONN
*I *3873:RESET_B I *D sky130_fd_sc_hd__dfrtp_2
*I *3875:RESET_B I *D sky130_fd_sc_hd__dfrtp_2
*I *4050:RESET_B I *D sky130_fd_sc_hd__dfrtp_2
*I *3871:RESET_B I *D sky130_fd_sc_hd__dfrtp_2
*I *4049:RESET_B I *D sky130_fd_sc_hd__dfrtp_2
*I *4051:RESET_B I *D sky130_fd_sc_hd__dfrtp_2
*I *4056:RESET_B I *D sky130_fd_sc_hd__dfrtp_2
*I *4054:RESET_B I *D sky130_fd_sc_hd__dfrtp_2
*I *3869:RESET_B I *D sky130_fd_sc_hd__dfrtp_2
*I *4378:X O *D sky130_fd_sc_hd__clkbuf_4
*CAP
1 *3873:RESET_B 0.000201181
2 *3875:RESET_B 0
3 *4050:RESET_B 0.000177134
4 *3871:RESET_B 0.000422949
5 *4049:RESET_B 0.000183197
6 *4051:RESET_B 7.098e-05
7 *4056:RESET_B 0.000410628
8 *4054:RESET_B 0
9 *3869:RESET_B 0.000481769
10 *4378:X 6.32741e-05
11 *640:105 0.000277288
12 *640:35 0.0006473
13 *640:28 0.000885746
14 *640:14 0.001455
15 *640:8 0.00102363
16 *3869:RESET_B *926:8 3.77997e-05
17 *3871:RESET_B *928:8 1.46286e-05
18 *3873:RESET_B *870:16 0
19 *3873:RESET_B *909:72 9.53554e-05
20 *3873:RESET_B *932:8 0
21 *4049:RESET_B *703:8 0
22 *4049:RESET_B *939:30 3.93338e-05
23 *4049:RESET_B *947:8 0
24 *4050:RESET_B *3752:A0 1.01436e-05
25 *4050:RESET_B *889:140 4.85126e-05
26 *4050:RESET_B *907:136 0.000114092
27 *4050:RESET_B *934:51 1.2704e-05
28 *640:8 *3745:A0 5.3304e-05
29 *640:8 *939:30 9.67842e-05
30 *640:14 *789:8 0.000136486
31 *640:14 *907:26 0.000313249
32 *640:14 *926:8 2.9938e-05
33 *640:14 *939:30 1.12487e-05
34 *640:28 *739:18 0
35 *640:28 *771:25 0.00026959
36 *640:35 *771:14 0.000136761
37 *640:35 *771:25 0.000248076
38 *640:35 *907:121 4.38014e-05
39 *640:105 *870:16 0
40 *640:105 *909:72 7.28526e-05
41 *3869:CLK *3871:RESET_B 6.7911e-05
42 *3891:D *640:14 1.64354e-05
43 *4051:CLK *4051:RESET_B 7.51453e-06
44 *4051:CLK *4056:RESET_B 0.000193691
45 *4055:CLK *4050:RESET_B 5.10513e-05
46 *278:10 *3871:RESET_B 5.3304e-05
47 *293:10 *4049:RESET_B 8.06039e-05
48 *299:10 *640:28 0.000165003
49 *314:10 *640:14 2.93845e-05
50 *339:10 *4056:RESET_B 0
51 *359:31 *640:8 0.000181131
52 *359:57 *640:28 0
53 *606:56 *640:28 0
54 *606:56 *640:35 0
55 *623:25 *3871:RESET_B 0.000189972
56 *623:101 *640:28 8.15955e-05
57 *623:107 *640:14 0.000314606
58 *623:107 *640:28 0.000182158
59 *624:16 *4056:RESET_B 5.48193e-05
*RES
1 *4378:X *640:8 40.0507 
2 *640:8 *640:14 30.7429 
3 *640:14 *3869:RESET_B 2.45464 
4 *640:14 *640:28 27.18 
5 *640:28 *4054:RESET_B 15 
6 *640:28 *640:35 7.18786 
7 *640:35 *4056:RESET_B 19.9921 
8 *640:35 *4051:RESET_B 16.0461 
9 *640:8 *4049:RESET_B 18.3143 
10 *3869:RESET_B *3871:RESET_B 36.8875 
11 *4056:RESET_B *4050:RESET_B 33.625 
12 *3871:RESET_B *640:105 16.9057 
13 *640:105 *3875:RESET_B 15 
14 *640:105 *3873:RESET_B 19.8368 
*END

*D_NET *641 0.0195324
*CONN
*I *3797:B1 I *D sky130_fd_sc_hd__o21a_2
*I *3802:B1 I *D sky130_fd_sc_hd__o21a_2
*I *3801:B1 I *D sky130_fd_sc_hd__o21a_2
*I *3800:B1 I *D sky130_fd_sc_hd__o21a_2
*I *3799:B1 I *D sky130_fd_sc_hd__o21a_2
*I *3798:B1 I *D sky130_fd_sc_hd__o21a_2
*I *3795:B1 I *D sky130_fd_sc_hd__o21a_2
*I *3796:B1 I *D sky130_fd_sc_hd__o21a_2
*I *4055:RESET_B I *D sky130_fd_sc_hd__dfrtp_2
*I *4118:A I *D sky130_fd_sc_hd__clkdlybuf4s25_1
*I *4119:X O *D sky130_fd_sc_hd__clkdlybuf4s25_1
*CAP
1 *3797:B1 0
2 *3802:B1 0.000300895
3 *3801:B1 3.68347e-05
4 *3800:B1 4.13569e-05
5 *3799:B1 0
6 *3798:B1 0.000126834
7 *3795:B1 0.000241662
8 *3796:B1 5.89666e-05
9 *4055:RESET_B 0
10 *4118:A 0
11 *4119:X 0.000613828
12 *641:139 0.000560239
13 *641:124 0.000374726
14 *641:120 0.000567003
15 *641:107 0.000327693
16 *641:99 0.00107211
17 *641:84 0.000818215
18 *641:58 0.000828983
19 *641:54 0.00130735
20 *641:37 0.00195466
21 *641:22 0.000706634
22 *641:10 0.00209302
23 *3795:B1 *3507:B 4.65192e-05
24 *3795:B1 *3795:A2 1.3523e-05
25 *3795:B1 *876:30 1.68976e-05
26 *3796:B1 *3507:B 2.18409e-05
27 *3796:B1 *3795:A2 1.24376e-05
28 *3796:B1 *876:30 8.77456e-05
29 *3796:B1 *890:37 4.2573e-05
30 *3798:B1 *3798:A2 0.00014196
31 *3801:B1 *890:113 6.17437e-06
32 *3801:B1 *1059:10 1.83408e-05
33 *3802:B1 *3802:A1 0
34 *3802:B1 *773:8 0.000365846
35 *3802:B1 *890:128 0
36 *641:10 *646:57 0.00010655
37 *641:10 *646:61 0
38 *641:10 *907:18 0.000127272
39 *641:10 *907:26 0.000165583
40 *641:10 *971:59 0
41 *641:22 *643:67 0
42 *641:22 *889:57 0.000522815
43 *641:22 *889:66 3.86893e-05
44 *641:22 *947:28 0.000303782
45 *641:37 *3751:A1 0.000246748
46 *641:37 *646:61 0
47 *641:37 *785:8 0
48 *641:37 *786:8 0
49 *641:37 *790:8 3.46181e-05
50 *641:37 *864:21 5.61414e-05
51 *641:37 *889:81 0.000564245
52 *641:37 *889:91 8.58486e-05
53 *641:37 *907:18 0.000132117
54 *641:37 *907:102 7.90568e-05
55 *641:37 *934:28 0
56 *641:54 *3364:B 3.70094e-05
57 *641:54 *3364:C 2.64616e-05
58 *641:54 *3667:B 0.000387142
59 *641:54 *3751:A1 0.000123326
60 *641:54 *785:8 0
61 *641:54 *946:21 6.79006e-05
62 *641:54 *1041:10 0
63 *641:58 *3797:A2 7.74361e-05
64 *641:84 *3797:A2 2.29977e-05
65 *641:84 *890:29 0.000119983
66 *641:84 *890:37 2.21614e-05
67 *641:84 *890:60 0.000158092
68 *641:99 *876:78 0.000263936
69 *641:99 *876:87 3.43144e-05
70 *641:99 *890:60 1.6891e-05
71 *641:99 *890:79 0.00015713
72 *641:99 *1057:10 0.000275472
73 *641:107 *876:78 0.000121053
74 *641:107 *890:79 0.000100703
75 *641:107 *890:92 1.12508e-05
76 *641:107 *906:48 0
77 *641:107 *1057:10 5.50049e-05
78 *641:120 *876:78 0.000109532
79 *641:120 *876:87 0
80 *641:120 *890:92 0.000154574
81 *641:124 *890:92 9.19153e-05
82 *641:139 *3800:A2 4.00724e-05
83 *641:139 *773:8 0.000166513
84 *641:139 *876:100 0
85 *641:139 *890:113 0.000222046
86 *641:139 *890:128 0
87 *3995:CLK *3800:B1 5.56279e-05
88 *116:10 *641:37 0
89 *166:8 *641:107 0
90 *210:10 *641:107 0.000109343
91 *211:10 *3800:B1 6.17437e-06
92 *211:10 *641:124 0.000112446
93 *213:8 *3802:B1 0.000199701
94 *300:10 *641:10 8.26569e-05
95 *343:10 *641:37 6.79006e-05
96 *359:125 *641:10 0
97 *391:10 *641:54 5.61255e-06
98 *406:10 *641:54 5.61311e-05
99 *416:14 *641:120 1.05658e-05
100 *552:12 *641:54 5.50106e-05
101 *622:42 *641:37 0
102 *622:78 *641:22 1.86973e-05
103 *623:115 *641:10 0
104 *624:120 *641:84 0
105 *624:120 *641:99 0
106 *625:8 *641:107 1.98684e-05
107 *625:21 *641:107 3.51526e-05
108 *639:8 *641:22 0.000566295
*RES
1 *4119:X *641:10 49.7036 
2 *641:10 *641:22 44.9764 
3 *641:22 *4118:A 38 
4 *641:10 *641:37 19.8443 
5 *641:37 *4055:RESET_B 15 
6 *641:37 *641:54 36.9986 
7 *641:54 *641:58 17.61 
8 *641:58 *3796:B1 39.595 
9 *641:58 *3795:B1 41.1693 
10 *641:58 *641:84 8.94857 
11 *641:84 *3798:B1 40.5271 
12 *641:84 *641:99 23.4307 
13 *641:99 *641:107 36.1936 
14 *641:107 *3799:B1 23 
15 *641:99 *641:120 37.3536 
16 *641:120 *641:124 18.1382 
17 *641:124 *3800:B1 38.9425 
18 *641:124 *641:139 4.7125 
19 *641:139 *3801:B1 38.6214 
20 *641:139 *3802:B1 45.3536 
21 *641:54 *3797:B1 23 
*END

*D_NET *642 0.00319845
*CONN
*I *3406:B1 I *D sky130_fd_sc_hd__a21o_2
*I *3410:B1 I *D sky130_fd_sc_hd__a2111o_2
*I *3407:B I *D sky130_fd_sc_hd__nand2_2
*I *4335:X O *D sky130_fd_sc_hd__clkdlybuf4s25_1
*CAP
1 *3406:B1 0.000306225
2 *3410:B1 0
3 *3407:B 9.27868e-05
4 *4335:X 7.71406e-05
5 *642:14 0.00052608
6 *642:6 0.000816659
7 *3406:B1 *3414:A 8.41336e-05
8 *3406:B1 *684:12 8.08139e-06
9 *3406:B1 *906:48 9.84851e-05
10 *3407:B *3410:A1 6.87338e-05
11 *642:6 *684:12 3.70071e-06
12 *642:14 *3410:A1 4.6318e-06
13 *642:14 *865:23 6.65664e-05
14 *3406:A2 *3406:B1 5.50049e-05
15 *3407:A *3407:B 3.52815e-05
16 *3410:A2 *3407:B 2.28308e-05
17 *13:19 *642:14 1.32966e-05
18 *15:13 *642:14 0
19 *16:11 *642:14 0.000290503
20 *17:13 *642:14 0
21 *18:15 *3406:B1 0
22 *18:15 *642:6 5.67058e-05
23 *162:16 *642:14 0
24 *413:10 *3407:B 5.25848e-05
25 *414:10 *642:14 0.000165644
26 *414:23 *642:14 0.000201351
27 *414:29 *3406:B1 5.19598e-05
28 *631:27 *3407:B 0.000100066
*RES
1 *4335:X *642:6 24.0979 
2 *642:6 *642:14 41.3307 
3 *642:14 *3407:B 26.19 
4 *642:14 *3410:B1 23 
5 *642:6 *3406:B1 29.0486 
*END

*D_NET *643 0.0155888
*CONN
*I *3848:B1 I *D sky130_fd_sc_hd__o21a_2
*I *3790:B1 I *D sky130_fd_sc_hd__o21a_2
*I *3764:B1 I *D sky130_fd_sc_hd__o21a_2
*I *3765:B1 I *D sky130_fd_sc_hd__o21a_2
*I *3850:B1 I *D sky130_fd_sc_hd__o21a_2
*I *3849:B1 I *D sky130_fd_sc_hd__o21a_2
*I *4052:RESET_B I *D sky130_fd_sc_hd__dfrtp_2
*I *3982:SET_B I *D sky130_fd_sc_hd__dfstp_2
*I *3782:B1 I *D sky130_fd_sc_hd__o21a_2
*I *3883:SET_B I *D sky130_fd_sc_hd__dfstp_2
*I *4120:X O *D sky130_fd_sc_hd__clkdlybuf4s25_1
*CAP
1 *3848:B1 0
2 *3790:B1 4.06965e-05
3 *3764:B1 0
4 *3765:B1 0.000413511
5 *3850:B1 0.000351285
6 *3849:B1 0
7 *4052:RESET_B 2.81941e-05
8 *3982:SET_B 0.000120533
9 *3782:B1 0
10 *3883:SET_B 0.000754736
11 *4120:X 0.000104611
12 *643:119 0.00141886
13 *643:107 0.00146787
14 *643:98 0.000285137
15 *643:89 0.000752448
16 *643:76 0.000807382
17 *643:67 0.00106776
18 *643:58 0.000988492
19 *643:43 0.000669461
20 *643:26 0.000338449
21 *643:6 0.000853996
22 *3765:B1 *3765:A2 0.0002263
23 *3765:B1 *4138:A 9.87414e-05
24 *3765:B1 *877:83 4.5051e-05
25 *3790:B1 *3790:A1 4.00259e-06
26 *3790:B1 *3791:A2 0
27 *3790:B1 *878:43 9.63634e-05
28 *3850:B1 *3850:A2 5.67058e-05
29 *3850:B1 *667:10 7.91871e-05
30 *3883:SET_B *3824:A1 5.3304e-05
31 *3883:SET_B *3824:B1 8.25906e-05
32 *3982:SET_B *3402:B 5.21024e-05
33 *3982:SET_B *907:32 0
34 *643:6 *3824:B1 0.000288696
35 *643:6 *4120:A 0.000127821
36 *643:6 *781:10 0.000246903
37 *643:6 *911:48 3.5842e-05
38 *643:26 *3824:B1 8.86348e-05
39 *643:26 *4122:A 1.62615e-05
40 *643:26 *687:8 0.000188916
41 *643:26 *880:57 0.000118889
42 *643:26 *911:62 0.000183183
43 *643:26 *1091:10 0.000349386
44 *643:58 *3402:B 0.000111341
45 *643:58 *907:32 0
46 *643:67 *3402:B 4.5882e-05
47 *643:67 *3748:S 0
48 *643:67 *3846:A2 0
49 *643:67 *663:12 0
50 *643:67 *878:109 4.83778e-05
51 *643:67 *907:32 0
52 *643:76 *3846:A2 0
53 *643:76 *878:109 4.21594e-06
54 *643:76 *892:68 0
55 *643:89 *3789:A2 0
56 *643:89 *892:68 0
57 *643:98 *4138:A 9.69397e-05
58 *643:98 *878:64 7.1349e-05
59 *643:98 *878:76 0.000180812
60 *643:98 *892:62 9.84794e-05
61 *643:98 *892:66 0.000402806
62 *643:107 *878:62 0.000170208
63 *643:107 *878:64 6.17437e-06
64 *643:107 *892:62 0.000306724
65 *643:119 *713:20 0.000212542
66 *643:119 *878:33 6.29695e-05
67 *643:119 *880:78 2.26406e-05
68 *643:119 *894:111 0
69 *643:119 *911:89 2.46922e-05
70 *643:119 *1030:28 2.24973e-05
71 *3430:B2 *3883:SET_B 2.02517e-05
72 *3430:B2 *643:6 8.11972e-05
73 *3883:CLK *643:43 3.7122e-06
74 *3883:D *643:43 2.30292e-05
75 *3942:SET_B *643:119 0.000118487
76 *4236:A *643:26 0.000139346
77 *193:10 *643:26 8.47345e-05
78 *260:8 *643:76 9.88575e-05
79 *292:8 *643:67 0
80 *354:22 *3883:SET_B 0.000144713
81 *354:22 *643:43 3.1483e-05
82 *602:18 *643:67 0
83 *603:105 *3790:B1 5.20223e-05
84 *606:12 *643:67 0
85 *606:12 *643:76 0
86 *606:12 *643:89 0
87 *622:78 *643:67 0
88 *641:22 *643:67 0
*RES
1 *4120:X *643:6 28.3857 
2 *643:6 *3883:SET_B 7.59179 
3 *643:6 *643:26 40.585 
4 *643:26 *3782:B1 23 
5 *3883:SET_B *643:43 19.5261 
6 *643:43 *3982:SET_B 17.175 
7 *643:43 *643:58 4.785 
8 *643:58 *4052:RESET_B 15.6214 
9 *643:58 *643:67 13.8786 
10 *643:67 *3849:B1 38 
11 *643:67 *643:76 6.13143 
12 *643:76 *3850:B1 44.3386 
13 *643:76 *643:89 17.61 
14 *643:89 *3765:B1 31.2443 
15 *643:89 *643:98 7.76786 
16 *643:98 *3764:B1 23 
17 *643:98 *643:107 3.97714 
18 *643:107 *643:119 36.2153 
19 *643:119 *3790:B1 39.5536 
20 *643:107 *3848:B1 23 
*END

*D_NET *644 0.0159718
*CONN
*I *3772:B1 I *D sky130_fd_sc_hd__o21a_2
*I *3771:B1 I *D sky130_fd_sc_hd__o21a_2
*I *3770:B1 I *D sky130_fd_sc_hd__o21a_2
*I *3769:B1 I *D sky130_fd_sc_hd__o21a_2
*I *3768:B1 I *D sky130_fd_sc_hd__o21a_2
*I *3805:B1 I *D sky130_fd_sc_hd__o21a_2
*I *3774:B1 I *D sky130_fd_sc_hd__o21a_2
*I *3766:B1 I *D sky130_fd_sc_hd__o21a_2
*I *3767:B1 I *D sky130_fd_sc_hd__o21a_2
*I *3789:B1 I *D sky130_fd_sc_hd__o21a_2
*I *4121:X O *D sky130_fd_sc_hd__clkdlybuf4s25_1
*CAP
1 *3772:B1 0.000924112
2 *3771:B1 0
3 *3770:B1 0.00033596
4 *3769:B1 0
5 *3768:B1 8.10734e-05
6 *3805:B1 0
7 *3774:B1 4.30583e-05
8 *3766:B1 0
9 *3767:B1 0
10 *3789:B1 0
11 *4121:X 0.000234047
12 *644:120 0.000678769
13 *644:103 0.00134216
14 *644:89 0.000134052
15 *644:83 0.000751328
16 *644:77 0.0017214
17 *644:66 0.000736662
18 *644:55 0.00096114
19 *644:39 0.000595264
20 *644:27 0.00106724
21 *644:14 0.000711622
22 *644:10 0.00108147
23 *3768:B1 *3768:A1 2.4754e-05
24 *3768:B1 *3768:A2 0.000228001
25 *3768:B1 *3769:A2 4.2573e-05
26 *3768:B1 *891:72 9.84794e-05
27 *3770:B1 *877:65 0.000400198
28 *3770:B1 *891:72 2.4754e-05
29 *3772:B1 *893:80 0.000153155
30 *3772:B1 *1048:10 7.50607e-05
31 *3774:B1 *3363:A1 9.84851e-05
32 *644:10 *878:76 0
33 *644:10 *911:89 0
34 *644:14 *878:76 9.84794e-05
35 *644:27 *878:76 7.38076e-05
36 *644:27 *891:34 4.6323e-05
37 *644:27 *1041:10 9.84851e-05
38 *644:39 *3766:A2 8.9783e-05
39 *644:39 *715:10 0.000235641
40 *644:39 *877:14 0.000141879
41 *644:39 *891:34 4.18957e-05
42 *644:39 *1041:21 4.58924e-05
43 *644:55 *4137:A 0
44 *644:55 *645:101 0
45 *644:55 *877:48 0
46 *644:55 *891:49 0
47 *644:55 *911:89 0
48 *644:55 *1051:30 5.44006e-05
49 *644:66 *3805:A1 0
50 *644:66 *877:48 0
51 *644:66 *893:46 0
52 *644:77 *3805:A1 0
53 *644:77 *877:48 0
54 *644:77 *1047:76 6.4393e-05
55 *644:77 *1048:69 4.18957e-05
56 *644:83 *3320:A 7.91871e-05
57 *644:83 *877:48 6.33614e-05
58 *644:83 *891:62 3.884e-05
59 *644:83 *1048:35 2.81406e-06
60 *644:89 *3768:A2 4.34745e-05
61 *644:89 *3769:A2 5.67058e-05
62 *644:103 *877:48 1.83564e-05
63 *644:103 *877:65 0.000562276
64 *644:103 *891:62 6.7177e-06
65 *644:103 *1049:27 0
66 *644:120 *877:65 2.46345e-05
67 *3363:A3 *644:55 0
68 *3375:B1 *644:103 0
69 *3924:RESET_B *3772:B1 5.97603e-05
70 *4078:A *644:10 5.45025e-05
71 *95:10 *644:14 0.000103637
72 *95:10 *644:55 0
73 *182:10 *644:120 2.93747e-05
74 *185:10 *3774:B1 1.59094e-05
75 *185:10 *644:55 0.00019746
76 *216:10 *644:77 0.000114083
77 *333:8 *644:77 0
78 *334:8 *644:103 8.85189e-05
79 *394:12 *3768:B1 7.39261e-05
80 *394:66 *644:120 0.00021143
81 *396:10 *644:77 0.000111852
82 *396:96 *644:77 5.09499e-05
83 *396:96 *644:103 0
84 *398:8 *644:77 0.000140949
85 *400:10 *644:103 0
86 *400:10 *644:120 0
87 *424:10 *644:55 0
88 *603:105 *644:10 9.21169e-06
89 *626:64 *3772:B1 7.88828e-05
90 *626:64 *644:77 0
91 *626:70 *3772:B1 6.82611e-05
92 *626:70 *644:77 6.25829e-05
93 *626:70 *644:83 2.64616e-05
*RES
1 *4121:X *644:10 41.8321 
2 *644:10 *644:14 20.3857 
3 *644:14 *3789:B1 23 
4 *644:14 *644:27 24.0936 
5 *644:27 *644:39 40.0671 
6 *644:39 *3767:B1 38 
7 *644:27 *3766:B1 38 
8 *644:10 *644:55 11.4136 
9 *644:55 *3774:B1 39.0979 
10 *644:55 *644:66 5.77929 
11 *644:66 *3805:B1 38 
12 *644:66 *644:77 24.3007 
13 *644:77 *644:83 20.3857 
14 *644:83 *644:89 16.2429 
15 *644:89 *3768:B1 26.48 
16 *644:89 *3769:B1 23 
17 *644:83 *644:103 8.24429 
18 *644:103 *3770:B1 44.8357 
19 *644:103 *644:120 28.4643 
20 *644:120 *3771:B1 23 
21 *644:77 *3772:B1 38.1007 
*END

*D_NET *645 0.0199286
*CONN
*I *3791:B1 I *D sky130_fd_sc_hd__o21a_2
*I *3773:B1 I *D sky130_fd_sc_hd__o21a_2
*I *3794:B1 I *D sky130_fd_sc_hd__o21a_2
*I *3786:B1 I *D sky130_fd_sc_hd__o21a_2
*I *4121:A I *D sky130_fd_sc_hd__clkdlybuf4s25_1
*I *3792:B1 I *D sky130_fd_sc_hd__o21a_2
*I *3846:B1 I *D sky130_fd_sc_hd__o21a_2
*I *4120:A I *D sky130_fd_sc_hd__clkdlybuf4s25_1
*I *3824:B1 I *D sky130_fd_sc_hd__o21a_2
*I *4122:X O *D sky130_fd_sc_hd__clkdlybuf4s25_1
*CAP
1 *3791:B1 0
2 *3773:B1 0.000341439
3 *3794:B1 0
4 *3786:B1 3.26732e-05
5 *4121:A 2.70778e-05
6 *3792:B1 0
7 *3846:B1 0.000359687
8 *4120:A 0.000190074
9 *3824:B1 0.000385681
10 *4122:X 0
11 *645:148 0.000355363
12 *645:122 0.000251509
13 *645:114 0.00122633
14 *645:101 0.00136635
15 *645:78 0.00125964
16 *645:70 0.00110493
17 *645:59 0.000612196
18 *645:42 0.00100431
19 *645:10 0.000804227
20 *645:6 0.00047819
21 *3773:B1 *3373:B1 5.61414e-05
22 *3773:B1 *3768:A1 2.32101e-05
23 *3773:B1 *3768:A2 9.5877e-05
24 *3773:B1 *1047:68 0.000348465
25 *3786:B1 *878:124 1.83444e-05
26 *3786:B1 *1030:71 2.35625e-05
27 *3824:B1 *3824:A1 5.3304e-05
28 *3824:B1 *3824:A2 5.3304e-05
29 *3846:B1 *3428:B1 0.000460899
30 *4120:A *781:10 0.000223722
31 *4120:A *1093:18 0.00010018
32 *645:10 *686:10 0.00046279
33 *645:10 *911:62 0
34 *645:42 *686:10 8.85189e-05
35 *645:42 *687:8 0
36 *645:42 *753:12 3.64353e-05
37 *645:42 *763:12 0.000160182
38 *645:42 *894:68 3.31683e-05
39 *645:42 *911:62 0
40 *645:59 *3428:B1 6.53382e-05
41 *645:59 *753:12 0.000604861
42 *645:59 *993:38 0
43 *645:70 *753:12 0.000448193
44 *645:78 *878:53 0.000305431
45 *645:78 *911:89 0
46 *645:78 *993:46 7.24591e-05
47 *645:78 *993:58 1.01436e-05
48 *645:78 *1030:42 0.000186195
49 *645:101 *826:10 0.000166522
50 *645:101 *878:124 3.06353e-05
51 *645:101 *892:117 9.5877e-05
52 *645:101 *911:89 0.000154072
53 *645:101 *993:58 0.000150613
54 *645:101 *1030:71 0.000243237
55 *645:101 *1065:39 6.4393e-05
56 *645:114 *3373:B1 2.01531e-05
57 *645:114 *993:58 0
58 *645:114 *1051:20 0.000216533
59 *645:122 *4291:A 2.96051e-05
60 *645:148 *3439:B 0.000221992
61 *645:148 *878:33 7.75329e-06
62 *645:148 *892:31 0.00052419
63 *645:148 *1030:42 1.41129e-05
64 *645:148 *1035:12 0.000348911
65 *3363:A3 *645:101 1.83667e-05
66 *3527:C1 *645:101 4.96264e-05
67 *3528:B1 *645:114 8.93766e-05
68 *3883:SET_B *3824:B1 8.25906e-05
69 *3941:CLK *645:101 8.68903e-05
70 *3996:CLK *645:122 0.000398503
71 *4193:A *3846:B1 5.50049e-05
72 *4193:A *645:59 8.34394e-05
73 *89:12 *645:59 0.000407227
74 *89:12 *645:70 0.00046356
75 *98:10 *3824:B1 5.50049e-05
76 *98:10 *4120:A 9.5877e-05
77 *100:10 *3846:B1 4.05745e-05
78 *118:8 *645:114 0
79 *202:10 *645:148 0.000108681
80 *257:10 *3846:B1 2.93747e-05
81 *354:10 *4121:A 2.64616e-05
82 *354:10 *645:78 0.000110379
83 *354:22 *3824:B1 1.3523e-05
84 *360:14 *3846:B1 0.000120857
85 *360:14 *645:59 0.000116564
86 *360:22 *3846:B1 0.000128401
87 *360:22 *645:42 0
88 *367:20 *3786:B1 2.91168e-05
89 *367:20 *645:101 0.000232085
90 *394:98 *3773:B1 0.000447868
91 *603:105 *4121:A 2.93335e-05
92 *626:10 *645:114 0
93 *626:21 *645:114 0
94 *626:23 *645:101 8.57661e-05
95 *626:56 *3773:B1 0
96 *643:6 *3824:B1 0.000288696
97 *643:6 *4120:A 0.000127821
98 *643:26 *3824:B1 8.86348e-05
99 *644:55 *645:101 0
*RES
1 *4122:X *645:6 38 
2 *645:6 *645:10 21.1314 
3 *645:10 *3824:B1 31.4721 
4 *645:10 *4120:A 28.9036 
5 *645:6 *645:42 20.075 
6 *645:42 *3846:B1 32.1971 
7 *645:42 *645:59 26.5379 
8 *645:59 *3792:B1 38 
9 *645:59 *645:70 21.4836 
10 *645:70 *645:78 25.1707 
11 *645:78 *4121:A 38.6214 
12 *645:78 *645:101 32.6071 
13 *645:101 *3786:B1 24.4707 
14 *645:101 *645:114 26.4136 
15 *645:114 *645:122 35.2821 
16 *645:122 *3794:B1 38 
17 *645:114 *3773:B1 46.99 
18 *645:70 *645:148 39.0729 
19 *645:148 *3791:B1 23 
*END

*D_NET *646 0.0340922
*CONN
*I *4117:A I *D sky130_fd_sc_hd__clkdlybuf4s25_1
*I *4122:A I *D sky130_fd_sc_hd__clkdlybuf4s25_1
*I *4119:A I *D sky130_fd_sc_hd__clkdlybuf4s25_1
*I *3803:B1 I *D sky130_fd_sc_hd__o21a_2
*I *4113:A I *D sky130_fd_sc_hd__clkdlybuf4s25_1
*I *4123:X O *D sky130_fd_sc_hd__clkdlybuf4s25_1
*CAP
1 *4117:A 0
2 *4122:A 0.000273302
3 *4119:A 0
4 *3803:B1 0.000132756
5 *4113:A 0.000345621
6 *4123:X 0.000139418
7 *646:63 0.00162837
8 *646:61 0.00283988
9 *646:57 0.00150039
10 *646:53 0.00226633
11 *646:43 0.00386652
12 *646:37 0.0024259
13 *646:18 0.00197465
14 *646:12 0.000706563
15 *646:8 0.000159828
16 *4113:A *3474:A 0.000226295
17 *4113:A *4295:A 0.000438468
18 *4113:A *909:25 0.00116712
19 *4113:A *987:23 4.95081e-05
20 *4113:A *987:32 6.09117e-05
21 *4122:A *4016:D 9.5877e-05
22 *4122:A *880:38 0.000136486
23 *4122:A *880:57 0.000208809
24 *4122:A *894:51 0.00025114
25 *4122:A *1038:10 9.5877e-05
26 *646:8 *989:20 0
27 *646:18 *3970:D 0
28 *646:18 *908:10 0.000223698
29 *646:18 *909:23 0.000193703
30 *646:18 *909:25 0.000190082
31 *646:37 *924:65 0.000160125
32 *646:43 *4323:A 0.000126548
33 *646:43 *749:12 0
34 *646:43 *880:38 0.000594962
35 *646:43 *894:32 0
36 *646:43 *939:60 0.000508907
37 *646:43 *960:12 0
38 *646:43 *966:10 0.000167443
39 *646:53 *3661:B1_N 4.68155e-05
40 *646:53 *3998:D 0.000179473
41 *646:53 *911:72 0.000103637
42 *646:53 *936:12 1.98635e-05
43 *646:53 *936:21 4.97099e-05
44 *646:61 *3707:B 0
45 *646:61 *3712:A 6.63698e-05
46 *646:61 *4300:A 7.38195e-05
47 *646:61 *786:8 5.86432e-05
48 *646:61 *889:91 0
49 *646:61 *907:136 0
50 *646:61 *934:51 0
51 *646:61 *940:28 8.20948e-05
52 *646:61 *941:10 0.000171906
53 *646:63 *3364:B 0
54 *646:63 *3508:A 0
55 *646:63 *3510:B2 0
56 *646:63 *3667:B 0
57 *646:63 *876:26 0.000118174
58 *646:63 *876:48 0
59 *646:63 *876:55 0.000617876
60 *646:63 *876:70 0.000346225
61 *646:63 *889:140 0
62 *646:63 *934:51 0
63 *646:63 *940:28 0.000397404
64 *646:63 *946:21 0
65 *646:63 *1057:10 0.000219882
66 *3512:A1 *646:63 7.48331e-05
67 *3513:A1 *646:63 0.000171906
68 *3905:RESET_B *646:53 0.000234388
69 *3949:RESET_B *646:37 0.000644234
70 *3958:RESET_B *646:43 0.000492086
71 *3972:CLK *646:43 0
72 *3982:D *646:53 2.64616e-05
73 *3983:RESET_B *646:43 0
74 *4376:A *646:18 9.41704e-05
75 *73:27 *646:43 0.00083615
76 *113:23 *646:37 0
77 *113:23 *646:43 0
78 *193:10 *4122:A 0.000163352
79 *214:10 *3803:B1 2.64616e-05
80 *214:10 *646:63 9.63815e-05
81 *275:10 *646:37 0.000190198
82 *300:10 *646:61 0
83 *337:10 *646:61 0.000174417
84 *342:10 *646:61 0.000350425
85 *362:25 *646:43 0
86 *370:14 *646:43 0
87 *387:14 *3803:B1 9.84794e-05
88 *387:14 *646:63 6.22705e-05
89 *387:35 *646:63 0.000125424
90 *439:10 *4113:A 2.64616e-05
91 *445:10 *4113:A 2.18409e-05
92 *467:10 *646:63 0.000189806
93 *549:8 *646:53 0.000264564
94 *551:8 *646:61 7.98155e-05
95 *556:8 *646:61 0
96 *578:10 *646:61 0
97 *579:8 *646:57 7.42621e-05
98 *604:76 *646:37 0.00111905
99 *604:76 *646:43 1.40281e-05
100 *604:89 *646:37 6.48224e-06
101 *604:89 *646:43 0.000279094
102 *618:20 *646:37 0
103 *621:103 *646:43 0.000435022
104 *621:118 *4122:A 0.00028049
105 *621:118 *646:43 6.16439e-05
106 *622:42 *646:61 0.000433525
107 *623:107 *646:61 0
108 *623:115 *646:53 2.4754e-05
109 *623:115 *646:57 0.000359332
110 *623:115 *646:61 0.000135262
111 *633:10 *646:8 0
112 *634:42 *646:37 4.64777e-05
113 *637:10 *646:43 0
114 *637:12 *646:43 0
115 *638:10 *646:18 0.000523705
116 *638:26 *646:18 2.47815e-05
117 *641:10 *646:57 0.00010655
118 *641:10 *646:61 0
119 *641:37 *646:61 0
120 *643:26 *4122:A 1.62615e-05
*RES
1 *4123:X *646:8 40.2579 
2 *646:8 *646:12 15.6214 
3 *646:12 *646:18 17.2136 
4 *646:18 *4113:A 36.5057 
5 *646:18 *646:37 37.6096 
6 *646:37 *646:43 40.1754 
7 *646:43 *646:53 44.87 
8 *646:53 *646:57 20.3857 
9 *646:57 *646:61 31.8275 
10 *646:61 *646:63 36.3432 
11 *646:63 *3803:B1 40.5271 
12 *646:53 *4119:A 23 
13 *646:43 *4122:A 47.1143 
14 *646:12 *4117:A 23 
*END

*D_NET *647 0.00843934
*CONN
*I *3878:RESET_B I *D sky130_fd_sc_hd__dfrtp_2
*I *3877:RESET_B I *D sky130_fd_sc_hd__dfrtp_2
*I *4379:A I *D sky130_fd_sc_hd__clkbuf_2
*I *3882:RESET_B I *D sky130_fd_sc_hd__dfrtp_2
*I *3881:RESET_B I *D sky130_fd_sc_hd__dfrtp_2
*I *4124:X O *D sky130_fd_sc_hd__clkdlybuf4s25_1
*CAP
1 *3878:RESET_B 9.35627e-05
2 *3877:RESET_B 0.000361748
3 *4379:A 0
4 *3882:RESET_B 0.00029333
5 *3881:RESET_B 0.000143218
6 *4124:X 0.000885688
7 *647:44 0.000909341
8 *647:28 0.00103972
9 *647:12 0.000923675
10 *3877:RESET_B *1018:8 0.000137651
11 *3877:RESET_B *1019:10 0.000222293
12 *3878:RESET_B *758:12 0.00013681
13 *3878:RESET_B *861:8 0.000275565
14 *3881:RESET_B *728:14 2.2154e-05
15 *3881:RESET_B *858:8 2.2477e-05
16 *3882:RESET_B *1019:10 4.83893e-05
17 *647:12 *861:18 0.0016426
18 *647:28 *858:8 2.43917e-05
19 *647:44 *745:8 0
20 *647:44 *770:10 8.36198e-05
21 *647:44 *858:8 8.93697e-05
22 *647:44 *920:10 0.000105343
23 *647:44 *1013:29 5.5792e-05
24 *647:44 *1015:8 3.8493e-05
25 *647:44 *1015:20 0.000121766
26 *647:44 *1019:26 6.93553e-05
27 *647:44 *1022:12 0.000163353
28 *409:20 *647:28 3.61511e-05
29 *410:12 *647:28 2.79355e-05
30 *410:12 *647:44 0.000185589
31 *605:64 *647:44 0.00013645
32 *613:45 *647:12 2.33476e-05
33 *614:29 *3877:RESET_B 0.000120167
*RES
1 *4124:X *647:12 49.3824 
2 *647:12 *3881:RESET_B 23.6732 
3 *3881:RESET_B *647:28 16.9057 
4 *647:28 *3882:RESET_B 15.5489 
5 *647:28 *647:44 34.72 
6 *647:44 *4379:A 23 
7 *3882:RESET_B *3877:RESET_B 6.19357 
8 *3877:RESET_B *3878:RESET_B 33.6664 
*END

*D_NET *648 0.00434793
*CONN
*I *3961:RESET_B I *D sky130_fd_sc_hd__dfrtp_2
*I *3895:RESET_B I *D sky130_fd_sc_hd__dfrtp_2
*I *3894:RESET_B I *D sky130_fd_sc_hd__dfrtp_2
*I *3879:RESET_B I *D sky130_fd_sc_hd__dfrtp_2
*I *3880:RESET_B I *D sky130_fd_sc_hd__dfrtp_2
*I *3959:RESET_B I *D sky130_fd_sc_hd__dfrtp_2
*I *4379:X O *D sky130_fd_sc_hd__clkbuf_2
*CAP
1 *3961:RESET_B 0.000138344
2 *3895:RESET_B 4.08008e-05
3 *3894:RESET_B 6.06365e-05
4 *3879:RESET_B 0
5 *3880:RESET_B 0.000211171
6 *3959:RESET_B 0.000554399
7 *4379:X 0
8 *648:45 0.000284412
9 *648:35 0.000320351
10 *648:16 0.000448543
11 *648:4 0.000637324
12 *3880:RESET_B *992:10 0.000215382
13 *3894:RESET_B *4189:A 7.88828e-05
14 *3894:RESET_B *682:8 9.45324e-06
15 *3894:RESET_B *998:12 5.41385e-05
16 *3959:RESET_B *1021:10 0.000130725
17 *3961:RESET_B *4183:A 0.000144168
18 *648:16 *992:10 0.000187595
19 *648:35 *3655:B 0.000140117
20 *648:35 *998:12 0
21 *648:45 *3655:B 5.21127e-05
22 *648:45 *4183:A 1.22803e-05
23 *55:18 *3880:RESET_B 0.000215382
24 *55:18 *648:16 7.97499e-05
25 *107:6 *3894:RESET_B 0.000265762
26 *410:12 *648:16 6.62046e-05
*RES
1 *4379:X *648:4 23 
2 *648:4 *3959:RESET_B 6.26607 
3 *648:4 *648:16 21.0486 
4 *648:16 *3880:RESET_B 21.1314 
5 *648:16 *3879:RESET_B 15 
6 *3959:RESET_B *648:35 18.6664 
7 *648:35 *3894:RESET_B 17.9311 
8 *648:35 *648:45 1.90571 
9 *648:45 *3895:RESET_B 15.5489 
10 *648:45 *3961:RESET_B 18.6664 
*END

*D_NET *649 0.00362899
*CONN
*I *3970:RESET_B I *D sky130_fd_sc_hd__dfrtp_2
*I *3978:RESET_B I *D sky130_fd_sc_hd__dfrtp_2
*I *3965:RESET_B I *D sky130_fd_sc_hd__dfrtp_2
*I *3960:RESET_B I *D sky130_fd_sc_hd__dfrtp_2
*I *4380:A I *D sky130_fd_sc_hd__clkbuf_2
*I *3971:RESET_B I *D sky130_fd_sc_hd__dfrtp_2
*I *4125:X O *D sky130_fd_sc_hd__clkdlybuf4s25_1
*CAP
1 *3970:RESET_B 9.82614e-05
2 *3978:RESET_B 5.24044e-05
3 *3965:RESET_B 0.000329752
4 *3960:RESET_B 3.85184e-05
5 *4380:A 0.000205378
6 *3971:RESET_B 0.000147113
7 *4125:X 0.00018464
8 *649:48 0.000382157
9 *649:46 0.000251709
10 *649:36 0.000339079
11 *649:10 0.000390018
12 *3965:RESET_B *872:6 0.000111842
13 *3965:RESET_B *989:8 5.41288e-05
14 *3970:RESET_B *691:14 3.96156e-05
15 *3970:RESET_B *922:14 0
16 *3970:RESET_B *1020:8 0
17 *3978:RESET_B *872:6 2.27585e-05
18 *4380:A *669:8 4.87216e-05
19 *4380:A *872:14 0.000228909
20 *4380:A *872:22 0
21 *4380:A *990:10 3.5717e-05
22 *649:10 *669:8 6.07611e-06
23 *649:10 *695:10 0
24 *649:10 *872:22 0
25 *649:10 *990:10 2.22183e-05
26 *649:36 *695:10 0
27 *649:36 *990:8 7.80291e-05
28 *649:36 *1015:20 0.000164569
29 *649:46 *691:14 2.22079e-05
30 *649:46 *695:10 0
31 *649:46 *981:65 0
32 *649:46 *1015:20 0.000196353
33 *649:46 *1020:8 0
34 *615:41 *649:36 0.000178818
*RES
1 *4125:X *649:10 41.2314 
2 *649:10 *3971:RESET_B 15 
3 *649:10 *4380:A 42.4329 
4 *3971:RESET_B *649:36 19.2361 
5 *649:36 *3960:RESET_B 15.5489 
6 *649:36 *649:46 3.66643 
7 *649:46 *649:48 15 
8 *649:48 *3965:RESET_B 5.78964 
9 *649:48 *3978:RESET_B 1.02536 
10 *649:46 *3970:RESET_B 16.9057 
*END

*D_NET *650 0.00607588
*CONN
*I *3892:RESET_B I *D sky130_fd_sc_hd__dfrtp_2
*I *3947:RESET_B I *D sky130_fd_sc_hd__dfrtp_2
*I *3946:RESET_B I *D sky130_fd_sc_hd__dfrtp_2
*I *3963:RESET_B I *D sky130_fd_sc_hd__dfrtp_2
*I *3966:RESET_B I *D sky130_fd_sc_hd__dfrtp_2
*I *4380:X O *D sky130_fd_sc_hd__clkbuf_2
*CAP
1 *3892:RESET_B 0.00028463
2 *3947:RESET_B 0.000132918
3 *3946:RESET_B 0.001014
4 *3963:RESET_B 0
5 *3966:RESET_B 0
6 *4380:X 0.000461291
7 *650:41 0.000417547
8 *650:17 0.00111401
9 *650:10 0.0005613
10 *3892:RESET_B *3744:B1 0
11 *3892:RESET_B *949:25 6.26422e-05
12 *3946:RESET_B *3685:B2 4.2062e-05
13 *3946:RESET_B *676:24 5.3304e-05
14 *3946:RESET_B *838:12 0
15 *3946:RESET_B *981:84 0.000560905
16 *3946:RESET_B *1001:8 5.26733e-06
17 *3947:RESET_B *1002:8 0.000137039
18 *650:10 *872:14 4.30604e-05
19 *650:10 *990:10 0
20 *650:17 *990:10 0
21 *3892:CLK *3892:RESET_B 0.000341474
22 *287:8 *650:10 0
23 *303:8 *3946:RESET_B 5.21024e-05
24 *426:10 *3947:RESET_B 0.000102783
25 *546:10 *3946:RESET_B 1.97402e-05
26 *546:10 *650:10 0.000157355
27 *546:10 *650:17 7.81829e-05
28 *614:37 *650:10 0.000164369
29 *615:97 *3892:RESET_B 6.48049e-05
30 *615:97 *3947:RESET_B 0.000138727
31 *615:127 *3946:RESET_B 6.63801e-05
*RES
1 *4380:X *650:10 47.3421 
2 *650:10 *3966:RESET_B 15 
3 *650:10 *650:17 2.25786 
4 *650:17 *3963:RESET_B 15 
5 *650:17 *3946:RESET_B 33.0939 
6 *3946:RESET_B *650:41 15 
7 *650:41 *3947:RESET_B 18.8839 
8 *650:41 *3892:RESET_B 21.8046 
*END

*D_NET *651 0.0135014
*CONN
*I *3914:RESET_B I *D sky130_fd_sc_hd__dfrtp_2
*I *3953:RESET_B I *D sky130_fd_sc_hd__dfrtp_2
*I *3980:RESET_B I *D sky130_fd_sc_hd__dfrtp_2
*I *3827:B1 I *D sky130_fd_sc_hd__o21a_2
*I *3896:RESET_B I *D sky130_fd_sc_hd__dfrtp_2
*I *3828:B1 I *D sky130_fd_sc_hd__o21a_2
*I *3781:B1 I *D sky130_fd_sc_hd__o21a_2
*I *3823:B1 I *D sky130_fd_sc_hd__o21a_2
*I *3825:B1 I *D sky130_fd_sc_hd__o21a_2
*I *3950:RESET_B I *D sky130_fd_sc_hd__dfrtp_2
*I *4126:X O *D sky130_fd_sc_hd__clkdlybuf4s25_1
*CAP
1 *3914:RESET_B 0.00014699
2 *3953:RESET_B 0.000450675
3 *3980:RESET_B 0.000201789
4 *3827:B1 0
5 *3896:RESET_B 0.000491016
6 *3828:B1 0.000108785
7 *3781:B1 0.000529596
8 *3823:B1 0.000425498
9 *3825:B1 0
10 *3950:RESET_B 0.00057019
11 *4126:X 8.45584e-05
12 *651:75 0.000766316
13 *651:69 0.000597431
14 *651:36 0.000955094
15 *651:34 0.000385155
16 *651:27 0.00027637
17 *651:25 0.000308178
18 *651:8 0.000538898
19 *3781:B1 *888:43 0
20 *3781:B1 *898:78 0.000174417
21 *3781:B1 *898:126 0
22 *3781:B1 *980:12 0
23 *3781:B1 *1070:10 0
24 *3823:B1 *3823:A2 0
25 *3823:B1 *3951:RESET_B 0.00012309
26 *3823:B1 *765:8 0
27 *3823:B1 *1006:22 0
28 *3828:B1 *4263:A 4.79641e-05
29 *3828:B1 *902:62 0.000294535
30 *3896:RESET_B *3896:D 5.38715e-05
31 *3914:RESET_B *3451:A2 0.000222113
32 *3914:RESET_B *993:89 8.26569e-05
33 *3914:RESET_B *1008:8 3.08719e-06
34 *3914:RESET_B *1008:10 6.25829e-05
35 *3950:RESET_B *752:21 0.000186079
36 *3950:RESET_B *778:8 4.35036e-05
37 *3950:RESET_B *1003:76 1.12487e-05
38 *3950:RESET_B *1005:10 0.000138727
39 *3980:RESET_B *3522:B 0.000277705
40 *3980:RESET_B *898:18 2.34364e-05
41 *651:8 *1003:76 2.38288e-05
42 *651:25 *3825:A2 1.83564e-05
43 *651:34 *3332:A 0.000116864
44 *651:34 *3455:A2 9.90162e-05
45 *651:34 *4263:A 0.000144067
46 *651:34 *902:62 0.00126018
47 *651:34 *1006:14 0.000181131
48 *651:69 *3825:A2 7.30335e-05
49 *651:69 *898:18 3.26321e-05
50 *651:75 *3827:A1 0.000308033
51 *651:75 *3827:A2 2.4754e-05
52 *3896:CLK *3896:RESET_B 9.42474e-05
53 *3896:CLK *651:75 0
54 *3951:CLK *3823:B1 0.00010655
55 *3951:D *3823:B1 6.17437e-06
56 *85:8 *651:25 0
57 *101:12 *3781:B1 0
58 *110:12 *3950:RESET_B 0.000221174
59 *110:12 *3980:RESET_B 0.000399822
60 *110:12 *651:25 0.000373351
61 *110:12 *651:69 0.000227807
62 *111:10 *3950:RESET_B 0
63 *111:10 *651:25 0
64 *143:8 *3980:RESET_B 0.000114092
65 *143:8 *651:69 1.01436e-05
66 *234:10 *3781:B1 0.000117973
67 *234:10 *3823:B1 5.26204e-05
68 *238:10 *3896:RESET_B 5.50106e-05
69 *323:10 *3914:RESET_B 1.94522e-05
70 *365:6 *651:34 1.76557e-05
71 *365:16 *651:34 0.000185145
72 *373:10 *3950:RESET_B 0.000233687
73 *603:13 *3914:RESET_B 0
74 *616:23 *3953:RESET_B 0.000120003
75 *616:29 *3953:RESET_B 0.00010655
76 *617:124 *3896:RESET_B 0.000176484
*RES
1 *4126:X *651:8 39.0979 
2 *651:8 *3950:RESET_B 23.7207 
3 *651:8 *651:25 5.075 
4 *651:25 *651:27 15 
5 *651:27 *3825:B1 23 
6 *651:27 *651:34 13.9614 
7 *651:34 *651:36 15 
8 *651:36 *3823:B1 46.4929 
9 *651:36 *3781:B1 49.0614 
10 *651:34 *3828:B1 26.48 
11 *651:25 *651:69 3.31429 
12 *651:69 *651:75 20.4064 
13 *651:75 *3896:RESET_B 11.2168 
14 *651:75 *3827:B1 23 
15 *651:69 *3980:RESET_B 21.8046 
16 *3950:RESET_B *3953:RESET_B 6.19357 
17 *3953:RESET_B *3914:RESET_B 34.2154 
*END

*D_NET *652 0.00382306
*CONN
*I *3951:RESET_B I *D sky130_fd_sc_hd__dfrtp_2
*I *3945:SET_B I *D sky130_fd_sc_hd__dfstp_2
*I *3976:RESET_B I *D sky130_fd_sc_hd__dfrtp_2
*I *3893:RESET_B I *D sky130_fd_sc_hd__dfrtp_2
*I *3948:RESET_B I *D sky130_fd_sc_hd__dfrtp_2
*I *4127:X O *D sky130_fd_sc_hd__clkdlybuf4s25_1
*CAP
1 *3951:RESET_B 0.00073333
2 *3945:SET_B 0.000801759
3 *3976:RESET_B 6.4405e-05
4 *3893:RESET_B 0.00014967
5 *3948:RESET_B 0.000333431
6 *4127:X 0
7 *652:16 0.000425337
8 *652:14 0.000279691
9 *652:4 0.000333431
10 *3893:RESET_B *994:48 5.93507e-05
11 *3945:SET_B *994:48 3.81391e-05
12 *3948:RESET_B *3681:A 0.000141954
13 *3948:RESET_B *1003:12 4.19048e-05
14 *3951:RESET_B *3823:A2 0
15 *3951:RESET_B *654:78 0
16 *3951:RESET_B *765:8 0
17 *3951:RESET_B *994:48 0
18 *3951:RESET_B *1006:22 0
19 *652:16 *994:48 0.000110542
20 *3823:B1 *3951:RESET_B 0.00012309
21 *3951:D *3951:RESET_B 0.000120167
22 *79:10 *3951:RESET_B 0
23 *302:8 *3893:RESET_B 0
24 *302:8 *652:16 0
25 *558:10 *3945:SET_B 0
26 *558:10 *3951:RESET_B 6.68587e-05
27 *558:10 *652:16 0
*RES
1 *4127:X *652:4 23 
2 *652:4 *3948:RESET_B 6.28679 
3 *652:4 *652:14 15 
4 *652:14 *652:16 4.37071 
5 *652:16 *3893:RESET_B 17.6721 
6 *652:16 *3976:RESET_B 16.0254 
7 *652:14 *3945:SET_B 16.5536 
8 *3945:SET_B *3951:RESET_B 42.6564 
*END

*D_NET *653 0.00186828
*CONN
*I *3411:A1 I *D sky130_fd_sc_hd__o21ai_2
*I *3409:A I *D sky130_fd_sc_hd__xnor2_2
*I *3410:C1 I *D sky130_fd_sc_hd__a2111o_2
*I *4336:X O *D sky130_fd_sc_hd__clkdlybuf4s25_1
*CAP
1 *3411:A1 9.76503e-05
2 *3409:A 3.2572e-05
3 *3410:C1 0.000208375
4 *4336:X 0
5 *653:8 0.000360227
6 *653:4 0.00021693
7 *3410:C1 *3410:A1 2.81138e-05
8 *3410:C1 *3410:D1 0.000416927
9 *653:8 *3410:D1 0.000194327
10 *653:8 *664:10 2.55642e-05
11 *3412:A *3411:A1 6.99589e-05
12 *162:16 *3410:C1 8.80821e-05
13 *413:18 *3409:A 2.93747e-05
14 *414:10 *3410:C1 0.00010018
15 *414:10 *653:8 0
16 *414:23 *653:8 0
*RES
1 *4336:X *653:4 23 
2 *653:4 *653:8 17.9621 
3 *653:8 *3410:C1 43.6136 
4 *653:8 *3409:A 38.6214 
5 *653:4 *3411:A1 24.5743 
*END

*D_NET *654 0.0165335
*CONN
*I *4127:A I *D sky130_fd_sc_hd__clkdlybuf4s25_1
*I *4126:A I *D sky130_fd_sc_hd__clkdlybuf4s25_1
*I *3973:RESET_B I *D sky130_fd_sc_hd__dfrtp_2
*I *4124:A I *D sky130_fd_sc_hd__clkdlybuf4s25_1
*I *4125:A I *D sky130_fd_sc_hd__clkdlybuf4s25_1
*I *4128:X O *D sky130_fd_sc_hd__clkdlybuf4s25_1
*CAP
1 *4127:A 0
2 *4126:A 0.000822716
3 *3973:RESET_B 0.0011532
4 *4124:A 0.000356264
5 *4125:A 0
6 *4128:X 0.000567573
7 *654:78 0.00123594
8 *654:72 0.00115787
9 *654:51 0.000877582
10 *654:22 0.000108413
11 *654:16 0.00255267
12 *654:10 0.00345202
13 *654:8 0.000750048
14 *3973:RESET_B *657:73 0.000121674
15 *3973:RESET_B *919:10 5.41288e-05
16 *4124:A *3863:D 3.22879e-05
17 *4124:A *3863:RESET_B 0.000162586
18 *4126:A *3467:A1 0.00018486
19 *4126:A *736:23 1.46586e-05
20 *654:10 *3876:RESET_B 0
21 *654:10 *3964:RESET_B 0.000230146
22 *654:10 *655:111 0.00019876
23 *654:10 *860:8 0
24 *654:10 *1012:10 0
25 *654:10 *1022:25 0.000155406
26 *654:16 *3964:RESET_B 9.30786e-05
27 *654:16 *860:8 0
28 *654:22 *872:22 1.14452e-05
29 *654:51 *657:73 0.000172582
30 *654:51 *745:8 1.49305e-05
31 *654:51 *1013:29 0.000321832
32 *654:72 *992:10 0.000842453
33 *654:72 *994:48 0
34 *654:72 *1076:43 0
35 *654:78 *810:8 0.000141888
36 *654:78 *994:48 0
37 *654:78 *1000:51 4.58924e-05
38 *3467:B2 *4126:A 0.00014196
39 *3951:RESET_B *654:78 0
40 *3967:CLK *654:51 8.57577e-05
41 *4012:CLK *654:72 2.76611e-06
42 *4012:CLK *654:78 0
43 *4085:A *654:8 0.000145163
44 *4085:A *654:51 6.63159e-06
45 *21:17 *654:10 0
46 *21:17 *654:16 0
47 *21:17 *654:51 4.68274e-05
48 *70:8 *654:22 0
49 *130:10 *654:72 0
50 *131:10 *3973:RESET_B 0.000139352
51 *132:8 *654:72 0
52 *409:20 *4124:A 6.70017e-05
53 *503:18 *654:72 0
54 *503:24 *3973:RESET_B 6.51763e-05
55 *503:24 *654:72 0
56 *505:8 *654:72 0
57 *612:21 *654:78 0
*RES
1 *4128:X *654:8 39.5743 
2 *654:8 *654:10 13.5264 
3 *654:10 *654:16 47.5007 
4 *654:16 *654:22 31.9057 
5 *654:22 *4125:A 23 
6 *654:10 *4124:A 45.7886 
7 *4128:X *654:51 46.8761 
8 *654:51 *3973:RESET_B 24.2593 
9 *3973:RESET_B *654:72 47.4621 
10 *654:72 *654:78 38.5964 
11 *654:78 *4126:A 38.4114 
12 *654:72 *4127:A 23 
*END

*D_NET *655 0.0128881
*CONN
*I *3969:RESET_B I *D sky130_fd_sc_hd__dfrtp_2
*I *3964:RESET_B I *D sky130_fd_sc_hd__dfrtp_2
*I *3817:B1 I *D sky130_fd_sc_hd__o21a_2
*I *3634:C_N I *D sky130_fd_sc_hd__or3b_2
*I *3818:B1 I *D sky130_fd_sc_hd__o21a_2
*I *3816:B1 I *D sky130_fd_sc_hd__o21a_2
*I *3822:B1 I *D sky130_fd_sc_hd__o21a_2
*I *3821:B1 I *D sky130_fd_sc_hd__o21a_2
*I *3967:RESET_B I *D sky130_fd_sc_hd__dfrtp_2
*I *3876:RESET_B I *D sky130_fd_sc_hd__dfrtp_2
*I *4129:X O *D sky130_fd_sc_hd__clkdlybuf4s25_1
*CAP
1 *3969:RESET_B 0
2 *3964:RESET_B 0.000527004
3 *3817:B1 2.95294e-05
4 *3634:C_N 0.00030341
5 *3818:B1 0
6 *3816:B1 0
7 *3822:B1 0
8 *3821:B1 0
9 *3967:RESET_B 0
10 *3876:RESET_B 0.000546036
11 *4129:X 0.000331666
12 *655:111 0.000774736
13 *655:84 0.000755493
14 *655:70 0.000212197
15 *655:57 0.000148572
16 *655:28 0.000527915
17 *655:20 0.000281686
18 *655:18 0.000474014
19 *655:16 0.000518371
20 *655:14 0.000643016
21 *655:6 0.00136443
22 *3634:C_N *3817:A1 4.6318e-06
23 *3634:C_N *4383:A 0
24 *3634:C_N *896:16 1.83667e-05
25 *3634:C_N *910:20 0
26 *3634:C_N *1011:42 0
27 *3817:B1 *896:16 5.50049e-05
28 *3876:RESET_B *657:73 0.000247873
29 *3964:RESET_B *746:10 0
30 *3964:RESET_B *1011:6 7.51256e-05
31 *3964:RESET_B *1011:10 0
32 *655:6 *4129:A 0.000138859
33 *655:6 *1086:8 8.48502e-06
34 *655:14 *1086:8 0.000133327
35 *655:18 *3818:A1 5.58003e-05
36 *655:18 *3818:A2 1.47795e-05
37 *655:18 *3821:A1 0.00048523
38 *655:18 *3821:A2 5.3304e-05
39 *655:20 *3821:A1 5.82853e-05
40 *655:20 *3821:A2 9.84794e-05
41 *655:28 *657:73 0.000150033
42 *655:28 *745:31 0.000276734
43 *655:57 *896:45 3.47781e-05
44 *655:57 *896:56 0.000131744
45 *655:57 *896:73 2.55642e-05
46 *655:70 *3822:A1 8.78582e-06
47 *655:70 *881:23 9.66668e-05
48 *655:70 *881:29 1.41891e-05
49 *655:70 *896:31 2.83509e-05
50 *655:70 *896:39 6.7935e-05
51 *655:84 *3817:A1 7.80354e-05
52 *655:84 *656:47 0.000425808
53 *655:84 *656:54 0.000444374
54 *655:84 *656:69 2.55189e-05
55 *655:84 *828:26 2.05503e-05
56 *655:84 *896:10 0.00012174
57 *655:84 *896:16 0.000376156
58 *655:111 *1012:10 0
59 *3554:A2 *655:70 6.39918e-05
60 *4008:RESET_B *655:14 0.000149137
61 *21:17 *3876:RESET_B 0.000186513
62 *232:8 *655:57 0
63 *272:10 *655:20 6.74232e-05
64 *272:10 *655:28 0.000409468
65 *272:30 *655:70 5.91105e-05
66 *409:12 *3964:RESET_B 0.000132342
67 *409:12 *655:111 3.81391e-05
68 *542:14 *3634:C_N 4.73682e-05
69 *654:10 *3876:RESET_B 0
70 *654:10 *3964:RESET_B 0.000230146
71 *654:10 *655:111 0.00019876
72 *654:16 *3964:RESET_B 9.30786e-05
*RES
1 *4129:X *655:6 28.3857 
2 *655:6 *655:14 11.2893 
3 *655:14 *655:16 0.621429 
4 *655:16 *655:18 6.815 
5 *655:18 *655:20 2.05071 
6 *655:20 *655:28 22.1879 
7 *655:28 *3876:RESET_B 21.8979 
8 *655:28 *3967:RESET_B 15 
9 *655:20 *3821:B1 23 
10 *655:18 *655:57 33.2314 
11 *655:57 *3822:B1 23 
12 *655:16 *655:70 34.06 
13 *655:70 *3816:B1 23 
14 *655:14 *3818:B1 23 
15 *655:6 *655:84 29.2307 
16 *655:84 *3634:C_N 42.8886 
17 *655:84 *3817:B1 38.6214 
18 *3876:RESET_B *655:111 20.7793 
19 *655:111 *3964:RESET_B 26.9211 
20 *655:111 *3969:RESET_B 15 
*END

*D_NET *656 0.0193296
*CONN
*I *3811:B1 I *D sky130_fd_sc_hd__o21a_2
*I *3807:B1 I *D sky130_fd_sc_hd__o21a_2
*I *3810:B1 I *D sky130_fd_sc_hd__o21a_2
*I *3812:B1 I *D sky130_fd_sc_hd__o21a_2
*I *3813:B1 I *D sky130_fd_sc_hd__o21a_2
*I *4129:A I *D sky130_fd_sc_hd__clkdlybuf4s25_1
*I *4046:RESET_B I *D sky130_fd_sc_hd__dfrtp_2
*I *3968:RESET_B I *D sky130_fd_sc_hd__dfrtp_2
*I *4048:RESET_B I *D sky130_fd_sc_hd__dfrtp_2
*I *4047:RESET_B I *D sky130_fd_sc_hd__dfrtp_2
*I *4130:X O *D sky130_fd_sc_hd__clkdlybuf4s25_1
*CAP
1 *3811:B1 0
2 *3807:B1 0.000639064
3 *3810:B1 0.000113262
4 *3812:B1 0
5 *3813:B1 0
6 *4129:A 7.27039e-05
7 *4046:RESET_B 0
8 *3968:RESET_B 0.00026609
9 *4048:RESET_B 0.00027203
10 *4047:RESET_B 0.000424483
11 *4130:X 0.00012697
12 *656:109 0.00247615
13 *656:89 0.001975
14 *656:78 0.000637673
15 *656:69 0.00120295
16 *656:54 0.0010392
17 *656:47 0.000358276
18 *656:10 0.000222191
19 *656:8 0.00012697
20 *3807:B1 *3807:A1 2.93845e-05
21 *3807:B1 *3807:A2 4.37586e-06
22 *3810:B1 *3490:D_N 0.000274543
23 *3968:RESET_B *672:14 0.000423083
24 *3968:RESET_B *863:10 9.35646e-05
25 *3968:RESET_B *1011:10 0
26 *4129:A *1086:8 2.64616e-05
27 *656:8 *751:10 0
28 *656:8 *1117:8 2.34077e-05
29 *656:8 *1118:10 8.57577e-05
30 *656:47 *3817:A1 0.000429579
31 *656:54 *3817:A1 0.000300454
32 *656:54 *881:10 0.00015301
33 *656:69 *3558:B 1.57009e-05
34 *656:69 *3813:A2 6.07611e-06
35 *656:69 *657:19 0
36 *656:69 *657:36 0.000623269
37 *656:69 *657:53 0.000166522
38 *656:69 *881:10 0.000241784
39 *656:69 *881:65 0.000241744
40 *656:69 *881:90 6.61686e-06
41 *656:69 *896:10 0.000287191
42 *656:69 *896:123 0.000676629
43 *656:69 *910:20 0
44 *656:69 *1085:19 2.13834e-05
45 *656:78 *3813:A2 0.000144158
46 *656:78 *897:17 0.000284328
47 *656:78 *897:26 1.47563e-05
48 *656:78 *1084:10 0
49 *656:78 *1084:27 0
50 *656:89 *897:26 0.000185312
51 *656:89 *897:39 1.22803e-05
52 *656:89 *1082:10 0
53 *656:109 *3490:D_N 8.4047e-05
54 *656:109 *3534:A2 1.32314e-05
55 *656:109 *3534:A3 7.67536e-05
56 *656:109 *3534:B1 2.65505e-05
57 *656:109 *3540:A 0.000313249
58 *656:109 *902:46 0.000224665
59 *656:109 *902:86 3.7122e-06
60 *656:109 *904:25 0.000360326
61 *656:109 *1071:38 8.73079e-05
62 *656:109 *1078:14 0.000174974
63 *656:109 *1078:16 9.7072e-05
64 *3487:A2 *656:109 2.32004e-05
65 *3487:B1 *656:109 5.41385e-05
66 *3540:B *656:109 0.000216177
67 *3541:C *656:109 3.53115e-05
68 *4002:D *3807:B1 0.000141954
69 *4009:RESET_B *656:8 0
70 *4048:CLK *4047:RESET_B 0.000140454
71 *4048:CLK *4048:RESET_B 7.51256e-05
72 *4048:CLK *656:47 4.58951e-05
73 *142:12 *3807:B1 0.000146432
74 *221:8 *3810:B1 9.53602e-05
75 *222:10 *656:109 1.86674e-05
76 *223:10 *656:89 3.21327e-05
77 *224:10 *656:78 0.000407199
78 *225:10 *656:69 0
79 *225:10 *656:78 0
80 *451:10 *656:109 0.000111432
81 *479:10 *3810:B1 0
82 *479:21 *656:109 0
83 *485:18 *656:109 0.000135037
84 *493:68 *656:69 0.000215782
85 *495:8 *656:69 0.000141888
86 *613:28 *3968:RESET_B 2.22079e-05
87 *613:35 *3968:RESET_B 5.03619e-05
88 *655:6 *4129:A 0.000138859
89 *655:84 *656:47 0.000425808
90 *655:84 *656:54 0.000444374
91 *655:84 *656:69 2.55189e-05
*RES
1 *4130:X *656:8 40.61 
2 *656:8 *656:10 15 
3 *656:10 *4047:RESET_B 2.93107 
4 *656:10 *4048:RESET_B 1.50179 
5 *4047:RESET_B *3968:RESET_B 36.8046 
6 *4048:RESET_B *656:47 21.8046 
7 *656:47 *4046:RESET_B 15 
8 *656:47 *656:54 6.13143 
9 *656:54 *4129:A 39.5743 
10 *656:54 *656:69 26.6179 
11 *656:69 *3813:B1 38 
12 *656:69 *656:78 11.4136 
13 *656:78 *3812:B1 38 
14 *656:78 *656:89 20.4271 
15 *656:89 *656:109 46.5686 
16 *656:109 *3810:B1 41.6664 
17 *656:109 *3807:B1 47.0936 
18 *656:89 *3811:B1 23 
*END

*D_NET *657 0.0166719
*CONN
*I *3819:B1 I *D sky130_fd_sc_hd__o21a_2
*I *3820:B1 I *D sky130_fd_sc_hd__o21a_2
*I *4128:A I *D sky130_fd_sc_hd__clkdlybuf4s25_1
*I *3814:B1 I *D sky130_fd_sc_hd__o21a_2
*I *3815:B1 I *D sky130_fd_sc_hd__o21a_2
*I *4130:A I *D sky130_fd_sc_hd__clkdlybuf4s25_1
*I *4131:X O *D sky130_fd_sc_hd__clkdlybuf4s25_1
*CAP
1 *3819:B1 0
2 *3820:B1 4.98096e-05
3 *4128:A 0
4 *3814:B1 0
5 *3815:B1 5.72189e-05
6 *4130:A 5.60544e-05
7 *4131:X 0.000266948
8 *657:73 0.000846536
9 *657:67 0.00110094
10 *657:59 0.00089214
11 *657:53 0.0017705
12 *657:36 0.00142349
13 *657:23 0.000403124
14 *657:19 0.00113022
15 *657:6 0.00134823
16 *3815:B1 *3815:A2 2.02872e-05
17 *3820:B1 *3820:A2 3.7122e-06
18 *4130:A *4176:A 3.26241e-05
19 *657:6 *828:26 0.000220592
20 *657:19 *3558:B 9.24595e-05
21 *657:19 *677:10 6.68282e-05
22 *657:19 *881:75 9.168e-05
23 *657:19 *896:10 0.000174324
24 *657:19 *904:105 0
25 *657:19 *1073:8 0
26 *657:19 *1085:19 4.34681e-05
27 *657:19 *1086:21 0
28 *657:19 *1086:36 0
29 *657:19 *1086:74 2.24608e-05
30 *657:19 *1118:10 0
31 *657:36 *3550:B1 0.000278634
32 *657:36 *1085:19 0.000111852
33 *657:53 *3819:A2 0.000781048
34 *657:53 *881:107 0.000471308
35 *657:53 *881:121 0.000143655
36 *657:59 *881:121 5.50106e-05
37 *657:59 *904:57 0.000583108
38 *657:59 *904:63 0.000241346
39 *657:67 *896:73 0.000219084
40 *657:67 *904:63 6.1024e-05
41 *657:73 *3491:D 9.88083e-06
42 *657:73 *3568:B1 7.98809e-05
43 *657:73 *3571:A1 0
44 *657:73 *745:31 0
45 *657:73 *919:10 0
46 *657:73 *1076:10 0
47 *657:73 *1076:31 0.000208081
48 *657:73 *1077:33 0
49 *3549:B1 *657:53 0.000141954
50 *3572:B *657:67 2.4754e-05
51 *3876:RESET_B *657:73 0.000247873
52 *3967:CLK *657:73 0.000163256
53 *3973:RESET_B *657:73 0.000121674
54 *4009:RESET_B *657:19 0.00084927
55 *4085:A *657:73 0.000141355
56 *21:17 *657:73 1.0092e-05
57 *224:10 *657:53 1.39317e-05
58 *225:10 *657:53 3.31683e-05
59 *231:10 *3820:B1 9.67842e-05
60 *232:8 *657:73 0
61 *492:10 *657:19 0
62 *493:68 *3815:B1 1.24376e-05
63 *493:68 *657:23 6.08617e-05
64 *503:10 *657:59 0.000111148
65 *503:16 *657:59 8.82421e-05
66 *503:16 *657:67 8.51329e-05
67 *506:8 *657:73 0
68 *654:51 *657:73 0.000172582
69 *655:28 *657:73 0.000150033
70 *656:69 *657:19 0
71 *656:69 *657:36 0.000623269
72 *656:69 *657:53 0.000166522
*RES
1 *4131:X *657:6 26.9564 
2 *657:6 *4130:A 24.1186 
3 *657:6 *657:19 37.6821 
4 *657:19 *657:23 16.5743 
5 *657:23 *3815:B1 24.1186 
6 *657:23 *657:36 23.2443 
7 *657:36 *3814:B1 38 
8 *657:36 *657:53 40.9136 
9 *657:53 *657:59 28.5886 
10 *657:59 *657:67 34.3086 
11 *657:67 *657:73 34.6786 
12 *657:73 *4128:A 23 
13 *657:59 *3820:B1 39.0979 
14 *657:53 *3819:B1 23 
*END

*D_NET *658 0.017737
*CONN
*I *3780:B1 I *D sky130_fd_sc_hd__o21a_2
*I *3776:B1 I *D sky130_fd_sc_hd__o21a_2
*I *3778:B1 I *D sky130_fd_sc_hd__o21a_2
*I *3777:B1 I *D sky130_fd_sc_hd__o21a_2
*I *3783:B1 I *D sky130_fd_sc_hd__o21a_2
*I *3793:B1 I *D sky130_fd_sc_hd__o21a_2
*I *3779:B1 I *D sky130_fd_sc_hd__o21a_2
*I *3784:B1 I *D sky130_fd_sc_hd__o21a_2
*I *3826:B1 I *D sky130_fd_sc_hd__o21a_2
*I *3785:B1 I *D sky130_fd_sc_hd__o21a_2
*I *4132:X O *D sky130_fd_sc_hd__clkdlybuf4s25_1
*CAP
1 *3780:B1 0
2 *3776:B1 0
3 *3778:B1 0.000299449
4 *3777:B1 0
5 *3783:B1 0
6 *3793:B1 0.0003024
7 *3779:B1 0
8 *3784:B1 0.000157362
9 *3826:B1 0
10 *3785:B1 0.000296036
11 *4132:X 0.000244914
12 *658:122 0.000442721
13 *658:114 0.00130069
14 *658:105 0.000515523
15 *658:68 0.000327567
16 *658:64 0.000593534
17 *658:60 0.000757385
18 *658:56 0.00081535
19 *658:50 0.000466573
20 *658:36 0.000682028
21 *658:10 0.000415481
22 *658:8 0.000715712
23 *3778:B1 *3422:A2_N 0.000136738
24 *3778:B1 *885:28 9.72057e-06
25 *3778:B1 *899:47 5.90675e-06
26 *3778:B1 *997:27 5.595e-05
27 *3784:B1 *880:91 7.42621e-05
28 *3784:B1 *880:102 0.000355822
29 *3784:B1 *883:85 1.37232e-05
30 *3784:B1 *894:72 0.00010018
31 *3784:B1 *894:83 0.000313249
32 *3785:B1 *3785:A1 0.000141954
33 *3785:B1 *3785:A2 0.00010018
34 *3785:B1 *883:128 1.19796e-05
35 *3785:B1 *898:102 0
36 *3793:B1 *880:102 7.20415e-05
37 *3793:B1 *889:26 0.000395901
38 *3793:B1 *911:24 0
39 *658:10 *883:128 8.83341e-05
40 *658:36 *3975:RESET_B 0.00010202
41 *658:36 *883:128 5.01846e-05
42 *658:50 *3521:A 0.000400193
43 *658:50 *3776:A1 5.67058e-05
44 *658:50 *3975:RESET_B 0.000122312
45 *658:50 *1089:8 4.18957e-05
46 *658:56 *3521:A 0.000213872
47 *658:68 *880:102 0.000118899
48 *658:68 *911:24 0
49 *658:68 *911:30 0
50 *658:105 *3431:B 9.41704e-05
51 *658:105 *3783:A1 5.50106e-05
52 *658:105 *731:10 0.000116314
53 *658:105 *883:85 0.000375353
54 *658:105 *911:24 0
55 *658:105 *1089:20 0.000136486
56 *658:105 *1096:16 4.43614e-05
57 *658:114 *997:27 0
58 *658:114 *1114:23 0.000200422
59 *658:122 *889:10 5.3304e-05
60 *658:122 *899:97 8.76088e-05
61 *658:122 *911:10 0
62 *3422:B1 *3778:B1 0.00014196
63 *3422:B2 *3778:B1 7.06229e-05
64 *3975:CLK *658:105 9.38027e-05
65 *4099:A *658:56 0.000185434
66 *4099:A *658:60 0.000334767
67 *4099:A *658:64 0.000656748
68 *104:10 *3778:B1 8.34394e-05
69 *104:10 *658:122 0.00030894
70 *111:23 *658:105 0
71 *125:8 *658:36 9.98891e-05
72 *190:10 *3784:B1 4.95081e-05
73 *237:10 *658:10 7.66085e-05
74 *237:10 *658:36 3.56537e-05
75 *360:14 *658:64 0.000441978
76 *360:61 *658:60 0.000306338
77 *360:61 *658:64 0.00021477
78 *360:73 *658:56 6.16439e-05
79 *360:73 *658:105 0
80 *360:73 *658:114 2.46345e-05
81 *360:82 *658:114 0.00116246
82 *423:36 *658:50 3.71198e-05
83 *603:63 *658:114 1.05658e-05
84 *607:12 *658:114 0
85 *607:16 *658:114 0
86 *607:27 *658:50 0.000162831
87 *607:27 *658:56 0.000212168
88 *607:33 *658:50 0.000215791
89 *607:58 *658:50 2.02872e-05
90 *611:10 *658:105 0.000119108
91 *611:52 *658:105 2.34364e-05
92 *628:105 *658:114 0.000108681
*RES
1 *4132:X *658:8 41.0036 
2 *658:8 *658:10 3.66643 
3 *658:10 *3785:B1 43.7379 
4 *658:10 *3826:B1 38 
5 *658:8 *658:36 22.7264 
6 *658:36 *658:50 39.9636 
7 *658:50 *658:56 20.2821 
8 *658:56 *658:60 18.9564 
9 *658:60 *658:64 22.2914 
10 *658:64 *658:68 18.3143 
11 *658:68 *3784:B1 29.8357 
12 *658:68 *3779:B1 23 
13 *658:64 *3793:B1 44.6907 
14 *658:60 *658:105 43.9821 
15 *658:105 *3783:B1 23 
16 *658:56 *658:114 30.9914 
17 *658:114 *658:122 39.0729 
18 *658:122 *3777:B1 23 
19 *658:114 *3778:B1 29.8357 
20 *658:50 *3776:B1 23 
21 *658:36 *3780:B1 23 
*END

*D_NET *659 0.0137096
*CONN
*I *3852:B1 I *D sky130_fd_sc_hd__o21a_2
*I *3843:B1 I *D sky130_fd_sc_hd__o21a_2
*I *3844:B1 I *D sky130_fd_sc_hd__o21a_2
*I *3853:B1 I *D sky130_fd_sc_hd__o21a_2
*I *3804:B1 I *D sky130_fd_sc_hd__o21a_2
*I *3851:B1 I *D sky130_fd_sc_hd__o21a_2
*I *3845:B1 I *D sky130_fd_sc_hd__o21a_2
*I *3763:B1 I *D sky130_fd_sc_hd__o21a_2
*I *3787:B1 I *D sky130_fd_sc_hd__o21a_2
*I *3788:B1 I *D sky130_fd_sc_hd__o21a_2
*I *4133:X O *D sky130_fd_sc_hd__clkdlybuf4s25_1
*CAP
1 *3852:B1 0
2 *3843:B1 0
3 *3844:B1 0
4 *3853:B1 4.24511e-05
5 *3804:B1 0.000484705
6 *3851:B1 0.000137201
7 *3845:B1 0.0001031
8 *3763:B1 0
9 *3787:B1 0
10 *3788:B1 0
11 *4133:X 0.000447428
12 *659:107 0.000196636
13 *659:99 0.00073001
14 *659:90 0.000881742
15 *659:77 0.000988918
16 *659:75 0.000614235
17 *659:58 0.000639924
18 *659:47 0.000285715
19 *659:28 0.000377608
20 *659:20 0.000593981
21 *659:16 0.000469526
22 *659:6 0.000796411
23 *3804:B1 *879:25 8.52481e-05
24 *3804:B1 *879:29 0.000141052
25 *3804:B1 *893:25 0.000181125
26 *3804:B1 *893:27 9.84794e-05
27 *3845:B1 *899:82 0.000139357
28 *3851:B1 *901:69 0.0002263
29 *659:6 *4133:A 3.01132e-05
30 *659:6 *885:54 1.94812e-05
31 *659:16 *885:62 7.59964e-05
32 *659:16 *885:64 5.10805e-05
33 *659:16 *899:82 0.000215671
34 *659:16 *899:84 9.84851e-05
35 *659:16 *911:10 0
36 *659:20 *3787:A1 0.000230604
37 *659:20 *3787:A2 0.000315852
38 *659:20 *885:64 0.000147996
39 *659:20 *899:84 0.000345193
40 *659:28 *3788:A1 0
41 *659:28 *710:10 4.93223e-05
42 *659:28 *1064:10 0
43 *659:47 *683:12 0.000113624
44 *659:47 *911:10 0
45 *659:58 *683:12 0.000107548
46 *659:58 *901:69 3.70094e-05
47 *659:75 *3391:A2 1.40958e-05
48 *659:75 *4169:A 1.4471e-05
49 *659:75 *4190:A 0
50 *659:75 *683:12 7.90464e-05
51 *659:75 *887:82 4.00259e-06
52 *659:75 *901:69 0.00056261
53 *659:77 *3391:A2 0.000187129
54 *659:90 *670:10 0
55 *659:90 *732:10 3.70187e-05
56 *659:90 *901:77 0
57 *659:90 *1028:8 0
58 *659:99 *3843:A2 9.84794e-05
59 *659:99 *887:90 0.000402801
60 *659:99 *901:77 0.000402801
61 *659:107 *3844:A1 0.000278927
62 *659:107 *3844:A2 0.000227736
63 *659:107 *885:104 1.19796e-05
64 *659:107 *899:116 1.58805e-05
65 *4043:RESET_B *659:6 3.81472e-05
66 *4043:RESET_B *659:16 2.38288e-05
67 *151:10 *659:99 9.58714e-05
68 *198:10 *659:28 1.94693e-05
69 *199:8 *659:28 7.28526e-05
70 *262:8 *659:58 0
71 *263:10 *659:90 0
72 *408:10 *3804:B1 2.93747e-05
73 *533:10 *659:99 4.5051e-05
74 *607:86 *3845:B1 7.73389e-05
75 *607:86 *659:58 6.67764e-05
76 *628:91 *3845:B1 5.3304e-05
77 *628:91 *659:47 0.000182873
78 *628:91 *659:58 3.47781e-05
79 *628:93 *659:16 3.09949e-05
80 *628:93 *659:47 9.26098e-05
81 *628:97 *659:16 1.02561e-05
*RES
1 *4133:X *659:6 28.8621 
2 *659:6 *659:16 36.4836 
3 *659:16 *659:20 8.74143 
4 *659:20 *659:28 37.0429 
5 *659:28 *3788:B1 23 
6 *659:20 *3787:B1 23 
7 *659:16 *3763:B1 23 
8 *659:6 *659:47 18.6664 
9 *659:47 *3845:B1 40.5271 
10 *659:47 *659:58 2.96214 
11 *659:58 *3851:B1 41.0036 
12 *659:58 *659:75 23.9279 
13 *659:75 *659:77 3.95643 
14 *659:77 *3804:B1 33.6264 
15 *659:77 *659:90 35.7793 
16 *659:90 *3853:B1 23.6214 
17 *659:90 *659:99 13.485 
18 *659:99 *659:107 35.4893 
19 *659:107 *3844:B1 23 
20 *659:99 *3843:B1 23 
21 *659:75 *3852:B1 23 
*END

*D_NET *660 0.0166105
*CONN
*I *3835:B1 I *D sky130_fd_sc_hd__o21a_2
*I *3834:B1 I *D sky130_fd_sc_hd__o21a_2
*I *3833:B1 I *D sky130_fd_sc_hd__o21a_2
*I *3832:B1 I *D sky130_fd_sc_hd__o21a_2
*I *3831:B1 I *D sky130_fd_sc_hd__o21a_2
*I *3830:B1 I *D sky130_fd_sc_hd__o21a_2
*I *3626:B1 I *D sky130_fd_sc_hd__o21a_2
*I *3809:B1 I *D sky130_fd_sc_hd__o21a_2
*I *3808:B1 I *D sky130_fd_sc_hd__o21a_2
*I *3762:B1 I *D sky130_fd_sc_hd__o21a_2
*I *4134:X O *D sky130_fd_sc_hd__clkdlybuf4s25_1
*CAP
1 *3835:B1 0.000278644
2 *3834:B1 0
3 *3833:B1 0
4 *3832:B1 0
5 *3831:B1 0.000296683
6 *3830:B1 0.00023974
7 *3626:B1 0
8 *3809:B1 0.00039079
9 *3808:B1 0.000464141
10 *3762:B1 0
11 *4134:X 0
12 *660:104 0.000648683
13 *660:68 0.000602537
14 *660:64 0.000435213
15 *660:44 0.00039079
16 *660:31 0.000756424
17 *660:29 0.000661382
18 *660:27 0.000498785
19 *660:23 0.00129543
20 *660:12 0.000209437
21 *660:4 0.000636041
22 *3808:B1 *3496:B 0
23 *3808:B1 *881:137 0
24 *3808:B1 *896:146 8.51432e-05
25 *3808:B1 *897:54 0.000270914
26 *3808:B1 *897:58 4.96717e-05
27 *3808:B1 *1069:18 0
28 *3809:B1 *3809:A1 0.000313249
29 *3809:B1 *3809:A2 0.000269775
30 *3809:B1 *881:137 0.000228909
31 *3830:B1 *3830:A1 3.22879e-05
32 *3830:B1 *3830:A2 0.000141954
33 *3830:B1 *662:104 3.7122e-06
34 *3830:B1 *886:18 6.68919e-05
35 *3830:B1 *900:20 9.84851e-05
36 *3830:B1 *900:33 7.91596e-05
37 *3835:B1 *661:30 0.000306846
38 *3835:B1 *886:74 0.000308899
39 *3835:B1 *902:96 1.01436e-05
40 *660:12 *4134:A 4.34973e-05
41 *660:12 *897:54 0.000192022
42 *660:23 *4134:A 9.90162e-05
43 *660:23 *661:8 9.58714e-05
44 *660:23 *662:16 0.000244598
45 *660:23 *681:12 0.000166513
46 *660:23 *902:96 0.000698121
47 *660:23 *910:22 0
48 *660:27 *3355:A 0.000477634
49 *660:27 *3495:B 0.000136738
50 *660:27 *680:22 0.000126847
51 *660:27 *886:16 6.33627e-05
52 *660:27 *900:18 0.000431574
53 *660:31 *3496:B 0
54 *660:64 *887:24 0.00114017
55 *660:68 *900:33 2.49836e-05
56 *660:104 *662:16 0.000244598
57 *660:104 *680:8 0.000135557
58 *660:104 *886:63 0.000404047
59 *660:104 *902:96 0.000491424
60 *4082:A *3831:B1 0.000310641
61 *4082:A *660:64 0.000492178
62 *4103:A *660:64 0.000272377
63 *121:10 *660:31 0
64 *122:10 *660:27 5.50049e-05
65 *171:8 *660:31 5.80963e-05
66 *244:8 *660:64 8.16253e-05
67 *459:8 *660:31 0
68 *485:8 *660:12 0
69 *607:58 *3831:B1 5.32463e-05
70 *610:19 *660:31 0
71 *610:19 *660:64 0
72 *610:47 *660:68 0
*RES
1 *4134:X *660:4 23 
2 *660:4 *660:12 33.48 
3 *660:12 *3762:B1 23 
4 *660:4 *660:23 27.3043 
5 *660:23 *660:27 28.485 
6 *660:27 *660:29 15 
7 *660:29 *660:31 5.42714 
8 *660:31 *3808:B1 47.3007 
9 *660:31 *660:44 15 
10 *660:44 *3809:B1 32.6943 
11 *660:44 *3626:B1 23 
12 *660:29 *660:64 30.8464 
13 *660:64 *660:68 16.2014 
14 *660:68 *3830:B1 43.7379 
15 *660:68 *3831:B1 42.8057 
16 *660:64 *3832:B1 23 
17 *660:27 *3833:B1 23 
18 *660:23 *660:104 12.3871 
19 *660:104 *3834:B1 38 
20 *660:104 *3835:B1 46.8657 
*END

*D_NET *661 0.0186271
*CONN
*I *3865:RESET_B I *D sky130_fd_sc_hd__dfrtp_2
*I *3837:B1 I *D sky130_fd_sc_hd__o21a_2
*I *3840:B1 I *D sky130_fd_sc_hd__o21a_2
*I *3839:B1 I *D sky130_fd_sc_hd__o21a_2
*I *3838:B1 I *D sky130_fd_sc_hd__o21a_2
*I *3841:B1 I *D sky130_fd_sc_hd__o21a_2
*I *3829:B1 I *D sky130_fd_sc_hd__o21a_2
*I *3836:B1 I *D sky130_fd_sc_hd__o21a_2
*I *3864:RESET_B I *D sky130_fd_sc_hd__dfrtp_2
*I *4134:A I *D sky130_fd_sc_hd__clkdlybuf4s25_1
*I *4135:X O *D sky130_fd_sc_hd__clkdlybuf4s25_1
*CAP
1 *3865:RESET_B 0
2 *3837:B1 0
3 *3840:B1 0
4 *3839:B1 0
5 *3838:B1 0.000173021
6 *3841:B1 0
7 *3829:B1 0
8 *3836:B1 0
9 *3864:RESET_B 0
10 *4134:A 0.000200811
11 *4135:X 0.000384557
12 *661:107 0.000976293
13 *661:94 0.00122984
14 *661:83 0.000615811
15 *661:79 0.000278552
16 *661:65 0.000401593
17 *661:53 0.00160937
18 *661:41 0.00156628
19 *661:30 0.00103729
20 *661:26 0.000823302
21 *661:19 0.000408322
22 *661:8 0.000938489
23 *3838:B1 *3838:A2 0.000139357
24 *3838:B1 *1111:6 3.3577e-05
25 *4134:A *897:54 0.000228903
26 *661:8 *662:16 5.67058e-05
27 *661:19 *900:18 5.00898e-05
28 *661:19 *902:96 0.000700361
29 *661:26 *900:18 5.71927e-05
30 *661:26 *902:96 0.000140949
31 *661:30 *806:8 4.94517e-05
32 *661:30 *886:87 0
33 *661:30 *900:18 0.000517451
34 *661:30 *900:58 0.000138718
35 *661:30 *900:81 0
36 *661:30 *902:96 0.000664971
37 *661:41 *900:81 0
38 *661:41 *900:92 0
39 *661:53 *3597:A1 5.67058e-05
40 *661:53 *887:67 2.93104e-06
41 *661:53 *901:51 5.3304e-05
42 *661:65 *4283:A 0.000139352
43 *661:65 *787:10 0.000185434
44 *661:65 *901:51 0.000192087
45 *661:65 *901:96 2.77188e-05
46 *661:65 *903:6 0.000315857
47 *661:65 *903:12 0.000135037
48 *661:65 *1113:16 0.000379473
49 *661:65 *1113:27 9.6103e-05
50 *661:83 *900:92 3.55887e-05
51 *661:83 *900:101 0.000194346
52 *661:83 *1112:10 0.000166513
53 *661:94 *3839:A1 0
54 *661:94 *3839:A2 0.000285359
55 *661:94 *900:101 1.83667e-05
56 *661:94 *1112:10 0.00021382
57 *661:107 *3839:A1 0
58 *3594:A1 *661:53 0.000235596
59 *3597:A2 *661:53 8.1796e-05
60 *3598:B1 *661:41 9.48381e-06
61 *3598:B1 *661:83 0
62 *3599:A2 *661:94 0
63 *3835:B1 *661:30 0.000306846
64 *172:8 *661:19 0
65 *245:10 *661:30 0.000407208
66 *246:8 *661:30 0.00025214
67 *247:10 *661:30 0
68 *248:8 *661:83 0.000111045
69 *250:10 *661:94 0.000194299
70 *251:10 *661:107 2.93747e-05
71 *274:10 *661:19 0
72 *390:19 *661:65 0
73 *466:12 *661:65 0
74 *518:27 *661:53 3.35937e-05
75 *518:35 *661:53 7.88828e-05
76 *522:8 *661:53 0.000402801
77 *607:97 *661:53 0.000326391
78 *609:75 *661:30 0
79 *660:12 *4134:A 4.34973e-05
80 *660:23 *4134:A 9.90162e-05
81 *660:23 *661:8 9.58714e-05
*RES
1 *4135:X *661:8 29.3593 
2 *661:8 *4134:A 28.3857 
3 *661:8 *661:19 24.3007 
4 *661:19 *3864:RESET_B 15 
5 *661:19 *661:26 1.90571 
6 *661:26 *661:30 24.0079 
7 *661:30 *3836:B1 38 
8 *661:30 *661:41 20.075 
9 *661:41 *661:53 24.795 
10 *661:53 *661:65 42.2007 
11 *661:65 *3829:B1 23 
12 *661:53 *3841:B1 23 
13 *661:41 *661:79 1.595 
14 *661:79 *661:83 21.1314 
15 *661:83 *3838:B1 41.48 
16 *661:83 *661:94 8.24429 
17 *661:94 *3839:B1 38 
18 *661:94 *661:107 33.3114 
19 *661:107 *3840:B1 23 
20 *661:79 *3837:B1 23 
21 *661:26 *3865:RESET_B 15 
*END

*D_NET *662 0.025139
*CONN
*I *4132:A I *D sky130_fd_sc_hd__clkdlybuf4s25_1
*I *3975:RESET_B I *D sky130_fd_sc_hd__dfrtp_2
*I *3842:B1 I *D sky130_fd_sc_hd__o21a_2
*I *4133:A I *D sky130_fd_sc_hd__clkdlybuf4s25_1
*I *3847:B1 I *D sky130_fd_sc_hd__o21a_2
*I *4135:A I *D sky130_fd_sc_hd__clkdlybuf4s25_1
*I *4136:X O *D sky130_fd_sc_hd__clkdlybuf4s25_1
*CAP
1 *4132:A 0
2 *3975:RESET_B 0.000781066
3 *3842:B1 0
4 *4133:A 0.000424667
5 *3847:B1 0
6 *4135:A 0
7 *4136:X 0.000100945
8 *662:104 0.000631817
9 *662:80 0.00201378
10 *662:67 0.00143272
11 *662:52 0.0020321
12 *662:41 0.00113915
13 *662:33 0.00259841
14 *662:25 0.00295815
15 *662:16 0.000457569
16 *662:10 0.00248358
17 *3975:RESET_B *1089:20 0.000399495
18 *4133:A *885:54 0.000121021
19 *662:10 *3834:A1 3.7122e-06
20 *662:10 *817:12 8.4047e-05
21 *662:10 *886:63 7.6144e-05
22 *662:16 *681:12 0.000166513
23 *662:16 *817:12 0.00107777
24 *662:16 *886:63 0.000250839
25 *662:16 *910:22 0.00011218
26 *662:16 *910:37 3.61397e-05
27 *662:25 *1107:10 3.17202e-05
28 *662:33 *901:30 4.57742e-05
29 *662:33 *1106:8 1.01436e-05
30 *662:41 *885:39 0.000246767
31 *662:41 *899:26 0
32 *662:41 *899:47 8.16356e-05
33 *662:52 *885:50 0.00012828
34 *662:52 *899:68 8.94487e-05
35 *662:67 *3829:A1 6.9805e-05
36 *662:67 *885:54 6.53382e-05
37 *662:67 *887:52 2.5343e-05
38 *662:67 *887:106 0.00104866
39 *662:67 *901:96 1.96688e-05
40 *662:67 *903:25 0
41 *662:67 *1113:16 0.000731089
42 *662:67 *1113:27 7.53384e-06
43 *662:104 *3532:B 0
44 *662:104 *886:33 0
45 *662:104 *900:33 0
46 *3579:A1 *662:33 5.41288e-05
47 *3579:A2 *662:41 2.93845e-05
48 *3579:A2 *662:80 3.0647e-05
49 *3608:C *662:67 0.000161336
50 *3611:A2 *662:67 9.28739e-05
51 *3830:B1 *662:104 3.7122e-06
52 *4024:CLK *662:33 1.55622e-05
53 *4025:D *662:25 2.64616e-05
54 *4104:A *3975:RESET_B 5.50106e-05
55 *125:8 *662:80 0
56 *148:8 *662:67 0.000138718
57 *149:8 *662:67 0
58 *152:8 *662:41 0
59 *152:8 *662:80 0
60 *153:10 *662:33 1.14876e-05
61 *153:10 *662:80 0.000224345
62 *241:8 *662:80 0
63 *242:8 *662:80 0
64 *253:8 *662:67 0.000102365
65 *382:10 *662:80 2.04774e-05
66 *420:8 *662:41 0
67 *460:10 *662:33 0.000222113
68 *508:10 *662:41 0
69 *509:10 *662:41 0
70 *510:10 *662:80 0
71 *607:58 *662:80 0
72 *607:78 *662:41 0.000175639
73 *607:78 *662:52 0.000487452
74 *610:25 *662:104 0.000225265
75 *610:47 *662:104 0.000278634
76 *658:36 *3975:RESET_B 0.00010202
77 *658:50 *3975:RESET_B 0.000122312
78 *659:6 *4133:A 3.01132e-05
79 *660:23 *662:16 0.000244598
80 *660:104 *662:16 0.000244598
81 *661:8 *662:16 5.67058e-05
*RES
1 *4136:X *662:10 39.8229 
2 *662:10 *662:16 33.7257 
3 *662:16 *4135:A 23 
4 *662:10 *662:25 38.49 
5 *662:25 *662:33 44.5414 
6 *662:33 *662:41 32.1929 
7 *662:41 *3847:B1 38 
8 *662:41 *662:52 21.4836 
9 *662:52 *4133:A 29.235 
10 *662:52 *662:67 44.9529 
11 *662:67 *3842:B1 38 
12 *662:33 *662:80 41.4136 
13 *662:80 *3975:RESET_B 15.5461 
14 *662:80 *662:104 41.3929 
15 *662:104 *4132:A 23 
*END

*D_NET *663 0.00129464
*CONN
*I *4073:A I *D sky130_fd_sc_hd__ebufn_2
*I *4074:LO O *D sky130_fd_sc_hd__conb_1
*CAP
1 *4073:A 2.7232e-06
2 *4074:LO 0.000418446
3 *663:12 0.000421169
4 *4073:A *889:57 1.04936e-05
5 *602:18 *4073:A 1.84294e-05
6 *606:12 *663:12 2.76611e-06
7 *622:6 *663:12 0.000182826
8 *622:76 *663:12 0.000139352
9 *622:78 *663:12 5.97612e-05
10 *622:126 *663:12 3.86689e-05
11 *643:67 *663:12 0
*RES
1 *4074:LO *663:12 45.7886 
2 *663:12 *4073:A 38.202 
*END

*D_NET *664 0.00220723
*CONN
*I *3411:B1 I *D sky130_fd_sc_hd__o21ai_2
*I *3410:D1 I *D sky130_fd_sc_hd__a2111o_2
*I *4337:X O *D sky130_fd_sc_hd__clkdlybuf4s25_1
*CAP
1 *3411:B1 0
2 *3410:D1 0.000211682
3 *4337:X 0.000126476
4 *664:10 0.000338158
5 *3410:D1 *3410:A1 5.50049e-05
6 *3410:D1 *906:12 2.4754e-05
7 *3410:C1 *3410:D1 0.000416927
8 *13:19 *3410:D1 0.000155665
9 *162:16 *3410:D1 3.30896e-05
10 *414:23 *664:10 0
11 *631:10 *664:10 5.50049e-05
12 *631:12 *3410:D1 0.000404066
13 *631:12 *664:10 0.000166513
14 *653:8 *3410:D1 0.000194327
15 *653:8 *664:10 2.55642e-05
*RES
1 *4337:X *664:10 40.8793 
2 *664:10 *3410:D1 46.4307 
3 *664:10 *3411:B1 38 
*END

*D_NET *665 0.00047117
*CONN
*I *3635:B I *D sky130_fd_sc_hd__nor3_2
*I *4173:X O *D sky130_fd_sc_hd__dlygate4sd3_1
*CAP
1 *3635:B 0
2 *4173:X 0.000134308
3 *665:10 0.000134308
4 *665:10 *3648:B 0.000137473
5 *665:10 *1011:10 9.28078e-06
6 *4085:A *665:10 5.58003e-05
7 *272:30 *665:10 0
*RES
1 *4173:X *665:10 40.5271 
2 *665:10 *3635:B 38 
*END

*D_NET *666 0.00241319
*CONN
*I *3863:RESET_B I *D sky130_fd_sc_hd__dfrtp_2
*I *4174:X O *D sky130_fd_sc_hd__dlygate4sd3_1
*CAP
1 *3863:RESET_B 0.000785191
2 *4174:X 0.000240879
3 *666:8 0.00102607
4 *3863:RESET_B *3863:D 5.50049e-05
5 *666:8 *3634:A 2.24973e-05
6 *666:8 *4383:A 0
7 *666:8 *706:26 0
8 *666:8 *751:10 8.25811e-05
9 *666:8 *863:18 3.83778e-05
10 *4124:A *3863:RESET_B 0.000162586
11 *25:15 *666:8 0
12 *613:45 *666:8 0
*RES
1 *4174:X *666:8 42.0186 
2 *666:8 *3863:RESET_B 26.1961 
*END

*D_NET *667 0.000681704
*CONN
*I *4041:D I *D sky130_fd_sc_hd__dfrtp_2
*I *4175:X O *D sky130_fd_sc_hd__dlygate4sd3_1
*CAP
1 *4041:D 0
2 *4175:X 0.000246919
3 *667:10 0.000246919
4 *667:10 *894:111 2.24608e-05
5 *667:10 *1031:10 4.08641e-05
6 *3850:B1 *667:10 7.91871e-05
7 *11:10 *667:10 0
8 *606:12 *667:10 4.53539e-05
*RES
1 *4175:X *667:10 42.0807 
2 *667:10 *4041:D 38 
*END

*D_NET *668 0.000621156
*CONN
*I *4048:D I *D sky130_fd_sc_hd__dfrtp_2
*I *4176:X O *D sky130_fd_sc_hd__dlygate4sd3_1
*CAP
1 *4048:D 4.13206e-05
2 *4176:X 6.12666e-05
3 *668:8 0.000102587
4 *668:8 *3817:A1 0.000195871
5 *668:8 *910:20 0.000193649
6 *4048:CLK *4048:D 2.64616e-05
*RES
1 *4176:X *668:8 40.61 
2 *668:8 *4048:D 38.6214 
*END

*D_NET *669 0.000489553
*CONN
*I *3971:D I *D sky130_fd_sc_hd__dfrtp_2
*I *4177:X O *D sky130_fd_sc_hd__dlygate4sd3_1
*CAP
1 *3971:D 5.05722e-05
2 *4177:X 9.58254e-05
3 *669:8 0.000146398
4 *669:8 *872:22 0
5 *4380:A *669:8 4.87216e-05
6 *615:41 *3971:D 0.00014196
7 *649:10 *669:8 6.07611e-06
*RES
1 *4177:X *669:8 39.5536 
2 *669:8 *3971:D 39.5743 
*END

*D_NET *670 0.00131209
*CONN
*I *4044:D I *D sky130_fd_sc_hd__dfrtp_2
*I *4178:X O *D sky130_fd_sc_hd__dlygate4sd3_1
*CAP
1 *4044:D 0
2 *4178:X 0.000583701
3 *670:10 0.000583701
4 *670:10 *4178:A 4.06849e-05
5 *670:10 *1040:8 0
6 *4045:RESET_B *670:10 4.83893e-05
7 *50:8 *670:10 5.561e-05
8 *629:8 *670:10 0
9 *659:90 *670:10 0
*RES
1 *4178:X *670:10 47.3836 
2 *670:10 *4044:D 38 
*END

*D_NET *671 0.000941439
*CONN
*I *3960:D I *D sky130_fd_sc_hd__dfrtp_2
*I *4179:X O *D sky130_fd_sc_hd__dlygate4sd3_1
*CAP
1 *3960:D 0.000113882
2 *4179:X 0.000251628
3 *671:10 0.00036551
4 *671:10 *859:10 0
5 *671:10 *923:6 3.22879e-05
6 *671:10 *981:65 2.8241e-05
7 *3960:CLK *3960:D 0.00010655
8 *3962:RESET_B *671:10 0
9 *615:41 *671:10 4.334e-05
*RES
1 *4179:X *671:10 42.64 
2 *671:10 *3960:D 40.5479 
*END

*D_NET *672 0.0022369
*CONN
*I *3964:D I *D sky130_fd_sc_hd__dfrtp_2
*I *4180:X O *D sky130_fd_sc_hd__dlygate4sd3_1
*CAP
1 *3964:D 0
2 *4180:X 4.61395e-05
3 *672:14 0.000713947
4 *672:8 0.000760086
5 *672:14 *3634:A 0
6 *672:14 *1011:10 0
7 *672:14 *1011:42 2.93845e-05
8 *3968:RESET_B *672:14 0.000423083
9 *25:15 *672:14 0
10 *173:10 *672:8 2.95526e-05
11 *542:22 *672:14 0.000234706
12 *613:28 *672:14 0
13 *613:45 *672:14 0
*RES
1 *4180:X *672:8 38.6214 
2 *672:8 *672:14 29.5 
3 *672:14 *3964:D 23 
*END

*D_NET *673 0.00378556
*CONN
*I *3414:A I *D sky130_fd_sc_hd__or3_2
*I *3415:A1 I *D sky130_fd_sc_hd__o21ai_2
*I *3413:A I *D sky130_fd_sc_hd__xnor2_2
*I *4338:X O *D sky130_fd_sc_hd__clkdlybuf4s25_1
*CAP
1 *3414:A 0.000543579
2 *3415:A1 0.000338448
3 *3413:A 0.000172575
4 *4338:X 0
5 *673:8 0.00065902
6 *673:4 0.000691576
7 *3414:A *906:48 6.19442e-05
8 *3406:A2 *3414:A 5.50049e-05
9 *3406:B1 *3414:A 8.41336e-05
10 *3415:A2 *3415:A1 0
11 *3420:B *3415:A1 3.21785e-05
12 *210:10 *3414:A 2.64616e-05
13 *414:23 *673:8 0
14 *414:29 *3414:A 0.000543654
15 *416:24 *3415:A1 0.000189081
16 *416:24 *673:8 9.66417e-05
17 *419:8 *3415:A1 4.37033e-05
18 *625:41 *3415:A1 0.000229205
19 *625:41 *673:8 1.83564e-05
*RES
1 *4338:X *673:4 23 
2 *673:4 *673:8 17.9621 
3 *673:8 *3413:A 40.5271 
4 *673:8 *3415:A1 47.1557 
5 *673:4 *3414:A 35.6357 
*END

*D_NET *674 0.00104979
*CONN
*I *3967:D I *D sky130_fd_sc_hd__dfrtp_2
*I *4181:X O *D sky130_fd_sc_hd__dlygate4sd3_1
*CAP
1 *3967:D 0
2 *4181:X 0.000311633
3 *674:10 0.000311633
4 *674:10 *745:31 0.000110258
5 *272:10 *674:10 0.00031627
*RES
1 *4181:X *674:10 43.0336 
2 *674:10 *3967:D 38 
*END

*D_NET *675 0.000658496
*CONN
*I *3981:D I *D sky130_fd_sc_hd__dfrtp_2
*I *4182:X O *D sky130_fd_sc_hd__dlygate4sd3_1
*CAP
1 *3981:D 0
2 *4182:X 0.000230066
3 *675:10 0.000230066
4 *353:10 *675:10 5.561e-05
5 *621:29 *675:10 8.46575e-05
6 *621:35 *675:10 5.80963e-05
*RES
1 *4182:X *675:10 42.0807 
2 *675:10 *3981:D 38 
*END

*D_NET *676 0.00257439
*CONN
*I *3961:D I *D sky130_fd_sc_hd__dfrtp_2
*I *3685:A1 I *D sky130_fd_sc_hd__a22o_2
*I *4183:X O *D sky130_fd_sc_hd__dlygate4sd3_1
*CAP
1 *3961:D 0
2 *3685:A1 0
3 *4183:X 0.000240741
4 *676:24 0.000467863
5 *676:14 0.00057613
6 *676:10 0.000349009
7 *676:10 *833:10 5.56306e-05
8 *676:24 *3685:B2 6.17437e-06
9 *676:24 *682:27 0.000260467
10 *676:24 *838:12 0
11 *676:24 *981:84 1.22906e-05
12 *3685:A2 *676:24 0.000263272
13 *3946:RESET_B *676:24 5.3304e-05
14 *3961:CLK *676:24 5.50106e-05
15 *303:8 *676:24 0.000197479
16 *559:10 *676:24 3.70187e-05
*RES
1 *4183:X *676:10 41.6043 
2 *676:10 *676:14 16.5743 
3 *676:14 *676:24 40.9786 
4 *676:24 *3685:A1 23 
5 *676:14 *3961:D 23 
*END

*D_NET *677 0.000388067
*CONN
*I *4046:D I *D sky130_fd_sc_hd__dfrtp_2
*I *4184:X O *D sky130_fd_sc_hd__dlygate4sd3_1
*CAP
1 *4046:D 0
2 *4184:X 0.000132719
3 *677:10 0.000132719
4 *677:10 *896:31 5.58003e-05
5 *657:19 *677:10 6.68282e-05
*RES
1 *4184:X *677:10 40.5271 
2 *677:10 *4046:D 38 
*END

*D_NET *678 0.0028788
*CONN
*I *3985:D I *D sky130_fd_sc_hd__dfrtp_2
*I *3440:B1 I *D sky130_fd_sc_hd__a21oi_2
*I *4185:X O *D sky130_fd_sc_hd__dlygate4sd3_1
*CAP
1 *3985:D 0
2 *3440:B1 0.000559331
3 *4185:X 5.62067e-05
4 *678:12 0.000706397
5 *678:8 0.000203272
6 *3440:B1 *3792:A1 0.000170745
7 *3440:B1 *3792:A2 0.000301783
8 *3440:B1 *878:16 0.000197649
9 *3440:B1 *934:16 0.000215823
10 *3440:B1 *1030:42 0
11 *678:8 *880:102 0.000138718
12 *678:8 *894:83 0.000138718
13 *678:12 *4139:A 5.3304e-05
14 *678:12 *878:6 7.15126e-05
15 *678:12 *878:16 6.53382e-05
*RES
1 *4185:X *678:8 39.9057 
2 *678:8 *678:12 18.0036 
3 *678:12 *3440:B1 36.34 
4 *678:12 *3985:D 23 
*END

*D_NET *679 0.00174711
*CONN
*I *4040:D I *D sky130_fd_sc_hd__dfrtp_2
*I *3390:A2 I *D sky130_fd_sc_hd__o21a_2
*I *4186:X O *D sky130_fd_sc_hd__dlygate4sd3_1
*CAP
1 *4040:D 0.000180677
2 *3390:A2 0.000305898
3 *4186:X 0.000135348
4 *679:8 0.000621923
5 *3390:A2 *3846:A2 3.74442e-05
6 *3390:A2 *878:92 0
7 *3390:A2 *892:68 7.55832e-05
8 *4040:D *878:92 0
9 *4040:D *892:68 2.54226e-05
10 *679:8 *934:16 9.8971e-06
11 *679:8 *1032:6 5.83407e-05
12 *3390:B1 *3390:A2 5.50106e-05
13 *4040:CLK *4040:D 7.59794e-05
14 *325:10 *3390:A2 0.000165583
15 *407:10 *3390:A2 0
*RES
1 *4186:X *679:8 40.0507 
2 *679:8 *3390:A2 45.105 
3 *679:8 *4040:D 41.1279 
*END

*D_NET *680 0.00251403
*CONN
*I *3636:A0 I *D sky130_fd_sc_hd__mux2_1
*I *3516:B I *D sky130_fd_sc_hd__nor2_2
*I *4187:X O *D sky130_fd_sc_hd__dlygate4sd3_1
*CAP
1 *3636:A0 0
2 *3516:B 0
3 *4187:X 6.58102e-05
4 *680:22 0.000410827
5 *680:10 0.000410827
6 *680:8 6.58102e-05
7 *680:8 *902:96 0.000135557
8 *680:22 *886:8 0.000299178
9 *680:22 *886:16 0.000181919
10 *680:22 *886:63 0.000306332
11 *680:22 *900:18 0
12 *273:10 *680:22 0.00036412
13 *610:87 *680:22 0
14 *610:98 *680:22 1.12487e-05
15 *660:27 *680:22 0.000126847
16 *660:104 *680:8 0.000135557
*RES
1 *4187:X *680:8 39.9057 
2 *680:8 *680:10 15 
3 *680:10 *680:22 41.9314 
4 *680:22 *3516:B 23 
5 *680:10 *3636:A0 23 
*END

*D_NET *681 0.00108022
*CONN
*I *3855:D I *D sky130_fd_sc_hd__dfstp_2
*I *4188:X O *D sky130_fd_sc_hd__dlygate4sd3_1
*CAP
1 *3855:D 0
2 *4188:X 0.00025663
3 *681:12 0.00025663
4 *681:12 *685:18 0.000123924
5 *681:12 *817:12 5.3304e-05
6 *274:10 *681:12 5.67058e-05
7 *660:23 *681:12 0.000166513
8 *662:16 *681:12 0.000166513
*RES
1 *4188:X *681:12 44.235 
2 *681:12 *3855:D 38 
*END

*D_NET *682 0.00320103
*CONN
*I *3684:A1 I *D sky130_fd_sc_hd__a22o_2
*I *3959:D I *D sky130_fd_sc_hd__dfrtp_2
*I *4189:X O *D sky130_fd_sc_hd__dlygate4sd3_1
*CAP
1 *3684:A1 0
2 *3959:D 7.7053e-05
3 *4189:X 0.000387089
4 *682:27 0.000593394
5 *682:8 0.00105754
6 *3959:D *833:10 8.4047e-05
7 *3959:D *838:12 0
8 *682:8 *4189:A 4.95081e-05
9 *682:8 *998:12 5.41385e-05
10 *682:27 *833:10 0.000491525
11 *682:27 *838:12 0
12 *3684:A2 *682:27 1.46586e-05
13 *3894:RESET_B *682:8 9.45324e-06
14 *3895:CLK *682:27 0
15 *3961:CLK *682:27 5.50106e-05
16 *107:6 *682:8 2.80078e-05
17 *560:10 *682:27 3.91386e-05
18 *676:24 *682:27 0.000260467
*RES
1 *4189:X *682:8 43.3857 
2 *682:8 *3959:D 39.4137 
3 *682:8 *682:27 28.7957 
4 *682:27 *3684:A1 23 
*END

*D_NET *683 0.00215743
*CONN
*I *3392:A2 I *D sky130_fd_sc_hd__o21a_2
*I *4043:D I *D sky130_fd_sc_hd__dfrtp_2
*I *4190:X O *D sky130_fd_sc_hd__dlygate4sd3_1
*CAP
1 *3392:A2 0.000303113
2 *4043:D 0
3 *4190:X 8.27821e-05
4 *683:12 0.000270426
5 *683:6 0.000656322
6 *3392:A2 *4169:A 5.50106e-05
7 *3392:A2 *4190:A 4.79544e-05
8 *3392:A2 *911:141 0.00010018
9 *683:6 *4190:A 2.98648e-05
10 *683:12 *4169:A 0.000197479
11 *683:12 *911:10 0
12 *683:12 *1030:8 0.000114083
13 *628:10 *683:12 0
14 *659:47 *683:12 0.000113624
15 *659:58 *683:12 0.000107548
16 *659:75 *683:12 7.90464e-05
*RES
1 *4190:X *683:6 24.0979 
2 *683:6 *683:12 37.8921 
3 *683:12 *4043:D 23 
4 *683:6 *3392:A2 28.9036 
*END

*D_NET *684 0.00418806
*CONN
*I *3415:B1 I *D sky130_fd_sc_hd__o21ai_2
*I *3414:B I *D sky130_fd_sc_hd__or3_2
*I *4339:X O *D sky130_fd_sc_hd__clkdlybuf4s25_1
*CAP
1 *3415:B1 0.000321446
2 *3414:B 0
3 *4339:X 0
4 *684:12 0.00108712
5 *684:6 0.00140856
6 *3415:B1 *762:10 5.56203e-05
7 *3406:B1 *684:12 8.08139e-06
8 *3415:A2 *3415:B1 0
9 *3415:A2 *684:12 0
10 *4347:A *3415:B1 0
11 *18:15 *684:12 1.73399e-05
12 *19:11 *3415:B1 0
13 *19:11 *684:12 0
14 *414:29 *684:12 0.00104664
15 *414:36 *684:12 0
16 *416:14 *684:12 0.000112764
17 *416:30 *3415:B1 2.11668e-05
18 *417:8 *3415:B1 7.62303e-05
19 *419:8 *3415:B1 2.93845e-05
20 *642:6 *684:12 3.70071e-06
*RES
1 *4339:X *684:6 38 
2 *684:6 *684:12 32.5036 
3 *684:12 *3414:B 23 
4 *684:6 *3415:B1 44.7529 
*END

*D_NET *685 0.0039557
*CONN
*I *3355:A I *D sky130_fd_sc_hd__inv_2
*I *3637:A0 I *D sky130_fd_sc_hd__mux2_1
*I *4191:X O *D sky130_fd_sc_hd__dlygate4sd3_1
*CAP
1 *3355:A 0.000191601
2 *3637:A0 0
3 *4191:X 0.000150743
4 *685:18 0.000713085
5 *685:10 0.00105543
6 *3355:A *3495:A_N 9.5877e-05
7 *3355:A *3833:A1 2.28308e-05
8 *3355:A *886:16 0.000451416
9 *3355:A *886:18 3.22879e-05
10 *3355:A *900:18 2.80394e-05
11 *3355:A *900:20 0.00010018
12 *685:10 *918:12 0
13 *685:10 *1068:19 5.87296e-05
14 *685:18 *3495:B 0.000192077
15 *685:18 *1068:19 2.24973e-05
16 *685:18 *1069:12 0.000219882
17 *3855:CLK *685:18 0
18 *122:10 *685:18 0
19 *172:8 *685:18 0
20 *610:81 *685:10 1.94693e-05
21 *660:27 *3355:A 0.000477634
22 *681:12 *685:18 0.000123924
*RES
1 *4191:X *685:10 40.5271 
2 *685:10 *685:18 29.3964 
3 *685:18 *3637:A0 23 
4 *685:10 *3355:A 46.4307 
*END

*D_NET *686 0.00508804
*CONN
*I *3625:C I *D sky130_fd_sc_hd__nor3_2
*I *3433:B1 I *D sky130_fd_sc_hd__a22o_2
*I *3430:B1 I *D sky130_fd_sc_hd__a22o_2
*I *4192:X O *D sky130_fd_sc_hd__dlygate4sd3_1
*CAP
1 *3625:C 0
2 *3433:B1 0.000700519
3 *3430:B1 0
4 *4192:X 0
5 *686:40 0.000287847
6 *686:18 0.000314841
7 *686:10 0.00142032
8 *686:4 0.000692803
9 *3433:B1 *4222:A 8.2832e-05
10 *3433:B1 *1067:28 9.69279e-05
11 *3433:B1 *1093:32 0.000200675
12 *686:10 *753:12 4.08537e-05
13 *686:10 *911:62 0
14 *686:10 *911:110 0
15 *686:10 *993:14 0
16 *686:10 *1093:46 0
17 *686:18 *880:38 0
18 *686:18 *911:62 1.14452e-05
19 *686:18 *1067:28 0.000100403
20 *686:40 *3625:A 0
21 *686:40 *753:12 0.00026506
22 *686:40 *894:72 0.000137651
23 *686:40 *1093:46 0
24 *3430:B2 *686:10 2.29192e-05
25 *3430:B2 *686:18 2.29192e-05
26 *98:10 *686:10 0.000138718
27 *645:10 *686:10 0.00046279
28 *645:42 *686:10 8.85189e-05
*RES
1 *4192:X *686:4 23 
2 *686:4 *686:10 39.6529 
3 *686:10 *686:18 34.5571 
4 *686:18 *3430:B1 23 
5 *686:10 *3433:B1 33.6471 
6 *686:4 *686:40 35.2407 
7 *686:40 *3625:C 23 
*END

*D_NET *687 0.00190899
*CONN
*I *4016:D I *D sky130_fd_sc_hd__dfstp_2
*I *4193:X O *D sky130_fd_sc_hd__dlygate4sd3_1
*CAP
1 *4016:D 0.000489068
2 *4193:X 0.000203687
3 *687:8 0.000692755
4 *4016:D *1038:10 4.05745e-05
5 *687:8 *880:57 1.34354e-05
6 *687:8 *894:51 0
7 *4122:A *4016:D 9.5877e-05
8 *100:10 *687:8 3.88504e-05
9 *193:10 *687:8 0.000139647
10 *359:31 *4016:D 6.17437e-06
11 *643:26 *687:8 0.000188916
12 *645:42 *687:8 0
*RES
1 *4193:X *687:8 42.7229 
2 *687:8 *4016:D 45.7679 
*END

*D_NET *688 0.00104529
*CONN
*I *3424:A2 I *D sky130_fd_sc_hd__a32o_2
*I *3517:A I *D sky130_fd_sc_hd__nor2_2
*I *4194:X O *D sky130_fd_sc_hd__dlygate4sd3_1
*CAP
1 *3424:A2 2.62427e-05
2 *3517:A 0.000140936
3 *4194:X 5.28185e-05
4 *688:12 0.000187236
5 *688:8 7.28762e-05
6 *3424:A2 *3424:B1 9.84794e-05
7 *3424:A2 *3517:B 4.5051e-05
8 *3517:A *3424:B1 2.26823e-05
9 *3517:A *3517:B 0.000178893
10 *3517:A *911:20 5.23315e-05
11 *688:8 *889:10 0.000113153
12 *688:8 *1096:16 5.45887e-05
13 *688:12 *3424:B1 0
14 *688:12 *3517:B 0
*RES
1 *4194:X *688:8 39.5536 
2 *688:8 *688:12 15.4971 
3 *688:12 *3517:A 26.5007 
4 *688:12 *3424:A2 24.0979 
*END

*D_NET *689 0.0037507
*CONN
*I *4038:D I *D sky130_fd_sc_hd__dfstp_2
*I *4195:X O *D sky130_fd_sc_hd__dlygate4sd3_1
*CAP
1 *4038:D 0
2 *4195:X 0.000611679
3 *689:12 0.000446442
4 *689:6 0.00105812
5 *689:6 *4217:A 5.50106e-05
6 *689:6 *878:53 1.56665e-05
7 *689:6 *892:58 0.000139352
8 *689:6 *1030:28 0.000168687
9 *689:6 *1030:42 0.000563675
10 *689:6 *1035:12 8.54716e-05
11 *689:12 *894:111 0.000276951
12 *689:12 *993:46 0.000114083
13 *689:12 *1030:42 0
14 *91:10 *689:6 0.000137651
15 *354:10 *689:12 7.79163e-05
16 *360:33 *689:12 0
*RES
1 *4195:X *689:6 35.5321 
2 *689:6 *689:12 40.7093 
3 *689:12 *4038:D 23 
*END

*D_NET *690 0.00102383
*CONN
*I *3968:D I *D sky130_fd_sc_hd__dfrtp_2
*I *4196:X O *D sky130_fd_sc_hd__dlygate4sd3_1
*CAP
1 *3968:D 0
2 *4196:X 0.000163039
3 *690:6 0.000163039
4 *690:6 *3634:A 0.000151601
5 *690:6 *863:10 0.000438462
6 *542:14 *690:6 2.88036e-05
7 *613:35 *690:6 7.88828e-05
*RES
1 *4196:X *690:6 28.8621 
2 *690:6 *3968:D 23 
*END

*D_NET *691 0.00728563
*CONN
*I *3744:B1 I *D sky130_fd_sc_hd__a21o_2
*I *3462:B1 I *D sky130_fd_sc_hd__a22o_2
*I *3978:D I *D sky130_fd_sc_hd__dfrtp_2
*I *4197:X O *D sky130_fd_sc_hd__dlygate4sd3_1
*CAP
1 *3744:B1 0.000523685
2 *3462:B1 0.000673123
3 *3978:D 0
4 *4197:X 0.000587536
5 *691:39 0.000756341
6 *691:14 0.000712282
7 *691:10 0.00174028
8 *3462:B1 *3462:B2 5.41288e-05
9 *3744:B1 *750:10 0
10 *3744:B1 *949:25 0
11 *3744:B1 *1008:10 0
12 *3744:B1 *1008:16 0
13 *691:10 *949:25 7.1357e-05
14 *691:10 *989:26 0
15 *691:14 *3330:A 0.00019288
16 *691:14 *922:14 0
17 *691:14 *949:25 3.65467e-05
18 *691:14 *949:38 0.00010647
19 *691:14 *981:65 0.000638348
20 *691:14 *981:76 0.000249153
21 *691:14 *989:26 0
22 *3892:RESET_B *3744:B1 0
23 *3946:CLK *3462:B1 9.6916e-05
24 *3946:D *3462:B1 0.000272383
25 *3970:RESET_B *691:14 3.96156e-05
26 *363:32 *691:14 2.05503e-05
27 *603:13 *3744:B1 0.000136007
28 *603:27 *3744:B1 4.55121e-05
29 *615:10 *691:14 0.000105283
30 *615:14 *691:14 9.75126e-05
31 *615:84 *691:14 0.000107507
32 *649:46 *691:14 2.22079e-05
*RES
1 *4197:X *691:10 43.4893 
2 *691:10 *691:14 34.1607 
3 *691:14 *3978:D 23 
4 *691:10 *3462:B1 47.6943 
5 *4197:X *691:39 41.0036 
6 *691:39 *3744:B1 48.7093 
*END

*D_NET *692 0.00272937
*CONN
*I *3426:A1 I *D sky130_fd_sc_hd__a211oi_2
*I *3424:B2 I *D sky130_fd_sc_hd__a32o_2
*I *4198:X O *D sky130_fd_sc_hd__dlygate4sd3_1
*CAP
1 *3426:A1 2.34823e-05
2 *3424:B2 0
3 *4198:X 0.000194257
4 *692:14 0.000684859
5 *692:6 0.000902598
6 *692:6 *4198:A 2.45032e-05
7 *692:14 *4328:A 9.41704e-05
8 *692:14 *836:8 0
9 *692:14 *889:10 0.000107651
10 *692:14 *911:20 0.000403127
11 *692:14 *1096:16 0
12 *692:14 *1114:23 5.50049e-05
13 *3426:B1 *692:6 4.96717e-05
14 *102:10 *692:6 9.58714e-05
15 *611:132 *692:6 9.41704e-05
*RES
1 *4198:X *692:6 26.48 
2 *692:6 *692:14 42.7186 
3 *692:14 *3424:B2 23 
4 *692:6 *3426:A1 23.4971 
*END

*D_NET *693 0.000341463
*CONN
*I *3928:D I *D sky130_fd_sc_hd__dfstp_2
*I *4199:X O *D sky130_fd_sc_hd__dlygate4sd3_1
*CAP
1 *3928:D 0.000170731
2 *4199:X 0.000170731
*RES
1 *4199:X *3928:D 48.5271 
*END

*D_NET *694 0.0031165
*CONN
*I *3674:A1 I *D sky130_fd_sc_hd__mux2_1
*I *4200:X O *D sky130_fd_sc_hd__dlygate4sd3_1
*CAP
1 *3674:A1 0
2 *4200:X 0.000233178
3 *694:14 0.000519609
4 *694:8 0.000752787
5 *694:8 *889:126 9.41704e-05
6 *694:14 *3672:A1 0.000138725
7 *694:14 *3673:A 1.96186e-05
8 *694:14 *816:10 8.62876e-05
9 *694:14 *932:34 0
10 o_receive_data[5] *694:14 0.000748214
11 *295:14 *694:14 8.62876e-05
12 *359:61 *694:14 4.39278e-05
13 *359:67 *694:14 0
14 *555:10 *694:14 0.000111852
15 *623:83 *694:14 0.000222113
16 *624:46 *694:8 5.97296e-05
*RES
1 *4200:X *694:8 41.0036 
2 *694:8 *694:14 29.0443 
3 *694:14 *3674:A1 23 
*END

*D_NET *695 0.00331951
*CONN
*I *3970:D I *D sky130_fd_sc_hd__dfrtp_2
*I *4340:X O *D sky130_fd_sc_hd__clkdlybuf4s25_1
*CAP
1 *3970:D 0.000731603
2 *4340:X 0.000457599
3 *695:10 0.0011892
4 *3970:D *3653:B 3.7122e-06
5 *3970:D *1016:18 5.1291e-05
6 *695:10 *922:14 0.000154355
7 *695:10 *990:10 0.000612482
8 *695:10 *1015:20 0
9 *695:10 *1020:8 1.69668e-05
10 *3970:CLK *3970:D 0.000102301
11 *646:18 *3970:D 0
12 *649:10 *695:10 0
13 *649:36 *695:10 0
14 *649:46 *695:10 0
*RES
1 *4340:X *695:10 48.6264 
2 *695:10 *3970:D 48.3364 
*END

*D_NET *696 0.00193108
*CONN
*I *3362:A0 I *D sky130_fd_sc_hd__mux2_1
*I *3686:B1 I *D sky130_fd_sc_hd__a21o_2
*I *4201:X O *D sky130_fd_sc_hd__dlygate4sd3_1
*CAP
1 *3362:A0 0
2 *3686:B1 0
3 *4201:X 0.000254525
4 *696:14 0.000407469
5 *696:6 0.000661993
6 *696:14 *3329:A 3.46407e-05
7 *696:14 *880:10 0
8 *696:14 *894:10 3.31683e-05
9 *696:14 *907:65 6.33258e-05
10 *696:14 *1067:42 0.000218289
11 *3686:A1 *696:14 4.67998e-05
12 *3998:RESET_B *696:14 0
13 *120:27 *696:6 9.67842e-05
14 *186:8 *696:14 0.000114083
*RES
1 *4201:X *696:6 26.9564 
2 *696:6 *696:14 38.99 
3 *696:14 *3686:B1 23 
4 *696:6 *3362:A0 23 
*END

*D_NET *697 0.000899416
*CONN
*I *3896:D I *D sky130_fd_sc_hd__dfrtp_2
*I *4202:X O *D sky130_fd_sc_hd__dlygate4sd3_1
*CAP
1 *3896:D 8.7943e-05
2 *4202:X 0.000269633
3 *697:10 0.000357576
4 *697:10 *766:14 0
5 *697:10 *888:55 0
6 *3896:RESET_B *3896:D 5.38715e-05
7 *603:13 *697:10 0.000130393
*RES
1 *4202:X *697:10 42.64 
2 *697:10 *3896:D 39.16 
*END

*D_NET *698 0.00311462
*CONN
*I *3672:A1 I *D sky130_fd_sc_hd__mux2_1
*I *4203:X O *D sky130_fd_sc_hd__dlygate4sd3_1
*CAP
1 *3672:A1 0.000260418
2 *4203:X 0.000328874
3 *698:12 0.000589292
4 *3672:A1 *701:12 0
5 *698:12 *701:12 4.73689e-05
6 *3666:A0 *3672:A1 5.3304e-05
7 *3670:S *698:12 0.000182826
8 *3885:D *3672:A1 0.000131077
9 *295:14 *3672:A1 1.14452e-05
10 *295:14 *698:12 0.000267035
11 *296:10 *698:12 0.000480278
12 *297:10 *3672:A1 0.000111852
13 *359:67 *3672:A1 1.58805e-05
14 *359:87 *3672:A1 4.5051e-05
15 *554:10 *3672:A1 0.000139352
16 *623:77 *3672:A1 1.06693e-05
17 *623:83 *3672:A1 0.000222113
18 *624:59 *698:12 2.95125e-05
19 *624:83 *698:12 4.95442e-05
20 *694:14 *3672:A1 0.000138725
*RES
1 *4203:X *698:12 48.3364 
2 *698:12 *3672:A1 46.41 
*END

*D_NET *699 0.00121878
*CONN
*I *3676:A1 I *D sky130_fd_sc_hd__mux2_1
*I *4204:X O *D sky130_fd_sc_hd__dlygate4sd3_1
*CAP
1 *3676:A1 0
2 *4204:X 0.00047735
3 *699:14 0.00047735
4 *699:14 *870:8 0.000100066
5 *359:57 *699:14 0.00016401
*RES
1 *4204:X *699:14 45.8093 
2 *699:14 *3676:A1 38 
*END

*D_NET *700 0.00166616
*CONN
*I *3670:A1 I *D sky130_fd_sc_hd__mux2_1
*I *4205:X O *D sky130_fd_sc_hd__dlygate4sd3_1
*CAP
1 *3670:A1 2.94687e-05
2 *4205:X 0.000389112
3 *700:10 0.00041858
4 *3670:A1 *4207:A 0.000140259
5 *700:10 *4392:A 0
6 *700:10 *701:12 6.93553e-05
7 *3670:S *3670:A1 0.000141954
8 *64:6 *700:10 0.000267167
9 *164:10 *700:10 0
10 *624:83 *700:10 7.06124e-05
11 *624:91 *700:10 0.000139647
*RES
1 *4205:X *700:10 45.7264 
2 *700:10 *3670:A1 39.5743 
*END

*D_NET *701 0.0023818
*CONN
*I *3666:A1 I *D sky130_fd_sc_hd__mux2_1
*I *4206:X O *D sky130_fd_sc_hd__dlygate4sd3_1
*CAP
1 *3666:A1 0
2 *4206:X 0
3 *701:12 0.000797406
4 *701:6 0.000797406
5 *701:12 *4392:A 3.5664e-05
6 *701:12 *866:10 6.03737e-05
7 *701:12 *868:12 0
8 *701:12 *868:18 0
9 *3672:A1 *701:12 0
10 *3885:D *701:12 9.18344e-05
11 *294:14 *701:12 0.000230604
12 *296:10 *701:12 0.000196168
13 *623:77 *701:12 5.56203e-05
14 *624:83 *701:12 0
15 *698:12 *701:12 4.73689e-05
16 *700:10 *701:12 6.93553e-05
*RES
1 *4206:X *701:6 38 
2 *701:6 *701:12 32.8143 
3 *701:12 *3666:A1 23 
*END

*D_NET *702 0.000961012
*CONN
*I *3668:A1 I *D sky130_fd_sc_hd__mux2_1
*I *4207:X O *D sky130_fd_sc_hd__dlygate4sd3_1
*CAP
1 *3668:A1 4.6614e-05
2 *4207:X 0.000308023
3 *702:8 0.000354637
4 *3668:A1 *940:6 6.71408e-06
5 *702:8 *4395:A 0.00011871
6 *702:8 *869:10 4.23714e-05
7 *3670:A0 *702:8 8.39412e-05
*RES
1 *4207:X *702:8 44.8357 
2 *702:8 *3668:A1 38.6214 
*END

*D_NET *703 0.00152536
*CONN
*I *3664:A1 I *D sky130_fd_sc_hd__mux2_1
*I *4208:X O *D sky130_fd_sc_hd__dlygate4sd3_1
*CAP
1 *3664:A1 2.3711e-05
2 *4208:X 0.000326826
3 *703:8 0.000350537
4 *3664:A1 *3745:A0 0.000143655
5 *3664:A1 *3745:A1 4.95081e-05
6 *703:8 *907:26 1.47563e-05
7 *3664:S *3664:A1 5.50106e-05
8 *4049:RESET_B *703:8 0
9 *293:10 *703:8 0
10 *550:8 *703:8 0.000561356
*RES
1 *4208:X *703:8 45.8921 
2 *703:8 *3664:A1 39.5743 
*END

*D_NET *704 0.000258417
*CONN
*I *3522:A I *D sky130_fd_sc_hd__and2_2
*I *4209:X O *D sky130_fd_sc_hd__dlygate4sd3_1
*CAP
1 *3522:A 0
2 *4209:X 5.75938e-05
3 *704:8 5.75938e-05
4 *704:8 *883:38 7.03766e-05
5 *4020:CLK *704:8 7.28526e-05
*RES
1 *4209:X *704:8 39.9057 
2 *704:8 *3522:A 38 
*END

*D_NET *705 0.00146579
*CONN
*I *3678:A1 I *D sky130_fd_sc_hd__mux2_1
*I *4210:X O *D sky130_fd_sc_hd__dlygate4sd3_1
*CAP
1 *3678:A1 6.13309e-05
2 *4210:X 0.000307622
3 *705:10 0.000368953
4 *3678:A1 *971:59 3.7122e-06
5 *705:10 *871:8 0
6 *705:10 *871:22 1.32939e-05
7 *705:10 *971:59 0.000512078
8 *314:10 *705:10 0.000166513
9 *354:30 *705:10 3.22879e-05
*RES
1 *4210:X *705:10 45.9336 
2 *705:10 *3678:A1 38.6214 
*END

*D_NET *706 0.00580003
*CONN
*I *3969:D I *D sky130_fd_sc_hd__dfrtp_2
*I *3634:B I *D sky130_fd_sc_hd__or3b_2
*I *4341:X O *D sky130_fd_sc_hd__clkdlybuf4s25_1
*CAP
1 *3969:D 0.000414732
2 *3634:B 0
3 *4341:X 0.000267255
4 *706:26 0.000958901
5 *706:12 0.00164089
6 *706:12 *1012:10 0.000509118
7 *706:26 *4383:A 0.000105947
8 *706:26 *828:26 0
9 *706:26 *910:16 0.00109821
10 *706:26 *1012:10 1.09783e-05
11 *285:8 *706:12 0.000111941
12 *542:14 *706:26 0.000358425
13 *613:10 *706:12 3.19892e-06
14 *613:16 *706:12 9.68088e-05
15 *613:22 *706:12 0.000202524
16 *613:22 *706:26 2.11066e-05
17 *666:8 *706:26 0
*RES
1 *4341:X *706:12 46.6586 
2 *706:12 *706:26 39.1239 
3 *706:26 *3634:B 23 
4 *706:12 *3969:D 44.3386 
*END

*D_NET *707 0.00246074
*CONN
*I *3450:A1 I *D sky130_fd_sc_hd__a21o_2
*I *3444:A I *D sky130_fd_sc_hd__and2_2
*I *4211:X O *D sky130_fd_sc_hd__dlygate4sd3_1
*CAP
1 *3450:A1 0.000147987
2 *3444:A 0.000399062
3 *4211:X 0.000177619
4 *707:10 0.000724668
5 *3444:A *755:12 5.50106e-05
6 *3444:A *933:20 5.79042e-05
7 *3444:A *965:46 4.07999e-05
8 *3450:A1 *936:29 2.60152e-05
9 *707:10 *936:29 0.000203094
10 *3450:A2 *3450:A1 2.93747e-05
11 *3450:B1 *3450:A1 2.76611e-06
12 *73:6 *707:10 5.50049e-05
13 *114:10 *3450:A1 5.40866e-05
14 *114:10 *707:10 0.000110532
15 *617:26 *3444:A 6.9805e-05
16 *617:32 *3444:A 0.000170529
17 *617:93 *3450:A1 0.000136486
*RES
1 *4211:X *707:10 42.9921 
2 *707:10 *3444:A 45.7886 
3 *707:10 *3450:A1 41.2314 
*END

*D_NET *708 0.00291959
*CONN
*I *3432:A1 I *D sky130_fd_sc_hd__a21o_2
*I *3427:A1 I *D sky130_fd_sc_hd__a22o_2
*I *4212:X O *D sky130_fd_sc_hd__dlygate4sd3_1
*CAP
1 *3432:A1 0
2 *3427:A1 0.000521087
3 *4212:X 0.000271851
4 *708:10 0.000792938
5 *3427:A1 *4315:A 3.53115e-05
6 *3427:A1 *711:19 0
7 *3427:A1 *883:36 2.05898e-05
8 *3427:B1 *3427:A1 0.000182832
9 *3432:A2 *3427:A1 0.000193388
10 *3432:A2 *708:10 1.14452e-05
11 *3932:D *708:10 0
12 *111:23 *3427:A1 0.000378492
13 *111:23 *708:10 0.00033609
14 *360:73 *708:10 2.60152e-05
15 *411:8 *3427:A1 0
16 *423:28 *708:10 8.4047e-05
17 *423:36 *708:10 5.3304e-05
18 *611:8 *708:10 1.21972e-05
*RES
1 *4212:X *708:10 43.8207 
2 *708:10 *3427:A1 48.4814 
3 *708:10 *3432:A1 38 
*END

*D_NET *709 0.00171626
*CONN
*I *3437:B1 I *D sky130_fd_sc_hd__a22o_2
*I *3436:B1 I *D sky130_fd_sc_hd__a22o_2
*I *4213:X O *D sky130_fd_sc_hd__dlygate4sd3_1
*CAP
1 *3437:B1 3.27104e-05
2 *3436:B1 0.000466809
3 *4213:X 0.000127989
4 *709:10 0.000627509
5 *3436:B1 *3436:A2 1.86869e-05
6 *3436:B1 *3438:A2 0
7 *3436:B1 *1030:16 3.95159e-06
8 *3436:B1 *1030:18 0.000163923
9 *3436:B1 *1051:56 0
10 *3437:B1 *3437:A2 5.50106e-05
11 *709:10 *3438:A2 0
12 *709:10 *1030:28 5.31444e-05
13 *119:10 *3436:B1 0.000166522
*RES
1 *4213:X *709:10 40.175 
2 *709:10 *3436:B1 47.9221 
3 *709:10 *3437:B1 38.6214 
*END

*D_NET *710 0.000531406
*CONN
*I *3939:D I *D sky130_fd_sc_hd__dfrtp_2
*I *4214:X O *D sky130_fd_sc_hd__dlygate4sd3_1
*CAP
1 *3939:D 0
2 *4214:X 0.000205853
3 *710:10 0.000205853
4 *710:10 *3788:A1 4.08641e-05
5 *710:10 *879:25 2.95125e-05
6 *199:8 *710:10 0
7 *659:28 *710:10 4.93223e-05
*RES
1 *4214:X *710:10 41.48 
2 *710:10 *3939:D 38 
*END

*D_NET *711 0.000941653
*CONN
*I *3427:B2 I *D sky130_fd_sc_hd__a22o_2
*I *3400:A I *D sky130_fd_sc_hd__and2_2
*I *4215:X O *D sky130_fd_sc_hd__dlygate4sd3_1
*CAP
1 *3427:B2 0
2 *3400:A 7.18541e-05
3 *4215:X 2.205e-05
4 *711:19 0.000158819
5 *711:6 0.000252723
6 *3400:A *3399:A 0.00010018
7 *711:19 *3335:A 0
8 *711:19 *1070:10 0
9 *3427:A1 *711:19 0
10 *101:12 *711:19 0
11 *111:23 *711:19 0
12 *368:8 *3400:A 0.000228903
13 *368:8 *711:6 5.50106e-05
14 *411:8 *711:19 5.21127e-05
*RES
1 *4215:X *711:6 23.6214 
2 *711:6 *3400:A 25.5271 
3 *711:6 *711:19 32.9621 
4 *711:19 *3427:B2 23 
*END

*D_NET *712 0.00040461
*CONN
*I *3937:D I *D sky130_fd_sc_hd__dfrtp_2
*I *4216:X O *D sky130_fd_sc_hd__dlygate4sd3_1
*CAP
1 *3937:D 7.18361e-05
2 *4216:X 5.60739e-05
3 *712:8 0.00012791
4 *712:8 *3780:A2 0
5 *712:8 *1090:10 8.85189e-05
6 *3937:CLK *3937:D 6.02707e-05
*RES
1 *4216:X *712:8 39.2014 
2 *712:8 *3937:D 39.16 
*END

*D_NET *713 0.00311355
*CONN
*I *3442:A2 I *D sky130_fd_sc_hd__o21a_2
*I *3440:A2 I *D sky130_fd_sc_hd__a21oi_2
*I *4217:X O *D sky130_fd_sc_hd__dlygate4sd3_1
*CAP
1 *3442:A2 0.000340353
2 *3440:A2 0
3 *4217:X 0
4 *713:20 0.000555888
5 *713:6 0.000896242
6 *3442:A2 *3790:A2 5.15096e-05
7 *3442:A2 *753:12 0
8 *3442:A2 *892:23 0.000132074
9 *3442:A2 *892:46 7.48331e-05
10 *3442:A2 *1035:25 9.03157e-05
11 *713:20 *892:23 2.26497e-05
12 *713:20 *934:16 2.64104e-05
13 *3944:D *713:20 0.000191166
14 *89:12 *3442:A2 0.000119174
15 *89:12 *713:20 5.58873e-06
16 *91:10 *713:20 0.000137637
17 *360:33 *713:20 0
18 *425:10 *713:20 3.7285e-05
19 *627:55 *713:20 0.000219882
20 *643:119 *713:20 0.000212542
*RES
1 *4217:X *713:6 38 
2 *713:6 *713:20 37.5563 
3 *713:20 *3440:A2 23 
4 *713:6 *3442:A2 44.7529 
*END

*D_NET *714 0.00149306
*CONN
*I *3660:A0 I *D sky130_fd_sc_hd__mux2_1
*I *4218:X O *D sky130_fd_sc_hd__dlygate4sd3_1
*CAP
1 *3660:A0 0
2 *4218:X 0.000494513
3 *714:6 0.000494513
4 *714:6 *728:14 9.31593e-05
5 *714:6 *910:60 0.000410879
*RES
1 *4218:X *714:6 30.2914 
2 *714:6 *3660:A0 23 
*END

*D_NET *715 0.00190682
*CONN
*I *3388:A1 I *D sky130_fd_sc_hd__a21oi_2
*I *4219:X O *D sky130_fd_sc_hd__dlygate4sd3_1
*CAP
1 *3388:A1 0
2 *4219:X 0.000318271
3 *715:10 0.000318271
4 *715:10 *3766:A2 9.75779e-05
5 *715:10 *876:139 0.000181131
6 *177:10 *715:10 3.22879e-05
7 *326:10 *715:10 5.2894e-05
8 *606:45 *715:10 0.000670743
9 *644:39 *715:10 0.000235641
*RES
1 *4219:X *715:10 34.745 
2 *715:10 *3388:A1 23 
*END

*D_NET *716 0.00081401
*CONN
*I *3917:D I *D sky130_fd_sc_hd__dfrtp_2
*I *4220:X O *D sky130_fd_sc_hd__dlygate4sd3_1
*CAP
1 *3917:D 0
2 *4220:X 0.000225691
3 *716:10 0.000225691
4 *716:10 *877:14 0.000110913
5 *716:10 *1041:10 2.5415e-05
6 *606:45 *716:10 0.0002263
*RES
1 *4220:X *716:10 42.0807 
2 *716:10 *3917:D 38 
*END

*D_NET *717 0.00170368
*CONN
*I *3660:A1 I *D sky130_fd_sc_hd__mux2_1
*I *4342:X O *D sky130_fd_sc_hd__clkdlybuf4s25_1
*CAP
1 *3660:A1 4.45235e-05
2 *4342:X 0.000382371
3 *717:8 0.000426895
4 *3660:A1 *857:8 9.41704e-05
5 *3660:A1 *910:60 2.02872e-05
6 *3660:A1 *1018:23 5.3304e-05
7 *717:8 *3394:A2 0.000127656
8 *717:8 *857:14 1.17256e-05
9 *717:8 *992:10 0
10 *717:8 *1018:23 0.000268738
11 *717:8 *1019:10 0.000129897
12 *291:10 *717:8 0.00014411
*RES
1 *4342:X *717:8 45.54 
2 *717:8 *3660:A1 39.0979 
*END

*D_NET *718 0.00178931
*CONN
*I *3659:A0 I *D sky130_fd_sc_hd__mux2_1
*I *4221:X O *D sky130_fd_sc_hd__dlygate4sd3_1
*CAP
1 *3659:A0 0
2 *4221:X 0.000416421
3 *718:10 0.000416421
4 *718:10 *860:16 0.000184527
5 *718:10 *992:10 0.000134385
6 *55:18 *718:10 0.000319553
7 *290:10 *718:10 0.000318008
*RES
1 *4221:X *718:10 48.295 
2 *718:10 *3659:A0 38 
*END

*D_NET *719 0.00127723
*CONN
*I *3362:S I *D sky130_fd_sc_hd__mux2_1
*I *4222:X O *D sky130_fd_sc_hd__dlygate4sd3_1
*CAP
1 *3362:S 0
2 *4222:X 0.000233003
3 *719:8 0.000233003
4 *719:8 *993:14 0.000568708
5 *719:8 *1067:28 6.96227e-05
6 *120:10 *719:8 0.000172894
*RES
1 *4222:X *719:8 45.54 
2 *719:8 *3362:S 38 
*END

*D_NET *720 0.000859918
*CONN
*I *3704:A1 I *D sky130_fd_sc_hd__o22a_2
*I *4223:X O *D sky130_fd_sc_hd__dlygate4sd3_1
*CAP
1 *3704:A1 0
2 *4223:X 0.000263588
3 *720:10 0.000263588
4 *720:10 *951:10 2.35118e-06
5 *720:10 *951:25 1.223e-05
6 *435:12 *720:10 0.000234542
7 *435:61 *720:10 8.36198e-05
*RES
1 *4223:X *720:10 42.4329 
2 *720:10 *3704:A1 38 
*END

*D_NET *721 0.000130661
*CONN
*I *3702:A1 I *D sky130_fd_sc_hd__o22a_2
*I *4224:X O *D sky130_fd_sc_hd__dlygate4sd3_1
*CAP
1 *3702:A1 7.04532e-06
2 *4224:X 7.04532e-06
3 *438:8 *3702:A1 5.82853e-05
4 *569:24 *3702:A1 5.82853e-05
*RES
1 *4224:X *3702:A1 46.6214 
*END

*D_NET *722 0.000624837
*CONN
*I *3700:A1 I *D sky130_fd_sc_hd__o22a_2
*I *4225:X O *D sky130_fd_sc_hd__dlygate4sd3_1
*CAP
1 *3700:A1 6.14794e-05
2 *4225:X 5.86447e-05
3 *722:8 0.000120124
4 *3700:A1 *954:10 3.7122e-06
5 *722:8 *955:21 0.000136905
6 *3899:CLK *3700:A1 5.3304e-05
7 *3899:CLK *722:8 0.000137744
8 *435:14 *3700:A1 2.64616e-05
9 *435:22 *3700:A1 2.64616e-05
*RES
1 *4225:X *722:8 39.9057 
2 *722:8 *3700:A1 39.0979 
*END

*D_NET *723 0.00275267
*CONN
*I *3398:A I *D sky130_fd_sc_hd__nor2_2
*I *3390:A1 I *D sky130_fd_sc_hd__o21a_2
*I *4226:X O *D sky130_fd_sc_hd__dlygate4sd3_1
*CAP
1 *3398:A 0.000222976
2 *3390:A1 0.000277373
3 *4226:X 0.00023327
4 *723:10 0.000733618
5 *3390:A1 *3846:A1 1.97329e-05
6 *3390:A1 *878:92 6.12496e-06
7 *3390:A1 *878:109 4.21281e-05
8 *3398:A *3846:A1 0
9 *3398:A *911:72 1.14452e-05
10 *3398:A *911:89 0.000491467
11 *3398:A *1039:8 0
12 *723:10 *878:92 0
13 *723:10 *911:89 2.34898e-05
14 *723:10 *1034:6 3.16784e-05
15 *723:10 *1034:14 1.59094e-05
16 *723:10 *1034:25 9.03784e-05
17 *723:10 *1034:39 9.58714e-05
18 *3390:B1 *3390:A1 0.000187129
19 *175:8 *723:10 3.55887e-05
20 *257:10 *3390:A1 3.70187e-05
21 *257:10 *3398:A 0.00019747
22 *359:8 *3398:A 0
*RES
1 *4226:X *723:10 42.6089 
2 *723:10 *3390:A1 44.0796 
3 *723:10 *3398:A 45.2811 
*END

*D_NET *724 0.000378608
*CONN
*I *3389:B1 I *D sky130_fd_sc_hd__a21o_2
*I *4227:X O *D sky130_fd_sc_hd__dlygate4sd3_1
*CAP
1 *3389:B1 0
2 *4227:X 4.89004e-05
3 *724:8 4.89004e-05
4 *724:8 *880:78 0.000140404
5 *724:8 *911:89 0.000140404
*RES
1 *4227:X *724:8 39.9057 
2 *724:8 *3389:B1 38 
*END

*D_NET *725 0.00271086
*CONN
*I *3748:A0 I *D sky130_fd_sc_hd__mux2_1
*I *3402:B I *D sky130_fd_sc_hd__and2_2
*I *4228:X O *D sky130_fd_sc_hd__dlygate4sd3_1
*CAP
1 *3748:A0 6.00868e-05
2 *3402:B 0.000448511
3 *4228:X 0.000221573
4 *725:8 0.000609997
5 *3402:B *3661:B1_N 0
6 *3402:B *907:32 0
7 *3402:B *907:36 1.01436e-05
8 *3402:B *939:12 0
9 *3748:A0 *3748:A1 5.67058e-05
10 *3748:A0 *939:16 0.000144067
11 *3662:B1 *3402:B 5.75972e-05
12 *3905:RESET_B *3402:B 0
13 *3982:SET_B *3402:B 5.21024e-05
14 *4016:CLK *3748:A0 0.00031495
15 *4016:CLK *725:8 0.0002263
16 *292:8 *3402:B 0.000351599
17 *643:58 *3402:B 0.000111341
18 *643:67 *3402:B 4.5882e-05
*RES
1 *4228:X *725:8 40.5271 
2 *725:8 *3402:B 48.7093 
3 *4228:X *3748:A0 49.48 
*END

*D_NET *726 0.000551565
*CONN
*I *4052:D I *D sky130_fd_sc_hd__dfrtp_2
*I *4229:X O *D sky130_fd_sc_hd__dlygate4sd3_1
*CAP
1 *4052:D 3.2572e-05
2 *4229:X 9.08272e-05
3 *726:10 0.000123399
4 *4052:CLK *4052:D 2.93747e-05
5 *11:10 *726:10 7.90384e-05
6 *340:10 *726:10 0.000139647
7 *354:22 *726:10 5.67058e-05
*RES
1 *4229:X *726:10 40.5271 
2 *726:10 *4052:D 38.6214 
*END

*D_NET *727 0.00156012
*CONN
*I *3698:A1 I *D sky130_fd_sc_hd__o22a_2
*I *4230:X O *D sky130_fd_sc_hd__dlygate4sd3_1
*CAP
1 *3698:A1 0.000402336
2 *4230:X 9.5414e-05
3 *727:8 0.00049775
4 *3698:A1 *3758:A0 7.40718e-05
5 *3698:A1 *905:71 0.00018515
6 *727:8 *4057:RESET_B 5.61311e-05
7 *727:8 *956:12 3.31127e-05
8 *727:8 *956:27 0
9 *3698:A2 *3698:A1 0.000140312
10 *567:16 *3698:A1 7.58413e-05
*RES
1 *4230:X *727:8 40.2579 
2 *727:8 *3698:A1 46.265 
*END

*D_NET *728 0.00647491
*CONN
*I *3659:A1 I *D sky130_fd_sc_hd__mux2_1
*I *4343:X O *D sky130_fd_sc_hd__clkdlybuf4s25_1
*CAP
1 *3659:A1 0
2 *4343:X 0.00147696
3 *728:14 0.000571447
4 *728:6 0.00204841
5 *728:6 *860:16 0.000264553
6 *728:6 *1011:6 0.000249258
7 *728:6 *1011:42 0.000803038
8 *728:14 *4218:A 0.000139352
9 *728:14 *858:8 0
10 *728:14 *859:18 3.95717e-05
11 *728:14 *910:10 3.35712e-05
12 *728:14 *910:50 0.000155277
13 *728:14 *910:60 9.58714e-05
14 *728:14 *1013:10 0.000190625
15 *728:14 *1013:29 0.000266259
16 *728:14 *1026:12 2.54046e-05
17 *3881:RESET_B *728:14 2.2154e-05
18 *714:6 *728:14 9.31593e-05
*RES
1 *4343:X *728:6 45.0607 
2 *728:6 *728:14 43.7543 
3 *728:14 *3659:A1 23 
*END

*D_NET *729 0.00108628
*CONN
*I *3688:A1 I *D sky130_fd_sc_hd__o21a_2
*I *4231:X O *D sky130_fd_sc_hd__dlygate4sd3_1
*CAP
1 *3688:A1 0
2 *4231:X 0.000502773
3 *729:10 0.000502773
4 *729:10 *950:8 0
5 *3949:CLK *729:10 0
6 *306:10 *729:10 0
7 *313:10 *729:10 8.07381e-05
8 *634:110 *729:10 0
*RES
1 *4231:X *729:10 47.1143 
2 *729:10 *3688:A1 38 
*END

*D_NET *730 0.000538665
*CONN
*I *3429:A2 I *D sky130_fd_sc_hd__a22o_2
*I *4232:X O *D sky130_fd_sc_hd__dlygate4sd3_1
*CAP
1 *3429:A2 7.82259e-06
2 *4232:X 0.000169823
3 *730:10 0.000177646
4 *3429:A2 *911:30 1.55941e-05
5 *730:10 *911:30 8.26569e-05
6 *730:10 *1088:10 8.51225e-05
*RES
1 *4232:X *730:10 41.3557 
2 *730:10 *3429:A2 38.1709 
*END

*D_NET *731 0.000611855
*CONN
*I *3935:D I *D sky130_fd_sc_hd__dfrtp_2
*I *4233:X O *D sky130_fd_sc_hd__dlygate4sd3_1
*CAP
1 *3935:D 0
2 *4233:X 0.000165116
3 *731:10 0.000165116
4 *611:8 *731:10 5.12254e-05
5 *611:52 *731:10 0.000114083
6 *658:105 *731:10 0.000116314
*RES
1 *4233:X *731:10 41.1279 
2 *731:10 *3935:D 38 
*END

*D_NET *732 0.00104074
*CONN
*I *3391:B1 I *D sky130_fd_sc_hd__a21o_2
*I *4234:X O *D sky130_fd_sc_hd__dlygate4sd3_1
*CAP
1 *3391:B1 0
2 *4234:X 0.00033983
3 *732:10 0.00033983
4 *732:10 *4169:A 0
5 *732:10 *911:10 0
6 *732:10 *911:147 0.00012838
7 *732:10 *1030:12 5.38135e-05
8 *324:10 *732:10 0
9 *408:10 *732:10 0.000141869
10 *659:90 *732:10 3.70187e-05
*RES
1 *4234:X *732:10 45.1257 
2 *732:10 *3391:B1 38 
*END

*D_NET *733 0.00834875
*CONN
*I *3521:A I *D sky130_fd_sc_hd__or2_2
*I *3428:B1 I *D sky130_fd_sc_hd__a21o_2
*I *4235:X O *D sky130_fd_sc_hd__dlygate4sd3_1
*CAP
1 *3521:A 0.00124776
2 *3428:B1 0.000976125
3 *4235:X 0
4 *733:4 0.00222388
5 *3428:B1 *3428:A2 0.000738568
6 *3428:B1 *3625:B 0.000117759
7 *3428:B1 *1089:34 0.00126991
8 *3521:A *887:24 3.87132e-05
9 *3521:A *1089:34 0.000141154
10 *3521:A *1096:16 0.00010018
11 *3846:B1 *3428:B1 0.000460899
12 *4099:A *3428:B1 2.4754e-05
13 *4099:A *3521:A 0.000100051
14 *4193:A *3428:B1 0.000138444
15 *100:10 *3428:B1 5.3304e-05
16 *360:14 *3428:B1 1.84959e-05
17 *607:58 *3521:A 1.93498e-05
18 *645:59 *3428:B1 6.53382e-05
19 *658:50 *3521:A 0.000400193
20 *658:56 *3521:A 0.000213872
*RES
1 *4235:X *733:4 23 
2 *733:4 *3428:B1 49.5143 
3 *733:4 *3521:A 42.2436 
*END

*D_NET *734 0.000820932
*CONN
*I *3936:D I *D sky130_fd_sc_hd__dfrtp_2
*I *4236:X O *D sky130_fd_sc_hd__dlygate4sd3_1
*CAP
1 *3936:D 0
2 *4236:X 0.000120485
3 *734:8 0.000120485
4 *734:8 *993:14 0.000113624
5 *734:8 *993:23 8.15327e-05
6 *734:8 *1093:46 0.000384805
*RES
1 *4236:X *734:8 43.075 
2 *734:8 *3936:D 38 
*END

*D_NET *735 0.000797965
*CONN
*I *3382:A1 I *D sky130_fd_sc_hd__a21oi_2
*I *4237:X O *D sky130_fd_sc_hd__dlygate4sd3_1
*CAP
1 *3382:A1 0
2 *4237:X 0.000116988
3 *735:10 0.000116988
4 *735:10 *1044:43 0.000147134
5 *735:10 *1048:35 0.000368552
6 *3382:A2 *735:10 3.79076e-05
7 *355:6 *735:10 1.03955e-05
*RES
1 *4237:X *735:10 27.6296 
2 *735:10 *3382:A1 23 
*END

*D_NET *736 0.0013096
*CONN
*I *3467:A2 I *D sky130_fd_sc_hd__a22o_2
*I *3455:A2 I *D sky130_fd_sc_hd__a21o_2
*I *4238:X O *D sky130_fd_sc_hd__dlygate4sd3_1
*CAP
1 *3467:A2 0
2 *3455:A2 7.57869e-05
3 *4238:X 0
4 *736:23 0.000280872
5 *736:4 0.000356659
6 *3455:A2 *3332:A 6.75128e-05
7 *736:23 *3332:A 2.69857e-05
8 *736:23 *3467:A1 1.55941e-05
9 *736:23 *3680:B2 0.000144812
10 *736:23 *1006:10 8.4047e-05
11 *4126:A *736:23 1.46586e-05
12 *111:10 *736:23 0
13 *365:6 *3455:A2 0.000143655
14 *651:34 *3455:A2 9.90162e-05
*RES
1 *4238:X *736:4 23 
2 *736:4 *3455:A2 26.0243 
3 *736:4 *736:23 35.8673 
4 *736:23 *3467:A2 23 
*END

*D_NET *737 0.00088917
*CONN
*I *3561:A1 I *D sky130_fd_sc_hd__o21a_2
*I *4239:X O *D sky130_fd_sc_hd__dlygate4sd3_1
*CAP
1 *3561:A1 0
2 *4239:X 0.000279047
3 *737:8 0.000279047
4 *3557:B *737:8 0.000184527
5 *3557:C *737:8 0.000146549
*RES
1 *4239:X *737:8 28.4064 
2 *737:8 *3561:A1 23 
*END

*D_NET *738 0.000414476
*CONN
*I *3470:B2 I *D sky130_fd_sc_hd__a22o_2
*I *4240:X O *D sky130_fd_sc_hd__dlygate4sd3_1
*CAP
1 *3470:B2 5.145e-05
2 *4240:X 7.97771e-05
3 *738:8 0.000131227
4 *738:8 *936:29 0
5 *604:101 *738:8 0.000141879
6 *636:109 *738:8 1.01436e-05
*RES
1 *4240:X *738:8 39.9057 
2 *738:8 *3470:B2 38.6214 
*END

*D_NET *739 0.00327495
*CONN
*I *3641:A1 I *D sky130_fd_sc_hd__mux2_1
*I *4344:X O *D sky130_fd_sc_hd__clkdlybuf4s25_1
*CAP
1 *3641:A1 0
2 *4344:X 0.00055857
3 *739:18 0.000622502
4 *739:8 0.00118107
5 *739:8 *870:16 0.000102289
6 *739:18 *3707:A 0.000385716
7 *739:18 *3707:B 0
8 *739:18 *3709:B 0.000166532
9 *739:18 *805:6 0.000229793
10 *359:57 *739:18 1.01436e-05
11 *573:8 *739:18 0
12 *593:27 *739:8 1.83327e-05
13 *623:107 *739:18 0
14 *640:28 *739:18 0
*RES
1 *4344:X *739:8 47.6736 
2 *739:8 *739:18 28.2986 
3 *739:18 *3641:A1 23 
*END

*D_NET *740 0.00112617
*CONN
*I *3962:D I *D sky130_fd_sc_hd__dfrtp_2
*I *4345:X O *D sky130_fd_sc_hd__clkdlybuf4s25_1
*CAP
1 *3962:D 0
2 *4345:X 0.000536377
3 *740:10 0.000536377
4 *740:10 *908:16 7.53384e-06
5 *3962:CLK *740:10 4.5882e-05
*RES
1 *4345:X *740:10 45.2914 
2 *740:10 *3962:D 38 
*END

*D_NET *741 0.000695294
*CONN
*I *3958:D I *D sky130_fd_sc_hd__dfrtp_2
*I *4241:X O *D sky130_fd_sc_hd__dlygate4sd3_1
*CAP
1 *3958:D 4.54044e-05
2 *4241:X 0.000114458
3 *741:8 0.000159863
4 *741:8 *880:38 0.000136486
5 *741:8 *939:60 0.000212621
6 *370:14 *741:8 0
7 *621:91 *3958:D 2.64616e-05
*RES
1 *4241:X *741:8 40.9621 
2 *741:8 *3958:D 38.6214 
*END

*D_NET *742 0.00127427
*CONN
*I *3694:A1 I *D sky130_fd_sc_hd__a22o_2
*I *4242:X O *D sky130_fd_sc_hd__dlygate4sd3_1
*CAP
1 *3694:A1 0
2 *4242:X 0.000515323
3 *742:10 0.000515323
4 *434:43 *742:10 1.13812e-05
5 *540:8 *742:10 6.04475e-05
6 *632:12 *742:10 0.000171796
*RES
1 *4242:X *742:10 46.12 
2 *742:10 *3694:A1 38 
*END

*D_NET *743 0.000859471
*CONN
*I *3696:A1 I *D sky130_fd_sc_hd__a22o_2
*I *4243:X O *D sky130_fd_sc_hd__dlygate4sd3_1
*CAP
1 *3696:A1 9.05153e-05
2 *4243:X 0.000135744
3 *743:8 0.000226259
4 *3898:CLK *3696:A1 9.2057e-05
5 *562:22 *3696:A1 0.000138859
6 *564:14 *743:8 1.16455e-05
7 *566:10 *743:8 0.000164392
*RES
1 *4243:X *743:8 40.61 
2 *743:8 *3696:A1 40.0507 
*END

*D_NET *744 0.0012713
*CONN
*I *3692:A1 I *D sky130_fd_sc_hd__a22o_2
*I *4244:X O *D sky130_fd_sc_hd__dlygate4sd3_1
*CAP
1 *3692:A1 0.000324629
2 *4244:X 0.000221701
3 *744:8 0.00054633
4 *744:8 *4223:A 8.07381e-05
5 *3692:A2 *3692:A1 4.10403e-05
6 *307:10 *3692:A1 5.68576e-05
*RES
1 *4244:X *744:8 42.3707 
2 *744:8 *3692:A1 43.3857 
*END

*D_NET *745 0.00386947
*CONN
*I *3650:A1 I *D sky130_fd_sc_hd__o21a_2
*I *3395:B I *D sky130_fd_sc_hd__or3_2
*I *4245:X O *D sky130_fd_sc_hd__dlygate4sd3_1
*CAP
1 *3650:A1 0
2 *3395:B 0.000193417
3 *4245:X 0.000471692
4 *745:31 0.000477719
5 *745:10 0.000671135
6 *745:8 0.000471692
7 *3395:B *1013:29 0.000174898
8 *745:8 *3649:B 0.000311096
9 *745:8 *919:10 1.78126e-05
10 *745:8 *1013:29 0.000366819
11 *745:31 *896:45 0
12 *745:31 *1013:29 4.53082e-05
13 *3650:B1 *745:31 1.1258e-05
14 *3967:CLK *745:31 2.53095e-05
15 *232:8 *745:31 1.01436e-05
16 *272:10 *745:31 7.40805e-05
17 *543:25 *745:31 0.000145171
18 *647:44 *745:8 0
19 *654:51 *745:8 1.49305e-05
20 *655:28 *745:31 0.000276734
21 *657:73 *745:31 0
22 *674:10 *745:31 0.000110258
*RES
1 *4245:X *745:8 49.4136 
2 *745:8 *745:10 15 
3 *745:10 *3395:B 27.3293 
4 *745:10 *745:31 40.5436 
5 *745:31 *3650:A1 23 
*END

*D_NET *746 0.00101236
*CONN
*I *3863:D I *D sky130_fd_sc_hd__dfrtp_2
*I *4246:X O *D sky130_fd_sc_hd__dlygate4sd3_1
*CAP
1 *3863:D 1.25102e-05
2 *4246:X 0.000246216
3 *746:10 0.000258726
4 *746:10 *1010:12 5.3304e-05
5 *746:10 *1011:10 0.000313391
6 *3863:RESET_B *3863:D 5.50049e-05
7 *3964:RESET_B *746:10 0
8 *4124:A *3863:D 3.22879e-05
9 *409:12 *746:10 0
10 *613:22 *746:10 4.0919e-05
*RES
1 *4246:X *746:10 42.9921 
2 *746:10 *3863:D 38.6214 
*END

*D_NET *747 0.00170847
*CONN
*I *3605:A1 I *D sky130_fd_sc_hd__o21a_2
*I *4247:X O *D sky130_fd_sc_hd__dlygate4sd3_1
*CAP
1 *3605:A1 0.00011947
2 *4247:X 0.000220363
3 *747:10 0.000339833
4 *3605:A1 *3601:A 0.000311549
5 *3503:B *3605:A1 4.94073e-05
6 *3601:C *3605:A1 0.000138262
7 *523:10 *747:10 0.000164291
8 *609:101 *747:10 0.000365295
*RES
1 *4247:X *747:10 43.3443 
2 *747:10 *3605:A1 42.4536 
*END

*D_NET *748 0.000381852
*CONN
*I *4032:D I *D sky130_fd_sc_hd__dfrtp_2
*I *4248:X O *D sky130_fd_sc_hd__dlygate4sd3_1
*CAP
1 *4032:D 0
2 *4248:X 0.000143336
3 *748:10 0.000143336
4 *748:10 *887:119 5.70419e-05
5 *748:10 *901:122 3.81391e-05
*RES
1 *4248:X *748:10 40.6514 
2 *748:10 *4032:D 38 
*END

*D_NET *749 0.00420414
*CONN
*I *3679:B2 I *D sky130_fd_sc_hd__a22o_2
*I *3756:A0 I *D sky130_fd_sc_hd__mux2_1
*I *3401:A I *D sky130_fd_sc_hd__and2_2
*I *4249:X O *D sky130_fd_sc_hd__dlygate4sd3_1
*CAP
1 *3679:B2 0.000356936
2 *3756:A0 0.000152527
3 *3401:A 0
4 *4249:X 0
5 *749:12 0.000757841
6 *749:4 0.000962249
7 *3679:B2 *936:41 1.84962e-05
8 *3756:A0 *3756:A1 5.3304e-05
9 *3756:A0 *907:40 9.58714e-05
10 *3756:A0 *907:46 4.38084e-05
11 *3756:A0 *961:10 2.18506e-05
12 *749:12 *3401:B 5.3304e-05
13 *749:12 *3525:A1 1.69668e-05
14 *749:12 *905:16 6.4393e-05
15 *749:12 *907:46 0.00027922
16 *749:12 *948:10 8.4047e-05
17 *749:12 *961:10 0.000648016
18 *749:12 *961:72 0.000174313
19 *749:12 *1067:42 0
20 *3983:RESET_B *749:12 0
21 *73:6 *749:12 0.000148688
22 *73:27 *749:12 0.00013359
23 *112:8 *749:12 0.000138718
24 *646:43 *749:12 0
*RES
1 *4249:X *749:4 23 
2 *749:4 *749:12 47.7314 
3 *749:12 *3401:A 23 
4 *749:12 *3756:A0 26.5007 
5 *749:4 *3679:B2 27.9507 
*END

*D_NET *750 0.000823567
*CONN
*I *3892:D I *D sky130_fd_sc_hd__dfrtp_2
*I *4250:X O *D sky130_fd_sc_hd__dlygate4sd3_1
*CAP
1 *3892:D 0
2 *4250:X 0.000368209
3 *750:10 0.000368209
4 *750:10 *949:25 1.01436e-05
5 *750:10 *989:26 0
6 *3744:B1 *750:10 0
7 *603:43 *750:10 7.70046e-05
*RES
1 *4250:X *750:10 43.3857 
2 *750:10 *3892:D 38 
*END

*D_NET *751 0.00289175
*CONN
*I *4047:D I *D sky130_fd_sc_hd__dfrtp_2
*I *4346:X O *D sky130_fd_sc_hd__clkdlybuf4s25_1
*CAP
1 *4047:D 0.000531119
2 *4346:X 0.000387868
3 *751:10 0.000918987
4 *751:10 *3634:A 0.000128486
5 *751:10 *4180:A 0.000295413
6 *751:10 *1117:8 1.0092e-05
7 *4048:CLK *4047:D 0.000352677
8 *542:14 *751:10 0.000184527
9 *656:8 *751:10 0
10 *666:8 *751:10 8.25811e-05
*RES
1 *4346:X *751:10 45.83 
2 *751:10 *4047:D 45.3587 
*END

*D_NET *752 0.00238267
*CONN
*I *3456:B1 I *D sky130_fd_sc_hd__a22o_2
*I *3461:B1 I *D sky130_fd_sc_hd__a221o_2
*I *3523:S I *D sky130_fd_sc_hd__mux2_1
*I *4251:X O *D sky130_fd_sc_hd__dlygate4sd3_1
*CAP
1 *3456:B1 9.00048e-05
2 *3461:B1 0
3 *3523:S 0.000176049
4 *4251:X 0
5 *752:21 0.000128852
6 *752:6 0.000492804
7 *752:4 0.000277909
8 *3456:B1 *1003:61 8.35282e-05
9 *752:6 *1003:61 0.000228909
10 *752:21 *778:8 0.000348456
11 *3454:A1 *752:21 0.000113153
12 *3456:B2 *3456:B1 3.81946e-05
13 *3456:B2 *3523:S 5.61579e-05
14 *3456:B2 *752:6 0.00013352
15 *3950:RESET_B *752:21 0.000186079
16 *373:10 *752:21 6.02277e-06
17 *375:6 *3523:S 2.30292e-05
*RES
1 *4251:X *752:4 23 
2 *752:4 *752:6 4.43286 
3 *752:6 *3523:S 26.0243 
4 *752:6 *752:21 34.7229 
5 *752:21 *3461:B1 23 
6 *752:4 *3456:B1 25.5686 
*END

*D_NET *753 0.00586667
*CONN
*I *3526:A1 I *D sky130_fd_sc_hd__o21ai_2
*I *4252:X O *D sky130_fd_sc_hd__dlygate4sd3_1
*CAP
1 *3526:A1 0
2 *4252:X 4.96719e-05
3 *753:12 0.00115642
4 *753:8 0.00120609
5 *753:12 *3438:A2 0.000197479
6 *753:12 *763:12 0.000911096
7 *753:12 *993:38 0
8 *753:12 *1035:25 0
9 *753:12 *1062:10 0.000154147
10 *753:12 *1062:30 0.000293134
11 *3442:A2 *753:12 0
12 *89:12 *753:12 0.000150675
13 *367:10 *753:12 0.000352547
14 *645:42 *753:12 3.64353e-05
15 *645:59 *753:12 0.000604861
16 *645:70 *753:12 0.000448193
17 *686:10 *753:12 4.08537e-05
18 *686:40 *753:12 0.00026506
*RES
1 *4252:X *753:8 38.6214 
2 *753:8 *753:12 48.2464 
3 *753:12 *3526:A1 23 
*END

*D_NET *754 0.000488916
*CONN
*I *3996:D I *D sky130_fd_sc_hd__dfstp_2
*I *4253:X O *D sky130_fd_sc_hd__dlygate4sd3_1
*CAP
1 *3996:D 0
2 *4253:X 0.00020356
3 *754:10 0.00020356
4 *754:10 *879:29 8.1796e-05
5 *754:10 *893:55 0
6 *215:8 *754:10 0
7 *628:42 *754:10 0
*RES
1 *4253:X *754:10 41.48 
2 *754:10 *3996:D 38 
*END

*D_NET *755 0.00366704
*CONN
*I *3756:A1 I *D sky130_fd_sc_hd__mux2_1
*I *3757:A0 I *D sky130_fd_sc_hd__mux2_1
*I *4254:X O *D sky130_fd_sc_hd__dlygate4sd3_1
*CAP
1 *3756:A1 4.09526e-05
2 *3757:A0 0
3 *4254:X 0.000284192
4 *755:22 0.000836622
5 *755:12 0.00116177
6 *755:22 *3757:A1 2.4754e-05
7 *755:22 *3757:S 5.9836e-05
8 *755:22 *3759:A0 1.32314e-05
9 *755:22 *905:28 0.000250371
10 *755:22 *905:30 1.03836e-05
11 *755:22 *961:10 3.21327e-05
12 *3444:A *755:12 5.50106e-05
13 *3756:A0 *3756:A1 5.3304e-05
14 *4060:RESET_B *755:22 0.000141888
15 *88:10 *755:12 0.00014411
16 *114:10 *755:12 0
17 *114:10 *755:22 0
18 *348:10 *755:22 0
19 *604:68 *755:22 0.00023032
20 *617:32 *755:12 2.70469e-05
21 *617:36 *755:12 5.97612e-05
22 *617:36 *755:22 0.000241355
*RES
1 *4254:X *755:12 43.6136 
2 *755:12 *755:22 34.14 
3 *755:22 *3757:A0 23 
4 *755:12 *3756:A1 38.6214 
*END

*D_NET *756 0.0014263
*CONN
*I *3451:B1 I *D sky130_fd_sc_hd__a22o_2
*I *4255:X O *D sky130_fd_sc_hd__dlygate4sd3_1
*CAP
1 *3451:B1 0.000284772
2 *4255:X 0.000183884
3 *756:8 0.000468656
4 *3451:B1 *1003:76 0.000439375
5 *756:8 *3340:A 0
6 *756:8 *978:26 1.62015e-05
7 *4256:A *3451:B1 3.34129e-05
8 *616:46 *756:8 0
*RES
1 *4255:X *756:8 40.61 
2 *756:8 *3451:B1 43.8621 
*END

*D_NET *757 0.00087985
*CONN
*I *3953:D I *D sky130_fd_sc_hd__dfrtp_2
*I *4256:X O *D sky130_fd_sc_hd__dlygate4sd3_1
*CAP
1 *3953:D 0.000120155
2 *4256:X 0.000193095
3 *757:8 0.00031325
4 *757:8 *778:8 0
5 *757:8 *978:26 0.00014411
6 *3523:A0 *757:8 0
7 *616:23 *3953:D 3.22879e-05
8 *616:29 *3953:D 7.69528e-05
9 *616:29 *757:8 0
*RES
1 *4256:X *757:8 42.0186 
2 *757:8 *3953:D 39.9575 
*END

*D_NET *758 0.00192094
*CONN
*I *3654:A1 I *D sky130_fd_sc_hd__o21a_2
*I *4257:X O *D sky130_fd_sc_hd__dlygate4sd3_1
*CAP
1 *3654:A1 0
2 *4257:X 0.000128973
3 *758:12 0.000546435
4 *758:8 0.000675409
5 *758:12 *759:8 0
6 *758:12 *861:8 0.000141282
7 *758:12 *874:10 0
8 *3878:RESET_B *758:12 0.00013681
9 *286:10 *758:12 0.000178794
10 *287:8 *758:12 0
11 *543:31 *758:12 0
12 *545:8 *758:12 0.000113235
*RES
1 *4257:X *758:8 39.5743 
2 *758:8 *758:12 28.1743 
3 *758:12 *3654:A1 23 
*END

*D_NET *759 0.000808077
*CONN
*I *3652:A1 I *D sky130_fd_sc_hd__o21a_2
*I *4258:X O *D sky130_fd_sc_hd__dlygate4sd3_1
*CAP
1 *3652:A1 5.97804e-05
2 *4258:X 0.000121644
3 *759:8 0.000181425
4 *3652:A1 *4167:A 0.000124874
5 *759:8 *861:8 8.78864e-05
6 *759:8 *910:72 0
7 *3652:B1 *3652:A1 0.000230718
8 *543:31 *759:8 1.74874e-06
9 *758:12 *759:8 0
*RES
1 *4258:X *759:8 40.2579 
2 *759:8 *3652:A1 40.5271 
*END

*D_NET *760 0.00130771
*CONN
*I *3758:A1 I *D sky130_fd_sc_hd__mux2_1
*I *3753:A0 I *D sky130_fd_sc_hd__mux2_1
*I *4259:X O *D sky130_fd_sc_hd__dlygate4sd3_1
*CAP
1 *3758:A1 0
2 *3753:A0 0
3 *4259:X 0.000205868
4 *760:16 0.00026442
5 *760:6 0.000470288
6 *760:6 *3758:A0 4.5051e-05
7 *760:6 *905:71 1.40958e-05
8 *760:16 *964:37 3.12831e-05
9 *567:16 *760:6 0.000130971
10 *567:16 *760:16 0.000102389
11 *608:77 *760:16 4.334e-05
*RES
1 *4259:X *760:6 26.0036 
2 *760:6 *760:16 33.8736 
3 *760:16 *3753:A0 23 
4 *760:6 *3758:A1 23 
*END

*D_NET *761 0.000618081
*CONN
*I *4057:D I *D sky130_fd_sc_hd__dfrtp_2
*I *4260:X O *D sky130_fd_sc_hd__dlygate4sd3_1
*CAP
1 *4057:D 4.24639e-05
2 *4260:X 0.000104528
3 *761:10 0.000146992
4 *4057:D *964:12 2.64616e-05
5 *761:10 *964:37 0.000139647
6 *345:8 *761:10 1.83408e-05
7 *608:77 *761:10 0.000139647
*RES
1 *4260:X *761:10 40.5271 
2 *761:10 *4057:D 38.6214 
*END

*D_NET *762 0.000988089
*CONN
*I *3417:A I *D sky130_fd_sc_hd__or2_2
*I *3418:A I *D sky130_fd_sc_hd__nand2_2
*I *4347:X O *D sky130_fd_sc_hd__clkdlybuf4s25_1
*CAP
1 *3417:A 0.00011283
2 *3418:A 0
3 *4347:X 0.000136256
4 *762:10 0.000249087
5 *3415:A2 *3417:A 0
6 *3415:A2 *762:10 0
7 *3415:B1 *762:10 5.56203e-05
8 *3417:B *3417:A 0.000241616
9 *3417:B *762:10 1.14452e-05
10 *416:30 *762:10 0.000181235
*RES
1 *4347:X *762:10 41.0036 
2 *762:10 *3418:A 38 
3 *762:10 *3417:A 41.3143 
*END

*D_NET *763 0.0069642
*CONN
*I *3363:B1 I *D sky130_fd_sc_hd__a31o_2
*I *4261:X O *D sky130_fd_sc_hd__dlygate4sd3_1
*CAP
1 *3363:B1 0.000185152
2 *4261:X 0.000287685
3 *763:12 0.00154353
4 *763:8 0.00164606
5 *3363:B1 *3436:A1 2.18506e-05
6 *3363:B1 *3528:A2 0.000182826
7 *3363:B1 *993:58 9.50411e-05
8 *3363:B1 *1051:30 0.000215589
9 *3363:B1 *1051:39 5.12254e-05
10 *763:8 *880:91 0.000396689
11 *763:12 *764:8 3.884e-05
12 *763:12 *878:53 0
13 *763:12 *878:124 0
14 *763:12 *1051:20 3.0647e-05
15 *763:12 *1062:30 5.51222e-05
16 *763:12 *1063:29 6.79006e-05
17 *3528:B1 *763:12 0
18 *3944:D *763:12 0.000450183
19 *91:10 *763:12 0.000159787
20 *92:8 *763:12 0
21 *197:8 *763:12 5.80963e-05
22 *360:33 *763:12 0
23 *367:10 *763:12 0.000354778
24 *627:59 *763:12 5.19255e-05
25 *645:42 *763:12 0.000160182
26 *753:12 *763:12 0.000911096
*RES
1 *4261:X *763:8 42.4329 
2 *763:8 *763:12 47.8943 
3 *763:12 *3363:B1 28.8829 
*END

*D_NET *764 0.000853149
*CONN
*I *3438:B1 I *D sky130_fd_sc_hd__a22o_2
*I *4262:X O *D sky130_fd_sc_hd__dlygate4sd3_1
*CAP
1 *3438:B1 0.000122509
2 *4262:X 9.87672e-05
3 *764:8 0.000221276
4 *3438:B1 *3438:A2 0.000112165
5 *764:8 *878:124 4.85126e-05
6 *3435:B1 *3438:B1 6.26408e-05
7 *3438:B2 *3438:B1 4.26942e-06
8 *3442:B1 *3438:B1 7.77758e-05
9 *92:8 *764:8 3.70094e-05
10 *354:54 *3438:B1 2.93845e-05
11 *763:12 *764:8 3.884e-05
*RES
1 *4262:X *764:8 39.9057 
2 *764:8 *3438:B1 41.0243 
*END

*D_NET *765 0.00133014
*CONN
*I *3467:A1 I *D sky130_fd_sc_hd__a22o_2
*I *4263:X O *D sky130_fd_sc_hd__dlygate4sd3_1
*CAP
1 *3467:A1 0.000178524
2 *4263:X 0.000239729
3 *765:8 0.000418254
4 *765:8 *1006:22 0.00020395
5 *3823:B1 *765:8 0
6 *3951:RESET_B *765:8 0
7 *4126:A *3467:A1 0.00018486
8 *79:10 *3467:A1 8.92328e-05
9 *736:23 *3467:A1 1.55941e-05
*RES
1 *4263:X *765:8 43.4271 
2 *765:8 *3467:A1 41.9564 
*END

*D_NET *766 0.00369494
*CONN
*I *3433:B2 I *D sky130_fd_sc_hd__a22o_2
*I *3468:B2 I *D sky130_fd_sc_hd__a22o_2
*I *4264:X O *D sky130_fd_sc_hd__dlygate4sd3_1
*CAP
1 *3433:B2 0
2 *3468:B2 0.000101911
3 *4264:X 0.000112268
4 *766:27 0.000342428
5 *766:14 0.000912468
6 *766:6 0.00126525
7 *3468:B2 *978:18 1.21972e-05
8 *766:6 *979:10 1.40958e-05
9 *766:14 *4264:A 9.84851e-05
10 *766:14 *888:55 0
11 *766:14 *958:18 0.000299146
12 *766:14 *979:10 5.29672e-05
13 *766:14 *993:14 0
14 *766:27 *993:14 0
15 *3451:A1 *3468:B2 0.00026457
16 *78:8 *3468:B2 0.000116564
17 *78:14 *766:14 6.25829e-05
18 *365:16 *766:14 2.98653e-05
19 *603:13 *766:14 0
20 *603:13 *766:27 0
21 *603:55 *766:27 0
22 *617:130 *766:14 0
23 *638:59 *766:14 1.01436e-05
24 *697:10 *766:14 0
*RES
1 *4264:X *766:6 25.0507 
2 *766:6 *766:14 47.11 
3 *766:14 *3468:B2 26.0036 
4 *766:6 *766:27 35.7793 
5 *766:27 *3433:B2 23 
*END

*D_NET *767 0.00105457
*CONN
*I *3931:D I *D sky130_fd_sc_hd__dfstp_2
*I *4265:X O *D sky130_fd_sc_hd__dlygate4sd3_1
*CAP
1 *3931:D 0
2 *4265:X 0.000362173
3 *767:10 0.000362173
4 *767:10 *4278:A 3.22879e-05
5 *767:10 *911:42 5.31757e-05
6 *767:10 *993:14 0
7 *3936:CLK *767:10 7.28526e-05
8 *195:10 *767:10 0.000171906
9 *603:55 *767:10 0
*RES
1 *4265:X *767:10 45.25 
2 *767:10 *3931:D 38 
*END

*D_NET *768 0.00089241
*CONN
*I *3658:A1 I *D sky130_fd_sc_hd__o21a_2
*I *4266:X O *D sky130_fd_sc_hd__dlygate4sd3_1
*CAP
1 *3658:A1 0
2 *4266:X 0.000168983
3 *768:10 0.000168983
4 *768:10 *3656:A1 5.3304e-05
5 *768:10 *4070:A 4.53082e-05
6 *768:10 *910:72 8.19053e-05
7 *288:10 *768:10 0.000141344
8 *289:10 *768:10 1.09942e-05
9 *543:27 *768:10 1.00286e-05
10 *543:31 *768:10 2.28401e-05
11 *547:8 *768:10 0.00018872
*RES
1 *4266:X *768:10 42.5364 
2 *768:10 *3658:A1 38 
*END

*D_NET *769 0.00176997
*CONN
*I *3757:A1 I *D sky130_fd_sc_hd__mux2_1
*I *3759:A0 I *D sky130_fd_sc_hd__mux2_1
*I *4267:X O *D sky130_fd_sc_hd__dlygate4sd3_1
*CAP
1 *3757:A1 1.13283e-05
2 *3759:A0 0.000283915
3 *4267:X 0.000139937
4 *769:10 0.000295243
5 *769:8 0.000139937
6 *3757:A1 *905:30 5.50106e-05
7 *3759:A0 *3757:S 0
8 *3759:A0 *3759:A1 5.3304e-05
9 *3759:A0 *905:30 0.000177127
10 *3759:A0 *905:34 4.79008e-05
11 *769:8 *3621:A1 0.000353858
12 *769:8 *3623:A1 9.63918e-05
13 *769:8 *965:27 7.80354e-05
14 *755:22 *3757:A1 2.4754e-05
15 *755:22 *3759:A0 1.32314e-05
*RES
1 *4267:X *769:8 42.7229 
2 *769:8 *769:10 15 
3 *769:10 *3759:A0 28.8829 
4 *769:10 *3757:A1 23.6214 
*END

*D_NET *770 0.00241003
*CONN
*I *3656:A1 I *D sky130_fd_sc_hd__o21a_2
*I *4268:X O *D sky130_fd_sc_hd__dlygate4sd3_1
*CAP
1 *3656:A1 0.000681648
2 *4268:X 9.95856e-05
3 *770:10 0.000781234
4 *3656:A1 *4070:A 5.3304e-05
5 *3656:A1 *1022:12 9.8592e-06
6 *770:10 *1015:8 8.57577e-05
7 *288:10 *3656:A1 2.02872e-05
8 *605:56 *770:10 1.59094e-05
9 *614:8 *3656:A1 0.000364782
10 *614:101 *3656:A1 0.000160743
11 *647:44 *770:10 8.36198e-05
12 *768:10 *3656:A1 5.3304e-05
*RES
1 *4268:X *770:10 39.8229 
2 *770:10 *3656:A1 48.1914 
*END

*D_NET *771 0.00205625
*CONN
*I *3750:A0 I *D sky130_fd_sc_hd__mux2_1
*I *3747:A1 I *D sky130_fd_sc_hd__mux2_1
*I *4269:X O *D sky130_fd_sc_hd__dlygate4sd3_1
*CAP
1 *3750:A0 0
2 *3747:A1 0
3 *4269:X 9.69362e-05
4 *771:25 0.000165928
5 *771:14 0.00019447
6 *771:6 0.000457334
7 *771:25 *907:121 0.000487154
8 *337:10 *771:25 0
9 *640:28 *771:25 0.00026959
10 *640:35 *771:14 0.000136761
11 *640:35 *771:25 0.000248076
*RES
1 *4269:X *771:6 24.0979 
2 *771:6 *771:14 33.0036 
3 *771:14 *3747:A1 23 
4 *771:6 *771:25 36.8357 
5 *771:25 *3750:A0 23 
*END

*D_NET *772 0.00018447
*CONN
*I *4054:D I *D sky130_fd_sc_hd__dfrtp_2
*I *4270:X O *D sky130_fd_sc_hd__dlygate4sd3_1
*CAP
1 *4054:D 0
2 *4270:X 9.22349e-05
3 *772:8 9.22349e-05
4 *772:8 *907:121 0
5 *342:10 *772:8 0
*RES
1 *4270:X *772:8 39.5536 
2 *772:8 *4054:D 38 
*END

*D_NET *773 0.00262263
*CONN
*I *3420:A I *D sky130_fd_sc_hd__xnor2_2
*I *4348:X O *D sky130_fd_sc_hd__clkdlybuf4s25_1
*CAP
1 *3420:A 0.000350709
2 *4348:X 0.000303213
3 *773:8 0.000653922
4 *3802:B1 *773:8 0.000365846
5 *3994:CLK *773:8 0
6 *3995:CLK *3420:A 0.000277173
7 *170:12 *3420:A 0.000505257
8 *641:139 *773:8 0.000166513
*RES
1 *4348:X *773:8 45.1879 
2 *773:8 *3420:A 47.715 
*END

*D_NET *774 0.00240771
*CONN
*I *3754:A0 I *D sky130_fd_sc_hd__mux2_1
*I *3759:A1 I *D sky130_fd_sc_hd__mux2_1
*I *4271:X O *D sky130_fd_sc_hd__dlygate4sd3_1
*CAP
1 *3754:A0 0
2 *3759:A1 0.00040593
3 *4271:X 0.000427234
4 *774:10 0.000833164
5 *3759:A1 *3754:A1 0.000289044
6 *3759:A1 *775:8 0
7 *3759:A1 *905:34 0.000178517
8 *3759:A1 *962:8 2.64616e-05
9 *3759:A1 *962:10 6.25829e-05
10 *774:10 *3754:A1 1.14452e-05
11 *774:10 *775:8 0
12 *774:10 *875:58 0
13 *774:10 *972:26 3.7122e-06
14 *3759:A0 *3759:A1 5.3304e-05
15 *346:10 *774:10 7.03766e-05
16 *351:8 *774:10 4.5942e-05
17 *632:12 *3759:A1 0
18 *632:12 *774:10 0
*RES
1 *4271:X *774:10 45.83 
2 *774:10 *3759:A1 46.6793 
3 *774:10 *3754:A0 38 
*END

*D_NET *775 0.0006338
*CONN
*I *4058:D I *D sky130_fd_sc_hd__dfrtp_2
*I *4272:X O *D sky130_fd_sc_hd__dlygate4sd3_1
*CAP
1 *4058:D 2.24686e-05
2 *4272:X 0.000266929
3 *775:8 0.000289397
4 *4058:D *914:57 5.50049e-05
5 *3759:A1 *775:8 0
6 *632:12 *775:8 0
7 *774:10 *775:8 0
*RES
1 *4272:X *775:8 42.3707 
2 *775:8 *4058:D 38.6214 
*END

*D_NET *776 0.000421662
*CONN
*I *3760:A0 I *D sky130_fd_sc_hd__mux2_1
*I *4273:X O *D sky130_fd_sc_hd__dlygate4sd3_1
*CAP
1 *3760:A0 8.75188e-05
2 *4273:X 8.75188e-05
3 *3760:A0 *3760:A1 5.67058e-05
4 *3760:A0 *905:42 4.79641e-05
5 *3760:A0 *905:50 0.000141954
*RES
1 *4273:X *3760:A0 48.5271 
*END

*D_NET *777 0.000859981
*CONN
*I *4064:D I *D sky130_fd_sc_hd__dfrtp_2
*I *4274:X O *D sky130_fd_sc_hd__dlygate4sd3_1
*CAP
1 *4064:D 0
2 *4274:X 0.000351529
3 *777:10 0.000351529
4 *777:10 *4064:RESET_B 0
5 *777:10 *967:10 3.62323e-05
6 *777:10 *967:16 3.31127e-05
7 *347:8 *777:10 8.75792e-05
8 *352:10 *777:10 0
*RES
1 *4274:X *777:10 44.2971 
2 *777:10 *4064:D 38 
*END

*D_NET *778 0.00122853
*CONN
*I *3461:B2 I *D sky130_fd_sc_hd__a221o_2
*I *4275:X O *D sky130_fd_sc_hd__dlygate4sd3_1
*CAP
1 *3461:B2 1.66254e-05
2 *4275:X 0.000256572
3 *778:8 0.000273198
4 *3461:B2 *3743:A 1.43071e-05
5 *3454:A1 *778:8 1.22906e-05
6 *3523:A0 *778:8 0.000214157
7 *3950:RESET_B *778:8 4.35036e-05
8 *110:12 *778:8 4.334e-05
9 *433:10 *778:8 6.07611e-06
10 *752:21 *778:8 0.000348456
11 *757:8 *778:8 0
*RES
1 *4275:X *778:8 45.54 
2 *778:8 *3461:B2 38.3314 
*END

*D_NET *779 0.00231273
*CONN
*I *3746:A1 I *D sky130_fd_sc_hd__mux2_1
*I *3752:A0 I *D sky130_fd_sc_hd__mux2_1
*I *4276:X O *D sky130_fd_sc_hd__dlygate4sd3_1
*CAP
1 *3746:A1 0
2 *3752:A0 0.000494438
3 *4276:X 0.000185645
4 *779:10 0.000680083
5 *3752:A0 *3752:A1 5.72975e-05
6 *3752:A0 *889:140 0.000277705
7 *3752:A0 *907:136 0.000231027
8 *3752:A0 *934:51 2.50061e-05
9 *779:10 *889:140 0.000151907
10 *779:10 *907:136 1.14452e-05
11 *779:10 *940:28 0
12 *4050:RESET_B *3752:A0 1.01436e-05
13 *606:45 *779:10 9.58714e-05
14 *624:44 *3752:A0 9.21623e-05
*RES
1 *4276:X *779:10 41.3557 
2 *779:10 *3752:A0 47.0521 
3 *779:10 *3746:A1 38 
*END

*D_NET *780 0.000663332
*CONN
*I *4056:D I *D sky130_fd_sc_hd__dfrtp_2
*I *4277:X O *D sky130_fd_sc_hd__dlygate4sd3_1
*CAP
1 *4056:D 0
2 *4277:X 0.000193838
3 *780:8 0.000193838
4 *780:8 *4395:A 0
5 *780:8 *945:39 0.000140949
6 *344:10 *780:8 8.62876e-05
7 *606:56 *780:8 4.842e-05
*RES
1 *4277:X *780:8 42.3707 
2 *780:8 *4056:D 38 
*END

*D_NET *781 0.00134563
*CONN
*I *3430:A2 I *D sky130_fd_sc_hd__a22o_2
*I *4278:X O *D sky130_fd_sc_hd__dlygate4sd3_1
*CAP
1 *3430:A2 0
2 *4278:X 0.000131815
3 *781:10 0.000131815
4 *781:10 *911:42 0.000270682
5 *781:10 *911:48 0.000318851
6 *781:10 *1093:18 2.18409e-05
7 *4120:A *781:10 0.000223722
8 *643:6 *781:10 0.000246903
*RES
1 *4278:X *781:10 30.1879 
2 *781:10 *3430:A2 23 
*END

*D_NET *782 0.00232039
*CONN
*I *3454:A2 I *D sky130_fd_sc_hd__o21a_2
*I *4279:X O *D sky130_fd_sc_hd__dlygate4sd3_1
*CAP
1 *3454:A2 5.48798e-05
2 *4279:X 0.000270639
3 *782:8 0.000325519
4 *782:8 *990:18 0.000749593
5 *4077:A *3454:A2 3.71251e-05
6 *4088:A *782:8 0.000179702
7 *111:8 *3454:A2 0.000139346
8 *605:20 *782:8 0.000563587
*RES
1 *4279:X *782:8 48.005 
2 *782:8 *3454:A2 39.5743 
*END

*D_NET *783 0.000430256
*CONN
*I *3747:A0 I *D sky130_fd_sc_hd__mux2_1
*I *4280:X O *D sky130_fd_sc_hd__dlygate4sd3_1
*CAP
1 *3747:A0 5.80725e-05
2 *4280:X 5.80725e-05
3 *3747:A0 *889:105 0.000230543
4 *551:14 *3747:A0 8.35679e-05
*RES
1 *4280:X *3747:A0 48.5271 
*END

*D_NET *784 0.00232239
*CONN
*I *3639:A1 I *D sky130_fd_sc_hd__mux2_1
*I *4349:X O *D sky130_fd_sc_hd__clkdlybuf4s25_1
*CAP
1 *3639:A1 0.000420333
2 *4349:X 0.000376928
3 *784:10 0.000797261
4 *3639:A1 *3639:S 4.9662e-05
5 *784:10 *3638:A1 6.32688e-05
6 *784:10 *795:8 0.000185428
7 *784:10 *908:16 0.000197479
8 *3862:RESET_B *3639:A1 0.000185434
9 *24:15 *784:10 0
10 *31:11 *784:10 4.6595e-05
11 *618:109 *784:10 0
*RES
1 *4349:X *784:10 45.3743 
2 *784:10 *3639:A1 45.2914 
*END

*D_NET *785 0.00252162
*CONN
*I *3749:A1 I *D sky130_fd_sc_hd__mux2_1
*I *3751:A0 I *D sky130_fd_sc_hd__mux2_1
*I *4281:X O *D sky130_fd_sc_hd__dlygate4sd3_1
*CAP
1 *3749:A1 0
2 *3751:A0 0.000234039
3 *4281:X 0.000319863
4 *785:25 0.000453548
5 *785:10 0.000687586
6 *785:8 0.000319863
7 *3751:A0 *3751:A1 1.94693e-05
8 *3751:A0 *934:32 7.24365e-05
9 *3751:A0 *934:51 2.07355e-05
10 *785:8 *877:14 0
11 *785:8 *934:28 2.22183e-05
12 *785:8 *941:26 0
13 *785:25 *4165:A 2.02872e-05
14 *785:25 *907:10 0.000265218
15 *785:25 *934:32 4.75206e-05
16 *4042:CLK *785:25 3.884e-05
17 *11:10 *785:25 0
18 *261:10 *785:25 0
19 *641:37 *785:8 0
20 *641:54 *785:8 0
*RES
1 *4281:X *785:8 43.7793 
2 *785:8 *785:10 15 
3 *785:10 *3751:A0 26.48 
4 *785:10 *785:25 37.7264 
5 *785:25 *3749:A1 23 
*END

*D_NET *786 0.000667676
*CONN
*I *4055:D I *D sky130_fd_sc_hd__dfrtp_2
*I *4282:X O *D sky130_fd_sc_hd__dlygate4sd3_1
*CAP
1 *4055:D 0
2 *4282:X 0.000159329
3 *786:8 0.000159329
4 *786:8 *3751:A1 1.02387e-05
5 *786:8 *889:91 0.000110913
6 *786:8 *934:51 8.41012e-05
7 *786:8 *941:10 8.51225e-05
8 *641:37 *786:8 0
9 *646:61 *786:8 5.86432e-05
*RES
1 *4282:X *786:8 42.7229 
2 *786:8 *4055:D 38 
*END

*D_NET *787 0.00109186
*CONN
*I *3573:A1 I *D sky130_fd_sc_hd__o21ai_2
*I *4283:X O *D sky130_fd_sc_hd__dlygate4sd3_1
*CAP
1 *3573:A1 0
2 *4283:X 0.000321167
3 *787:10 0.000321167
4 *787:10 *903:12 0
5 *787:10 *1097:10 0
6 *145:10 *787:10 0
7 *161:10 *787:10 6.4393e-05
8 *240:8 *787:10 0.000199701
9 *661:65 *787:10 0.000185434
*RES
1 *4283:X *787:10 45.1257 
2 *787:10 *3573:A1 38 
*END

*D_NET *788 0.000753243
*CONN
*I *3749:A0 I *D sky130_fd_sc_hd__mux2_1
*I *4284:X O *D sky130_fd_sc_hd__dlygate4sd3_1
*CAP
1 *3749:A0 0
2 *4284:X 0.000205981
3 *788:6 0.000205981
4 *788:6 *3663:B 0.000341281
*RES
1 *4284:X *788:6 27.4329 
2 *788:6 *3749:A0 23 
*END

*D_NET *789 0.00172309
*CONN
*I *3745:A0 I *D sky130_fd_sc_hd__mux2_1
*I *4285:X O *D sky130_fd_sc_hd__dlygate4sd3_1
*CAP
1 *3745:A0 0.000167044
2 *4285:X 0.000151128
3 *789:8 0.000318172
4 *3745:A0 *3745:A1 5.43443e-05
5 *789:8 *871:8 8.85189e-05
6 *789:8 *939:30 1.01436e-05
7 *789:8 *947:8 7.28335e-05
8 *3664:A1 *3745:A0 0.000143655
9 *3664:S *3745:A0 2.4754e-05
10 *314:10 *789:8 7.03766e-05
11 *359:31 *3745:A0 2.32004e-05
12 *359:43 *3745:A0 0.00014196
13 *359:45 *3745:A0 0.000267167
14 *359:125 *789:8 0
15 *640:8 *3745:A0 5.3304e-05
16 *640:14 *789:8 0.000136486
*RES
1 *4285:X *789:8 42.3707 
2 *789:8 *3745:A0 43.3857 
*END

*D_NET *790 0.000205208
*CONN
*I *4049:D I *D sky130_fd_sc_hd__dfrtp_2
*I *4286:X O *D sky130_fd_sc_hd__dlygate4sd3_1
*CAP
1 *4049:D 0
2 *4286:X 6.79859e-05
3 *790:8 6.79859e-05
4 *622:42 *790:8 3.46181e-05
5 *641:37 *790:8 3.46181e-05
*RES
1 *4286:X *790:8 39.5536 
2 *790:8 *4049:D 38 
*END

*D_NET *791 0.000707825
*CONN
*I *3746:A0 I *D sky130_fd_sc_hd__mux2_1
*I *4287:X O *D sky130_fd_sc_hd__dlygate4sd3_1
*CAP
1 *3746:A0 0.000178156
2 *4287:X 0.000178156
3 *624:161 *3746:A0 0.000351513
*RES
1 *4287:X *3746:A0 49.9564 
*END

*D_NET *792 0.00370829
*CONN
*I *3755:A1 I *D sky130_fd_sc_hd__mux2_1
*I *3758:A0 I *D sky130_fd_sc_hd__mux2_1
*I *4288:X O *D sky130_fd_sc_hd__dlygate4sd3_1
*CAP
1 *3755:A1 7.51843e-05
2 *3758:A0 0.000217725
3 *4288:X 0.000502629
4 *792:10 0.000795538
5 *3755:A1 *3753:S 5.3304e-05
6 *3755:A1 *905:54 0.000223698
7 *3755:A1 *964:37 0.000267178
8 *3758:A0 *4057:RESET_B 1.12487e-05
9 *3758:A0 *905:71 0.000330601
10 *792:10 *4057:RESET_B 2.35393e-05
11 *792:10 *4288:A 0
12 *792:10 *913:114 5.12512e-05
13 *3698:A1 *3758:A0 7.40718e-05
14 *347:8 *792:10 0.000641581
15 *567:16 *3758:A0 0.000203605
16 *608:77 *3758:A0 0
17 *608:77 *792:10 0
18 *608:128 *792:10 0.000192087
19 *760:6 *3758:A0 4.5051e-05
*RES
1 *4288:X *792:10 49.455 
2 *792:10 *3758:A0 43.9657 
3 *792:10 *3755:A1 41.0036 
*END

*D_NET *793 0.00022252
*CONN
*I *3529:A1 I *D sky130_fd_sc_hd__o21ai_2
*I *4289:X O *D sky130_fd_sc_hd__dlygate4sd3_1
*CAP
1 *3529:A1 7.25907e-05
2 *4289:X 7.25907e-05
3 *612:6 *3529:A1 7.73389e-05
*RES
1 *4289:X *3529:A1 47.5743 
*END

*D_NET *794 0.00131316
*CONN
*I *3755:A0 I *D sky130_fd_sc_hd__mux2_1
*I *4290:X O *D sky130_fd_sc_hd__dlygate4sd3_1
*CAP
1 *3755:A0 0
2 *4290:X 0.00042426
3 *794:10 0.00042426
4 *794:10 *4057:RESET_B 0.000105975
5 *794:10 *4290:A 8.84817e-06
6 *794:10 *905:50 9.63918e-05
7 *794:10 *967:16 0.000114074
8 *794:10 *967:22 0
9 *794:10 *969:14 0
10 *347:8 *794:10 0
11 *604:24 *794:10 0.000139352
*RES
1 *4290:X *794:10 46.3064 
2 *794:10 *3755:A0 38 
*END

*D_NET *795 0.002507
*CONN
*I *3638:A1 I *D sky130_fd_sc_hd__mux2_1
*I *4350:X O *D sky130_fd_sc_hd__clkdlybuf4s25_1
*CAP
1 *3638:A1 0.00019914
2 *4350:X 0.000224312
3 *795:8 0.000423452
4 *3638:A1 *908:16 0.000169683
5 *795:8 *846:10 0.000491451
6 *31:11 *795:8 0.000621874
7 *42:9 *795:8 0.000128391
8 *784:10 *3638:A1 6.32688e-05
9 *784:10 *795:8 0.000185428
*RES
1 *4350:X *795:8 48.15 
2 *795:8 *3638:A1 42.3707 
*END

*D_NET *796 0.000169491
*CONN
*I *3373:C1 I *D sky130_fd_sc_hd__a311o_2
*I *4291:X O *D sky130_fd_sc_hd__dlygate4sd3_1
*CAP
1 *3373:C1 8.47456e-05
2 *4291:X 8.47456e-05
*RES
1 *4291:X *3373:C1 47.5743 
*END

*D_NET *797 0.00350063
*CONN
*I *3548:B1 I *D sky130_fd_sc_hd__a21o_2
*I *4292:X O *D sky130_fd_sc_hd__dlygate4sd3_1
*CAP
1 *3548:B1 0
2 *4292:X 0
3 *797:12 0.000967216
4 *797:6 0.000967216
5 *797:12 *881:103 7.13587e-05
6 *797:12 *881:137 0.000246999
7 *797:12 *896:133 0.000457122
8 *797:12 *896:146 0.000342084
9 *452:8 *797:12 0.000108662
10 *605:82 *797:12 0.000339969
*RES
1 *4292:X *797:6 38 
2 *797:6 *797:12 40.7271 
3 *797:12 *3548:B1 23 
*END

*D_NET *798 0.00031068
*CONN
*I *4006:D I *D sky130_fd_sc_hd__dfrtp_2
*I *4293:X O *D sky130_fd_sc_hd__dlygate4sd3_1
*CAP
1 *4006:D 0.00015534
2 *4293:X 0.00015534
*RES
1 *4293:X *4006:D 48.0507 
*END

*D_NET *799 0.00100681
*CONN
*I *3570:B1 I *D sky130_fd_sc_hd__a21oi_2
*I *4294:X O *D sky130_fd_sc_hd__dlygate4sd3_1
*CAP
1 *3570:B1 0
2 *4294:X 0.000233501
3 *799:12 0.000233501
4 *799:12 *3568:A1 0.00010018
5 *799:12 *3568:B1 5.50049e-05
6 *3568:A2 *799:12 5.50049e-05
7 *3572:B *799:12 5.76505e-05
8 *132:8 *799:12 7.28526e-05
9 *503:18 *799:12 0.00014411
10 *504:10 *799:12 5.50049e-05
*RES
1 *4294:X *799:12 43.8829 
2 *799:12 *3570:B1 38 
*END

*D_NET *800 0.00110474
*CONN
*I *3632:A0 I *D sky130_fd_sc_hd__mux2_1
*I *4295:X O *D sky130_fd_sc_hd__dlygate4sd3_1
*CAP
1 *3632:A0 4.00127e-05
2 *4295:X 0.000305407
3 *800:8 0.000345419
4 *800:8 *845:10 0.000163593
5 *800:8 *847:20 0
6 *40:9 *3632:A0 3.22879e-05
7 *271:10 *800:8 0
8 *448:18 *800:8 0.000218023
*RES
1 *4295:X *800:8 44.8357 
2 *800:8 *3632:A0 38.6214 
*END

*D_NET *801 0.000597013
*CONN
*I *3633:A0 I *D sky130_fd_sc_hd__mux2_1
*I *4296:X O *D sky130_fd_sc_hd__dlygate4sd3_1
*CAP
1 *3633:A0 6.10232e-05
2 *4296:X 6.10232e-05
3 *3633:A0 *846:23 4.66047e-05
4 *3633:A0 *908:16 0.000187129
5 *3633:A0 *908:18 9.75779e-05
6 *3633:A0 *988:57 0.000143655
*RES
1 *4296:X *3633:A0 49.0036 
*END

*D_NET *802 0.00248685
*CONN
*I *3519:B I *D sky130_fd_sc_hd__and2_2
*I *3443:C I *D sky130_fd_sc_hd__nor3_2
*I *4297:X O *D sky130_fd_sc_hd__dlygate4sd3_1
*CAP
1 *3519:B 0
2 *3443:C 0.000236809
3 *4297:X 0.000295446
4 *802:12 0.000236809
5 *802:10 0.000295446
6 *3443:C *3443:B 0.000312348
7 *3443:C *3519:A 0.00026808
8 *3443:C *989:20 2.4754e-05
9 *802:10 *4325:A 4.44894e-05
10 *802:10 *981:84 0.000405796
11 *363:49 *802:10 0.000167443
12 *426:10 *3443:C 0.00010018
13 *605:20 *802:10 9.92469e-05
*RES
1 *4297:X *802:10 45.1257 
2 *802:10 *802:12 15 
3 *802:12 *3443:C 29.3386 
4 *802:12 *3519:B 23 
*END

*D_NET *803 0.000649694
*CONN
*I *3645:A0 I *D sky130_fd_sc_hd__mux2_1
*I *4298:X O *D sky130_fd_sc_hd__dlygate4sd3_1
*CAP
1 *3645:A0 0.000191563
2 *4298:X 0.00010311
3 *803:8 0.000294674
4 *803:8 *3711:B 0
5 *803:8 *870:16 0
6 *803:8 *909:63 4.83778e-05
7 *803:8 *909:72 1.19692e-05
*RES
1 *4298:X *803:8 40.2579 
2 *803:8 *3645:A0 41.0036 
*END

*D_NET *804 0.000220785
*CONN
*I *3614:B1 I *D sky130_fd_sc_hd__a21oi_2
*I *4299:X O *D sky130_fd_sc_hd__dlygate4sd3_1
*CAP
1 *3614:B1 0.000110392
2 *4299:X 0.000110392
*RES
1 *4299:X *3614:B1 48.0507 
*END

*D_NET *805 0.00118395
*CONN
*I *3641:A0 I *D sky130_fd_sc_hd__mux2_1
*I *4300:X O *D sky130_fd_sc_hd__dlygate4sd3_1
*CAP
1 *3641:A0 0
2 *4300:X 0.000216926
3 *805:6 0.000216926
4 *805:6 *928:8 7.95535e-05
5 *3676:S *805:6 0.00011123
6 *359:45 *805:6 0.000230291
7 *359:57 *805:6 9.92345e-05
8 *739:18 *805:6 0.000229793
*RES
1 *4300:X *805:6 29.815 
2 *805:6 *3641:A0 23 
*END

*D_NET *806 0.00162709
*CONN
*I *3636:A1 I *D sky130_fd_sc_hd__mux2_1
*I *4351:X O *D sky130_fd_sc_hd__clkdlybuf4s25_1
*CAP
1 *3636:A1 0.000198886
2 *4351:X 0.000272954
3 *806:8 0.000471839
4 *3636:A1 *886:63 0.000218471
5 *806:8 *887:14 0
6 *806:8 *900:18 0.00019747
7 *806:8 *900:58 0.000129504
8 *806:8 *901:10 0
9 *245:10 *806:8 8.85189e-05
10 *609:75 *806:8 0
11 *661:30 *806:8 4.94517e-05
*RES
1 *4351:X *806:8 44.8357 
2 *806:8 *3636:A1 40.5271 
*END

*D_NET *807 0.00095915
*CONN
*I *3468:B1 I *D sky130_fd_sc_hd__a22o_2
*I *4301:X O *D sky130_fd_sc_hd__dlygate4sd3_1
*CAP
1 *3468:B1 0
2 *4301:X 0.000210021
3 *807:10 0.000210021
4 *807:10 *960:27 0.000165634
5 *807:10 *1067:42 0.000323812
6 *617:107 *807:10 4.9662e-05
*RES
1 *4301:X *807:10 43.4686 
2 *807:10 *3468:B1 38 
*END

*D_NET *808 0.000666734
*CONN
*I *3956:D I *D sky130_fd_sc_hd__dfrtp_2
*I *4302:X O *D sky130_fd_sc_hd__dlygate4sd3_1
*CAP
1 *3956:D 0.000166723
2 *4302:X 7.20776e-05
3 *808:8 0.0002388
4 *3956:D *835:10 2.93845e-05
5 *808:8 *835:10 4.08537e-05
6 *808:8 *1067:42 1.7992e-05
7 *3956:CLK *3956:D 5.50106e-05
8 *78:14 *808:8 4.58924e-05
*RES
1 *4302:X *808:8 39.9057 
2 *808:8 *3956:D 41.0036 
*END

*D_NET *809 0.000379737
*CONN
*I *3642:A0 I *D sky130_fd_sc_hd__mux2_1
*I *4303:X O *D sky130_fd_sc_hd__dlygate4sd3_1
*CAP
1 *3642:A0 0.000116899
2 *4303:X 0.000116899
3 *3642:A0 *3642:A1 0.000119477
4 *279:10 *3642:A0 2.64616e-05
*RES
1 *4303:X *3642:A0 48.5271 
*END

*D_NET *810 0.000915133
*CONN
*I *3681:A I *D sky130_fd_sc_hd__nor2_2
*I *4304:X O *D sky130_fd_sc_hd__dlygate4sd3_1
*CAP
1 *3681:A 0.000234065
2 *4304:X 5.86296e-05
3 *810:8 0.000292694
4 *810:8 *994:48 4.59027e-05
5 *3948:RESET_B *3681:A 0.000141954
6 *654:78 *810:8 0.000141888
*RES
1 *4304:X *810:8 39.9057 
2 *810:8 *3681:A 42.4329 
*END

*D_NET *811 0.00137186
*CONN
*I *3643:A0 I *D sky130_fd_sc_hd__mux2_1
*I *4305:X O *D sky130_fd_sc_hd__dlygate4sd3_1
*CAP
1 *3643:A0 0.000206553
2 *4305:X 0.000310485
3 *811:10 0.000517038
4 *3643:A0 *3643:A1 3.22879e-05
5 *811:10 *816:10 5.36457e-05
6 *811:10 *932:34 0
7 o_receive_data[0] *811:10 8.22421e-06
8 *359:61 *811:10 0.000140259
9 *623:60 *811:10 0.00010337
*RES
1 *4305:X *811:10 44.2971 
2 *811:10 *3643:A0 41.48 
*END

*D_NET *812 0.000500729
*CONN
*I *3453:A1 I *D sky130_fd_sc_hd__a22o_2
*I *4306:X O *D sky130_fd_sc_hd__dlygate4sd3_1
*CAP
1 *3453:A1 5.53604e-05
2 *4306:X 5.53604e-05
3 *3453:A1 *3448:B 0.000225399
4 *3947:CLK *3453:A1 5.50106e-05
5 *364:31 *3453:A1 3.04324e-05
6 *432:10 *3453:A1 7.9166e-05
*RES
1 *4306:X *3453:A1 48.5271 
*END

*D_NET *813 0.0023488
*CONN
*I *3627:A0 I *D sky130_fd_sc_hd__mux2_1
*I *4307:X O *D sky130_fd_sc_hd__dlygate4sd3_1
*CAP
1 *3627:A0 0
2 *4307:X 0
3 *813:12 0.000727175
4 *813:6 0.000727175
5 *813:12 *3857:RESET_B 0
6 *813:12 *839:14 5.50106e-05
7 *813:12 *841:14 0.000293046
8 *813:12 *908:73 0.000215097
9 *813:12 *908:122 0
10 *813:12 *909:37 2.14486e-05
11 *813:12 *913:44 0
12 *43:13 *813:12 0
13 *44:19 *813:12 5.67058e-05
14 *266:10 *813:12 0.000110521
15 *437:16 *813:12 0.000142618
*RES
1 *4307:X *813:6 38 
2 *813:6 *813:12 31.965 
3 *813:12 *3627:A0 23 
*END

*D_NET *814 0.00125119
*CONN
*I *3628:A0 I *D sky130_fd_sc_hd__mux2_1
*I *4308:X O *D sky130_fd_sc_hd__dlygate4sd3_1
*CAP
1 *3628:A0 0
2 *4308:X 0.000305406
3 *814:10 0.000305406
4 *814:10 *4318:A 8.71399e-05
5 *814:10 *852:20 0.000108681
6 *814:10 *983:24 2.02872e-05
7 *442:14 *814:10 0.000289231
8 *443:8 *814:10 0.000135037
*RES
1 *4308:X *814:10 44.0693 
2 *814:10 *3628:A0 38 
*END

*D_NET *815 0.000403574
*CONN
*I *3646:A0 I *D sky130_fd_sc_hd__mux2_1
*I *4309:X O *D sky130_fd_sc_hd__dlygate4sd3_1
*CAP
1 *3646:A0 0.000201787
2 *4309:X 0.000201787
*RES
1 *4309:X *3646:A0 49.0036 
*END

*D_NET *816 0.00190826
*CONN
*I *3647:A0 I *D sky130_fd_sc_hd__mux2_1
*I *4310:X O *D sky130_fd_sc_hd__dlygate4sd3_1
*CAP
1 *3647:A0 0.000322198
2 *4310:X 0.00046171
3 *816:10 0.000783908
4 *3647:A0 *895:14 5.50049e-05
5 *816:10 *3673:B 3.34129e-05
6 *816:10 *869:8 1.40004e-05
7 *816:10 *932:34 6.17437e-06
8 o_receive_data[0] *3647:A0 5.50106e-05
9 *555:10 *816:10 3.69105e-05
10 *623:60 *816:10 0
11 *694:14 *816:10 8.62876e-05
12 *811:10 *816:10 5.36457e-05
*RES
1 *4310:X *816:10 45.6021 
2 *816:10 *3647:A0 43.3857 
*END

*D_NET *817 0.00360775
*CONN
*I *3637:A1 I *D sky130_fd_sc_hd__mux2_1
*I *4352:X O *D sky130_fd_sc_hd__clkdlybuf4s25_1
*CAP
1 *3637:A1 0
2 *4352:X 0
3 *817:12 0.000571105
4 *817:6 0.000571105
5 *817:12 *3637:S 1.94812e-05
6 *817:12 *886:63 3.82956e-05
7 *817:12 *886:74 2.35393e-05
8 *817:12 *888:71 0.000299094
9 *817:12 *900:68 8.85189e-05
10 *817:12 *910:37 0.000781489
11 *662:10 *817:12 8.4047e-05
12 *662:16 *817:12 0.00107777
13 *681:12 *817:12 5.3304e-05
*RES
1 *4352:X *817:6 38 
2 *817:6 *817:12 34.6786 
3 *817:12 *3637:A1 23 
*END

*D_NET *818 0.000877261
*CONN
*I *3640:A0 I *D sky130_fd_sc_hd__mux2_1
*I *4311:X O *D sky130_fd_sc_hd__dlygate4sd3_1
*CAP
1 *3640:A0 0.000202828
2 *4311:X 5.89568e-05
3 *818:8 0.000261785
4 *3640:A0 *3640:S 5.3304e-05
5 *818:8 *916:77 4.18032e-05
6 *3640:A1 *3640:A0 5.3304e-05
7 *3739:A *818:8 2.8241e-05
8 *321:8 *818:8 8.85189e-05
9 *596:10 *818:8 8.85189e-05
*RES
1 *4311:X *818:8 40.2579 
2 *818:8 *3640:A0 41.48 
*END

*D_NET *819 0.00170176
*CONN
*I *3352:A I *D sky130_fd_sc_hd__inv_2
*I *4312:X O *D sky130_fd_sc_hd__dlygate4sd3_1
*CAP
1 *3352:A 0.000337318
2 *4312:X 9.1065e-05
3 *819:8 0.000428383
4 *3352:A *1109:14 4.08664e-05
5 *3352:A *1109:16 4.08664e-05
6 *3352:A *1109:28 0.000178517
7 *819:8 *3589:A 0.000136486
8 *819:8 *1108:49 2.50227e-05
9 *819:8 *1109:46 3.47781e-05
10 *3593:A1 *3352:A 0.00013635
11 *158:10 *3352:A 0.000219383
12 *515:23 *819:8 3.27254e-05
*RES
1 *4312:X *819:8 40.2579 
2 *819:8 *3352:A 45.4571 
*END

*D_NET *820 0.00090468
*CONN
*I *3644:A0 I *D sky130_fd_sc_hd__mux2_1
*I *4313:X O *D sky130_fd_sc_hd__dlygate4sd3_1
*CAP
1 *3644:A0 0.000218147
2 *4313:X 0.000148399
3 *820:10 0.000366546
4 *3644:A0 *4288:A 3.19414e-05
5 *604:30 *820:10 0.000139647
*RES
1 *4313:X *820:10 40.5271 
2 *820:10 *3644:A0 41.6457 
*END

*D_NET *821 0.00133273
*CONN
*I *3459:A1 I *D sky130_fd_sc_hd__a21o_2
*I *4314:X O *D sky130_fd_sc_hd__dlygate4sd3_1
*CAP
1 *3459:A1 0.000125294
2 *4314:X 8.65597e-05
3 *821:8 0.000211854
4 *3459:A1 *3524:A1 2.93845e-05
5 *3459:A1 *1004:18 3.75171e-05
6 *821:8 *948:12 7.461e-05
7 *3459:A2 *3459:A1 5.50049e-05
8 *3459:B1 *3459:A1 0.000228001
9 *3524:A2 *3459:A1 0.000100062
10 *3524:B1 *3459:A1 5.67058e-05
11 *3972:CLK *821:8 0.000163361
12 *113:8 *3459:A1 0.000164373
*RES
1 *4314:X *821:8 40.2579 
2 *821:8 *3459:A1 42.4329 
*END

*D_NET *822 0.00175447
*CONN
*I *3520:A I *D sky130_fd_sc_hd__and2_2
*I *4315:X O *D sky130_fd_sc_hd__dlygate4sd3_1
*CAP
1 *3520:A 0.00040988
2 *4315:X 0.00018802
3 *822:10 0.0005979
4 *3520:A *3433:A1 5.70419e-05
5 *822:10 *883:58 0.00011726
6 *3980:CLK *822:10 1.94693e-05
7 *97:6 *3520:A 6.17437e-06
8 *123:10 *3520:A 6.17437e-06
9 *611:12 *822:10 0.000352547
*RES
1 *4315:X *822:10 43.3443 
2 *822:10 *3520:A 45.2914 
*END

*D_NET *823 0.000785091
*CONN
*I *4017:D I *D sky130_fd_sc_hd__dfrtp_2
*I *4316:X O *D sky130_fd_sc_hd__dlygate4sd3_1
*CAP
1 *4017:D 9.63064e-05
2 *4316:X 0.000277171
3 *823:8 0.000373478
4 *823:8 *996:8 3.81363e-05
5 *603:13 *823:8 0
*RES
1 *4316:X *823:8 43.4271 
2 *823:8 *4017:D 39.5743 
*END

*D_NET *824 0.000612596
*CONN
*I *3629:A0 I *D sky130_fd_sc_hd__mux2_1
*I *4317:X O *D sky130_fd_sc_hd__dlygate4sd3_1
*CAP
1 *3629:A0 2.4297e-05
2 *4317:X 0.000147907
3 *824:8 0.000172204
4 *3629:A0 *854:14 9.67842e-05
5 *824:8 *3629:A1 7.29243e-05
6 *824:8 *844:14 0
7 *48:15 *3629:A0 9.84794e-05
8 *267:10 *824:8 0
*RES
1 *4317:X *824:8 40.2579 
2 *824:8 *3629:A0 39.0979 
*END

*D_NET *825 0.000621815
*CONN
*I *3630:A0 I *D sky130_fd_sc_hd__mux2_1
*I *4318:X O *D sky130_fd_sc_hd__dlygate4sd3_1
*CAP
1 *3630:A0 6.77385e-05
2 *4318:X 6.77385e-05
3 *3630:A0 *908:73 0.000138859
4 *3630:A0 *982:33 0.000274077
5 *443:8 *3630:A0 7.34019e-05
*RES
1 *4318:X *3630:A0 49.0036 
*END

*D_NET *826 0.00109077
*CONN
*I *3435:B2 I *D sky130_fd_sc_hd__a2bb2o_2
*I *4319:X O *D sky130_fd_sc_hd__dlygate4sd3_1
*CAP
1 *3435:B2 3.10059e-05
2 *4319:X 0.000221734
3 *826:10 0.00025274
4 *826:10 *993:58 0.000164291
5 *826:10 *1065:10 5.3304e-05
6 *3435:B1 *3435:B2 5.56356e-05
7 *3438:B2 *3435:B2 9.58714e-05
8 *3941:CLK *826:10 2.64616e-05
9 *371:10 *3435:B2 2.32004e-05
10 *645:101 *826:10 0.000166522
*RES
1 *4319:X *826:10 42.785 
2 *826:10 *3435:B2 39.0979 
*END

*D_NET *827 0.000863129
*CONN
*I *3376:A1 I *D sky130_fd_sc_hd__a21oi_2
*I *4320:X O *D sky130_fd_sc_hd__dlygate4sd3_1
*CAP
1 *3376:A1 0
2 *4320:X 0.000246393
3 *827:8 0.000246393
4 *827:8 *3368:A2 4.04303e-05
5 *827:8 *4320:A 0.00010018
6 *394:52 *827:8 5.50049e-05
7 *394:58 *827:8 0.000174728
*RES
1 *4320:X *827:8 29.3593 
2 *827:8 *3376:A1 23 
*END

*D_NET *828 0.0232069
*CONN
*I *4136:A I *D sky130_fd_sc_hd__clkdlybuf4s25_1
*I *4131:A I *D sky130_fd_sc_hd__clkdlybuf4s25_1
*I *4123:A I *D sky130_fd_sc_hd__clkdlybuf4s25_1
*I *4353:X O *D sky130_fd_sc_hd__clkdlybuf4s25_1
*CAP
1 *4136:A 7.70667e-05
2 *4131:A 6.05003e-05
3 *4123:A 0
4 *4353:X 0.000477396
5 *828:42 0.0024466
6 *828:26 0.00513759
7 *828:12 0.00519809
8 *828:10 0.00284693
9 *828:10 *910:20 0
10 *828:26 *896:16 2.26406e-05
11 *828:26 *910:16 0
12 *828:26 *989:20 1.05658e-05
13 *828:26 *1015:20 0
14 *828:42 *888:10 0.000270228
15 *828:42 *888:25 0.00111821
16 *828:42 *888:71 0.000567872
17 *828:42 *902:10 0.000169674
18 *828:42 *902:19 0.00149378
19 *828:42 *902:30 0.000951432
20 *828:42 *902:86 0.000223034
21 *828:42 *917:8 0.00056645
22 *828:42 *1072:8 0
23 *828:42 *1119:10 0.000781497
24 *32:13 *828:42 0.000423866
25 *33:11 *828:42 0.000122304
26 *655:84 *828:26 2.05503e-05
27 *657:6 *828:26 0.000220592
28 *706:26 *828:26 0
*RES
1 *4353:X *828:10 45.6021 
2 *828:10 *828:12 15 
3 *828:12 *828:26 47.6842 
4 *828:26 *4123:A 38 
5 *828:12 *4131:A 24.0979 
6 *828:10 *828:42 79.025 
7 *828:42 *4136:A 39.0979 
*END

*D_NET *829 0.00272719
*CONN
*I *3631:A0 I *D sky130_fd_sc_hd__mux2_1
*I *4321:X O *D sky130_fd_sc_hd__dlygate4sd3_1
*CAP
1 *3631:A0 0.000338842
2 *4321:X 0.000253651
3 *829:8 0.000592493
4 *3631:A0 *3482:B 0.00010404
5 *3631:A0 *3631:A1 0.000126678
6 *3631:A0 *844:14 0.000571501
7 *829:8 *844:10 0.000404502
8 *620:58 *3631:A0 0.000335485
*RES
1 *4321:X *829:8 42.4329 
2 *829:8 *3631:A0 47.6529 
*END

*D_NET *830 0.000477417
*CONN
*I *3377:A1 I *D sky130_fd_sc_hd__o21ai_2
*I *4322:X O *D sky130_fd_sc_hd__dlygate4sd3_1
*CAP
1 *3377:A1 6.44624e-05
2 *4322:X 9.4166e-05
3 *830:8 0.000158628
4 *3378:B *3377:A1 2.18409e-05
5 *331:10 *830:8 3.81391e-05
6 *396:76 *3377:A1 0.00010018
7 *396:76 *830:8 0
*RES
1 *4322:X *830:8 39.9057 
2 *830:8 *3377:A1 39.5743 
*END

*D_NET *831 0.00078866
*CONN
*I *3471:A1 I *D sky130_fd_sc_hd__a21o_2
*I *4323:X O *D sky130_fd_sc_hd__dlygate4sd3_1
*CAP
1 *3471:A1 0
2 *4323:X 0.000295663
3 *831:10 0.000295663
4 *831:10 *936:29 0
5 *831:10 *939:12 8.62876e-05
6 *72:10 *831:10 0.000111045
*RES
1 *4323:X *831:10 43.5929 
2 *831:10 *3471:A1 38 
*END

*D_NET *832 0.000258448
*CONN
*I *3353:A I *D sky130_fd_sc_hd__inv_2
*I *4324:X O *D sky130_fd_sc_hd__dlygate4sd3_1
*CAP
1 *3353:A 0.000101719
2 *4324:X 0.000101719
3 *3353:A *1101:20 5.50106e-05
*RES
1 *4324:X *3353:A 47.5743 
*END

*D_NET *833 0.00177389
*CONN
*I *3518:A2 I *D sky130_fd_sc_hd__a21o_2
*I *4325:X O *D sky130_fd_sc_hd__dlygate4sd3_1
*CAP
1 *3518:A2 0
2 *4325:X 0
3 *833:10 0.000571343
4 *833:6 0.000571343
5 *833:10 *838:12 0
6 *833:10 *998:12 0
7 *3959:D *833:10 8.4047e-05
8 *616:78 *833:10 0
9 *676:10 *833:10 5.56306e-05
10 *682:27 *833:10 0.000491525
*RES
1 *4325:X *833:6 38 
2 *833:6 *833:10 27.8221 
3 *833:10 *3518:A2 23 
*END

*D_NET *834 0.000113318
*CONN
*I *3348:A I *D sky130_fd_sc_hd__inv_2
*I *4326:X O *D sky130_fd_sc_hd__dlygate4sd3_1
*CAP
1 *3348:A 2.53869e-05
2 *4326:X 2.53869e-05
3 *3348:A *881:103 7.53384e-06
4 *381:10 *3348:A 5.50106e-05
*RES
1 *4326:X *3348:A 46.6214 
*END

*D_NET *835 0.000443685
*CONN
*I *3525:S I *D sky130_fd_sc_hd__mux2_1
*I *4327:X O *D sky130_fd_sc_hd__dlygate4sd3_1
*CAP
1 *3525:S 0
2 *4327:X 0.000116244
3 *835:10 0.000116244
4 *835:10 *905:140 0
5 *835:10 *1067:42 0.000140958
6 *3956:D *835:10 2.93845e-05
7 *78:14 *835:10 0
8 *808:8 *835:10 4.08537e-05
*RES
1 *4327:X *835:10 40.5271 
2 *835:10 *3525:S 38 
*END

*D_NET *836 0.000732301
*CONN
*I *3397:B I *D sky130_fd_sc_hd__and2_2
*I *4328:X O *D sky130_fd_sc_hd__dlygate4sd3_1
*CAP
1 *3397:B 0.000104169
2 *4328:X 8.35053e-05
3 *836:8 0.000187675
4 *3397:B *889:16 0.000139352
5 *836:8 *1096:16 0.000138718
6 *105:8 *3397:B 7.88828e-05
7 *692:14 *836:8 0
*RES
1 *4328:X *836:8 39.9057 
2 *836:8 *3397:B 40.5271 
*END

*D_NET *837 0.00150345
*CONN
*I *3467:B1 I *D sky130_fd_sc_hd__a22o_2
*I *4329:X O *D sky130_fd_sc_hd__dlygate4sd3_1
*CAP
1 *3467:B1 0
2 *4329:X 0.000585826
3 *837:10 0.000585826
4 *837:10 *3680:B2 0
5 *837:10 *994:48 6.17219e-05
6 *837:10 *1003:61 0.000216776
7 *837:10 *1006:22 5.3304e-05
8 *374:32 *837:10 0
*RES
1 *4329:X *837:10 46.845 
2 *837:10 *3467:B1 38 
*END

*D_NET *838 0.00333177
*CONN
*I *3456:A2 I *D sky130_fd_sc_hd__a22o_2
*I *4330:X O *D sky130_fd_sc_hd__dlygate4sd3_1
*CAP
1 *3456:A2 0
2 *4330:X 0
3 *838:12 0.00115477
4 *838:6 0.00115477
5 *838:12 *3456:A1 4.18641e-05
6 *838:12 *3683:A_N 0
7 *838:12 *990:35 0.000168423
8 *838:12 *1000:10 6.43253e-05
9 *838:12 *1000:29 0
10 *838:12 *1003:18 0
11 *838:12 *1003:61 4.37509e-06
12 *3895:CLK *838:12 7.61943e-05
13 *3946:RESET_B *838:12 0
14 *3959:D *838:12 0
15 *84:8 *838:12 3.83778e-05
16 *111:10 *838:12 0.00012829
17 *303:8 *838:12 0
18 *374:32 *838:12 0.000193379
19 *559:10 *838:12 0
20 *605:8 *838:12 8.51432e-05
21 *615:127 *838:12 6.63801e-05
22 *616:76 *838:12 6.88819e-05
23 *616:78 *838:12 8.65932e-05
24 *676:24 *838:12 0
25 *682:27 *838:12 0
26 *833:10 *838:12 0
*RES
1 *4330:X *838:6 38 
2 *838:6 *838:12 41.0223 
3 *838:12 *3456:A2 23 
*END

*D_NET *839 0.00535136
*CONN
*I *3477:A I *D sky130_fd_sc_hd__or2_2
*I *3478:A I *D sky130_fd_sc_hd__nand2_2
*I *3627:A1 I *D sky130_fd_sc_hd__mux2_1
*I *4354:X O *D sky130_fd_sc_hd__clkdlybuf4s25_1
*CAP
1 *3477:A 0
2 *3478:A 0.000148955
3 *3627:A1 0
4 *4354:X 0
5 *839:36 0.000665822
6 *839:14 0.00080207
7 *839:8 0.00102908
8 *839:6 0.000743875
9 *3478:A *3630:A1 5.3304e-05
10 *3478:A *982:33 0.000137525
11 *839:8 *3479:A 2.45092e-05
12 *839:8 *843:8 8.57577e-05
13 *839:14 *3479:A 0.000452802
14 *839:14 *848:8 1.83235e-05
15 *839:14 *849:6 0.000484551
16 *839:36 *848:8 0.000105283
17 *839:36 *982:58 5.5792e-05
18 *3857:CLK *839:14 0
19 *43:13 *839:14 0
20 *44:19 *839:14 0.000120867
21 *46:15 *839:14 2.47132e-05
22 *265:10 *839:14 0.000326983
23 *443:8 *3478:A 1.61385e-05
24 *620:32 *839:14 0
25 *813:12 *839:14 5.50106e-05
*RES
1 *4354:X *839:6 38 
2 *839:6 *839:8 1.55357 
3 *839:8 *839:14 34.9686 
4 *839:14 *3627:A1 23 
5 *839:8 *3478:A 41.0243 
6 *839:6 *839:36 28.2986 
7 *839:36 *3477:A 23 
*END

*D_NET *840 0.000876955
*CONN
*I *3642:A1 I *D sky130_fd_sc_hd__mux2_1
*I *4355:X O *D sky130_fd_sc_hd__clkdlybuf4s25_1
*CAP
1 *3642:A1 0.000272068
2 *4355:X 4.36871e-05
3 *840:8 0.000315755
4 *3642:A1 *3642:S 3.7122e-06
5 *3642:A0 *3642:A1 0.000119477
6 *3:11 *840:8 8.62876e-05
7 *279:10 *3642:A1 8.06804e-06
8 *619:63 *840:8 2.79004e-05
*RES
1 *4355:X *840:8 39.2014 
2 *840:8 *3642:A1 41.48 
*END

*D_NET *841 0.00642081
*CONN
*I *3473:A I *D sky130_fd_sc_hd__or2_2
*I *3628:A1 I *D sky130_fd_sc_hd__mux2_1
*I *3472:A I *D sky130_fd_sc_hd__nand2_2
*I *4356:X O *D sky130_fd_sc_hd__clkdlybuf4s25_1
*CAP
1 *3473:A 0
2 *3628:A1 0.000145845
3 *3472:A 0
4 *4356:X 0.000133993
5 *841:38 0.000497564
6 *841:21 0.000643409
7 *841:14 0.000594661
8 *841:6 0.000728655
9 *3628:A1 *908:59 4.84129e-06
10 *3628:A1 *908:63 9.03964e-06
11 *841:14 *982:58 2.55628e-05
12 *841:38 *909:33 0.00044633
13 *841:38 *982:21 2.14599e-05
14 *841:38 *982:33 9.77405e-05
15 *841:38 *982:48 1.07299e-05
16 *841:38 *983:24 2.02872e-05
17 *841:38 *983:31 0.000125234
18 *841:38 *983:46 0.000784289
19 *3484:B2 *3628:A1 0.000213472
20 *3484:B2 *841:38 0.000108129
21 *3702:B1 *841:38 2.46906e-05
22 *35:21 *841:14 1.40949e-05
23 *312:10 *841:38 5.79559e-05
24 *437:16 *841:14 0.000234831
25 *438:8 *841:38 1.10658e-05
26 *442:14 *3628:A1 0.000213472
27 *442:14 *841:38 0.000173703
28 *569:24 *841:38 0.000545519
29 *620:21 *841:6 6.08617e-05
30 *620:21 *841:14 0.000180329
31 *813:12 *841:14 0.000293046
*RES
1 *4356:X *841:6 24.5743 
2 *841:6 *841:14 41.8486 
3 *841:14 *3472:A 23 
4 *841:6 *841:21 15 
5 *841:21 *3628:A1 41.5836 
6 *841:21 *841:38 32.0479 
7 *841:38 *3473:A 23 
*END

*D_NET *842 0.00351635
*CONN
*I *3476:A I *D sky130_fd_sc_hd__xor2_2
*I *3629:A1 I *D sky130_fd_sc_hd__mux2_1
*I *4357:X O *D sky130_fd_sc_hd__clkdlybuf4s25_1
*CAP
1 *3476:A 6.9996e-05
2 *3629:A1 0.000241932
3 *4357:X 0.000576063
4 *842:10 0.00052539
5 *842:8 0.000789525
6 *3476:A *4317:A 4.70852e-05
7 *3629:A1 *3629:S 0.000172255
8 *3629:A1 *908:49 1.23172e-05
9 *842:8 *854:26 0.000171401
10 *842:10 *908:49 0.000372838
11 *48:15 *3629:A1 5.50106e-05
12 *267:10 *3629:A1 0
13 *427:43 *842:8 6.07078e-05
14 *427:55 *842:8 0.000348905
15 *427:55 *842:10 0
16 *824:8 *3629:A1 7.29243e-05
*RES
1 *4357:X *842:8 46.2443 
2 *842:8 *842:10 5.075 
3 *842:10 *3629:A1 42.2879 
4 *842:10 *3476:A 39.0979 
*END

*D_NET *843 0.0020951
*CONN
*I *3630:A1 I *D sky130_fd_sc_hd__mux2_1
*I *3479:A I *D sky130_fd_sc_hd__xor2_2
*I *4358:X O *D sky130_fd_sc_hd__clkdlybuf4s25_1
*CAP
1 *3630:A1 0.000138448
2 *3479:A 0.000201904
3 *4358:X 3.53882e-05
4 *843:8 0.00037574
5 *3479:A *848:8 0.000478703
6 *3479:A *852:20 5.3304e-05
7 *3630:A1 *982:33 0.000118737
8 *843:8 *848:8 7.65052e-05
9 *3478:A *3630:A1 5.3304e-05
10 *839:8 *3479:A 2.45092e-05
11 *839:8 *843:8 8.57577e-05
12 *839:14 *3479:A 0.000452802
*RES
1 *4358:X *843:8 39.2014 
2 *843:8 *3479:A 45.105 
3 *843:8 *3630:A1 40.0507 
*END

*D_NET *844 0.0050436
*CONN
*I *3631:A1 I *D sky130_fd_sc_hd__mux2_1
*I *3482:A I *D sky130_fd_sc_hd__xor2_2
*I *4359:X O *D sky130_fd_sc_hd__clkdlybuf4s25_1
*CAP
1 *3631:A1 5.83466e-05
2 *3482:A 0
3 *4359:X 0.000753716
4 *844:14 0.000385378
5 *844:10 0.00108075
6 *3631:A1 *3631:S 0.000124419
7 *844:10 *849:6 0.000714725
8 *844:10 *850:18 0.000251339
9 *3631:A0 *3631:A1 0.000126678
10 *3631:A0 *844:14 0.000571501
11 *44:19 *844:10 0.000235232
12 *267:10 *844:14 0.000321709
13 *427:55 *844:14 0
14 *564:14 *3631:A1 3.34818e-06
15 *564:14 *844:14 1.19591e-05
16 *824:8 *844:14 0
17 *829:8 *844:10 0.000404502
*RES
1 *4359:X *844:10 39.5093 
2 *844:10 *844:14 23.2443 
3 *844:14 *3482:A 38 
4 *844:14 *3631:A1 39.9057 
*END

*D_NET *845 0.00271584
*CONN
*I *3632:A1 I *D sky130_fd_sc_hd__mux2_1
*I *3481:A I *D sky130_fd_sc_hd__nand2_2
*I *3480:A I *D sky130_fd_sc_hd__or2_2
*I *4360:X O *D sky130_fd_sc_hd__clkdlybuf4s25_1
*CAP
1 *3632:A1 4.31281e-05
2 *3481:A 0.000194458
3 *3480:A 0
4 *4360:X 0.000215438
5 *845:10 0.00056195
6 *845:6 0.000626058
7 *3481:A *987:38 0.000239188
8 *3632:A1 *908:32 5.50106e-05
9 *845:10 *855:10 0.000133201
10 *845:10 *987:10 0
11 *845:10 *987:23 0
12 *3704:B2 *3481:A 0
13 *40:9 *3632:A1 0.00014196
14 *40:9 *845:6 0.000140259
15 *40:9 *845:10 0
16 *270:10 *845:6 0.000116245
17 *448:18 *3481:A 5.58003e-05
18 *448:18 *845:10 0
19 *562:14 *3481:A 2.95526e-05
20 *800:8 *845:10 0.000163593
*RES
1 *4360:X *845:6 27.9093 
2 *845:6 *845:10 23.2443 
3 *845:10 *3480:A 38 
4 *845:10 *3481:A 42.2879 
5 *845:6 *3632:A1 24.5743 
*END

*D_NET *846 0.0036184
*CONN
*I *3474:A I *D sky130_fd_sc_hd__or2_2
*I *3475:A I *D sky130_fd_sc_hd__nand2_2
*I *3633:A1 I *D sky130_fd_sc_hd__mux2_1
*I *4361:X O *D sky130_fd_sc_hd__clkdlybuf4s25_1
*CAP
1 *3474:A 0.000168583
2 *3475:A 0
3 *3633:A1 0
4 *4361:X 0.000476857
5 *846:23 0.000503505
6 *846:12 0.000334921
7 *846:10 0.000476857
8 *846:10 *847:20 0
9 *846:10 *988:57 1.83564e-05
10 *846:23 *988:12 7.17979e-05
11 *846:23 *988:57 0.000139058
12 *3633:A0 *846:23 4.66047e-05
13 *3862:CLK *3474:A 3.92407e-05
14 *3862:CLK *846:23 0.000222123
15 *4113:A *3474:A 0.000226295
16 *427:20 *3474:A 0.000185104
17 *427:20 *846:23 5.94125e-05
18 *618:20 *3474:A 0.000158229
19 *795:8 *846:10 0.000491451
*RES
1 *4361:X *846:10 46.3479 
2 *846:10 *846:12 15 
3 *846:12 *3633:A1 23 
4 *846:12 *846:23 21.6493 
5 *846:23 *3475:A 38 
6 *846:23 *3474:A 43.1371 
*END

*D_NET *847 0.00339633
*CONN
*I *3687:B1 I *D sky130_fd_sc_hd__a221o_2
*I *4362:X O *D sky130_fd_sc_hd__clkdlybuf4s25_1
*CAP
1 *3687:B1 0
2 *4362:X 0.000417025
3 *847:20 0.000902786
4 *847:12 0.00131981
5 *847:20 *3687:A2 8.97163e-06
6 *847:20 *3689:A1 3.56295e-05
7 *847:20 *3690:A1 4.24128e-05
8 *847:20 *924:35 4.96024e-05
9 *847:20 *988:12 0
10 *847:20 *988:29 0
11 *847:20 *988:57 0
12 *40:9 *847:12 2.81216e-05
13 *40:9 *847:20 3.33304e-05
14 *42:9 *847:12 5.2894e-05
15 *49:11 *847:12 9.30575e-05
16 *271:10 *847:20 3.21327e-05
17 *427:20 *847:20 0
18 *434:16 *847:20 9.98069e-06
19 *439:10 *847:20 0.000138718
20 *445:10 *847:20 0.000164291
21 *446:10 *847:20 6.02749e-05
22 *448:18 *847:20 0
23 *618:12 *847:20 7.29477e-06
24 *800:8 *847:20 0
25 *846:10 *847:20 0
*RES
1 *4362:X *847:12 44.4111 
2 *847:12 *847:20 32.0996 
3 *847:20 *3687:B1 23 
*END

*D_NET *848 0.00432031
*CONN
*I *3691:A1 I *D sky130_fd_sc_hd__mux2_1
*I *4363:X O *D sky130_fd_sc_hd__clkdlybuf4s25_1
*CAP
1 *3691:A1 0
2 *4363:X 0.000378753
3 *848:18 0.00112343
4 *848:8 0.00150218
5 *848:18 *908:59 0.000285585
6 *3479:A *848:8 0.000478703
7 *3484:A2 *848:18 2.33476e-05
8 *4358:A *848:8 0
9 *36:17 *848:18 2.33476e-05
10 *46:15 *848:18 0
11 *268:10 *848:8 0.000191511
12 *449:20 *848:18 1.41966e-05
13 *620:32 *848:8 9.91382e-05
14 *839:14 *848:8 1.83235e-05
15 *839:36 *848:8 0.000105283
16 *843:8 *848:8 7.65052e-05
*RES
1 *4363:X *848:8 48.8854 
2 *848:8 *848:18 33.9531 
3 *848:18 *3691:A1 23 
*END

*D_NET *849 0.00418274
*CONN
*I *3693:A1 I *D sky130_fd_sc_hd__mux2_1
*I *4364:X O *D sky130_fd_sc_hd__clkdlybuf4s25_1
*CAP
1 *3693:A1 0
2 *4364:X 0.000547525
3 *849:14 0.00021304
4 *849:6 0.000760565
5 *849:6 *908:122 5.50049e-05
6 *849:14 *3693:A0 9.5877e-05
7 *849:14 *4321:A 0.000153121
8 *849:14 *986:10 5.18291e-05
9 *849:14 *986:27 2.93845e-05
10 *36:17 *849:14 0
11 *44:19 *849:6 0.00068677
12 *265:10 *849:6 0.000312348
13 *427:61 *849:14 8.48502e-06
14 *427:67 *849:14 6.95157e-05
15 *839:14 *849:6 0.000484551
16 *844:10 *849:6 0.000714725
*RES
1 *4364:X *849:6 41.7257 
2 *849:6 *849:14 34.06 
3 *849:14 *3693:A1 23 
*END

*D_NET *850 0.00523755
*CONN
*I *3695:A1 I *D sky130_fd_sc_hd__mux2_1
*I *4365:X O *D sky130_fd_sc_hd__clkdlybuf4s25_1
*CAP
1 *3695:A1 0
2 *4365:X 0.00110752
3 *850:26 0.000320284
4 *850:18 0.0014278
5 *850:18 *854:14 0.000437541
6 *850:26 *3629:S 5.23329e-05
7 *850:26 *3695:A0 5.16099e-05
8 *850:26 *908:49 0.000107808
9 *850:26 *912:35 0.000209972
10 *37:9 *850:26 0.000346058
11 *44:19 *850:18 0.000366856
12 *267:10 *850:18 0.000274078
13 *427:55 *850:26 0.000142173
14 *447:14 *850:26 0.000142173
15 *844:10 *850:18 0.000251339
*RES
1 *4365:X *850:18 44.3564 
2 *850:18 *850:26 39.1143 
3 *850:26 *3695:A1 23 
*END

*D_NET *851 0.000654302
*CONN
*I *3643:A1 I *D sky130_fd_sc_hd__mux2_1
*I *4366:X O *D sky130_fd_sc_hd__clkdlybuf4s25_1
*CAP
1 *3643:A1 4.00017e-05
2 *4366:X 0.000205249
3 *851:8 0.000245251
4 *851:8 *3647:S 7.58917e-05
5 *851:8 *895:14 5.56203e-05
6 *3643:A0 *3643:A1 3.22879e-05
7 *623:60 *851:8 0
*RES
1 *4366:X *851:8 42.0186 
2 *851:8 *3643:A1 38.6214 
*END

*D_NET *852 0.00468863
*CONN
*I *3697:A1 I *D sky130_fd_sc_hd__mux2_1
*I *4367:X O *D sky130_fd_sc_hd__clkdlybuf4s25_1
*CAP
1 *3697:A1 0.000307014
2 *4367:X 0.000194589
3 *852:20 0.00108493
4 *852:8 0.0009725
5 *3697:A1 *3697:A0 0.00077967
6 *852:20 *3479:B 0.000242565
7 *852:20 *4318:A 3.70187e-05
8 *852:20 *908:73 1.22775e-06
9 *3479:A *852:20 5.3304e-05
10 *3857:CLK *852:8 0.000171906
11 *36:17 *3697:A1 5.50049e-05
12 *266:10 *852:20 8.30323e-06
13 *444:10 *852:20 1.76557e-05
14 *620:6 *3697:A1 1.24376e-05
15 *620:21 *3697:A1 0.000400209
16 *620:32 *852:8 0.000241616
17 *814:10 *852:20 0.000108681
*RES
1 *4367:X *852:8 43.4271 
2 *852:8 *852:20 41.8693 
3 *852:20 *3697:A1 47.6943 
*END

*D_NET *853 0.00579331
*CONN
*I *3699:A1 I *D sky130_fd_sc_hd__mux2_1
*I *4368:X O *D sky130_fd_sc_hd__clkdlybuf4s25_1
*CAP
1 *3699:A1 0
2 *4368:X 0.000399066
3 *853:22 0.001833
4 *853:10 0.00223206
5 *853:10 *983:24 4.82016e-05
6 *853:22 *908:93 0
7 *853:22 *983:52 6.12392e-05
8 *853:22 *986:27 5.70419e-05
9 *3901:D *853:10 4.98295e-05
10 *3902:CLK *853:10 0
11 *47:21 *853:10 0.000124763
12 *269:8 *853:22 0.000187807
13 *565:14 *853:22 0.00027452
14 *568:12 *853:22 3.74605e-05
15 *604:48 *853:22 0.000488315
*RES
1 *4368:X *853:10 43.6861 
2 *853:10 *853:22 48.0889 
3 *853:22 *3699:A1 23 
*END

*D_NET *854 0.00432415
*CONN
*I *3701:A1 I *D sky130_fd_sc_hd__mux2_1
*I *4369:X O *D sky130_fd_sc_hd__clkdlybuf4s25_1
*CAP
1 *3701:A1 0
2 *4369:X 0.000474277
3 *854:26 0.000631374
4 *854:14 0.00110565
5 *854:14 *3629:S 5.50106e-05
6 *854:14 *912:10 0.000269775
7 *854:26 *3476:B 0
8 *854:26 *3695:A0 0
9 *854:26 *912:10 0
10 o_transmit_data_request *854:26 0
11 *3629:A0 *854:14 9.67842e-05
12 *37:17 *854:26 0.000186813
13 *48:15 *854:14 0.000271805
14 *270:10 *854:26 0
15 *427:43 *854:26 0.000484359
16 *427:55 *854:26 0
17 *441:16 *854:26 0
18 *570:8 *854:26 0.000139357
19 *632:65 *854:26 0
20 *842:8 *854:26 0.000171401
21 *850:18 *854:14 0.000437541
*RES
1 *4369:X *854:14 36.0914 
2 *854:14 *854:26 44.0443 
3 *854:26 *3701:A1 23 
*END

*D_NET *855 0.002012
*CONN
*I *3703:A1 I *D sky130_fd_sc_hd__mux2_1
*I *4370:X O *D sky130_fd_sc_hd__clkdlybuf4s25_1
*CAP
1 *3703:A1 0.000130563
2 *4370:X 0.000546831
3 *855:10 0.000677394
4 *855:10 *987:10 3.98859e-05
5 *48:15 *855:10 7.05156e-05
6 *427:29 *3703:A1 0.000308946
7 *448:8 *3703:A1 6.17437e-06
8 *570:8 *3703:A1 9.84851e-05
9 *632:65 *855:10 0
10 *845:10 *855:10 0.000133201
*RES
1 *4370:X *855:10 48.0671 
2 *855:10 *3703:A1 41.48 
*END

*D_NET *856 0.00218337
*CONN
*I *4383:A I *D sky130_fd_sc_hd__clkdlybuf4s25_1
*I *4065:X O *D sky130_fd_sc_hd__buf_2
*CAP
1 *4383:A 0.000530057
2 *4065:X 0.000261212
3 *856:8 0.000791269
4 *4383:A *863:18 4.3407e-05
5 *4383:A *1011:42 7.15126e-05
6 *856:8 *1010:12 0.000141954
7 *3634:C_N *4383:A 0
8 *4174:A *856:8 0.000159888
9 *4343:A *4383:A 0
10 *25:15 *4383:A 0
11 *59:8 *4383:A 7.8128e-05
12 *666:8 *4383:A 0
13 *706:26 *4383:A 0.000105947
*RES
1 *4065:X *856:8 42.9093 
2 *856:8 *4383:A 47.8186 
*END

*D_NET *857 0.00260334
*CONN
*I *4384:A I *D sky130_fd_sc_hd__clkdlybuf4s25_1
*I *4066:X O *D sky130_fd_sc_hd__buf_2
*CAP
1 *4384:A 0
2 *4066:X 0.000186394
3 *857:14 0.00077228
4 *857:8 0.000958674
5 *857:8 *3660:S 5.50049e-05
6 *857:8 *4066:A 3.22879e-05
7 *857:8 *910:60 2.98648e-05
8 *857:8 *1018:23 5.60968e-05
9 *857:8 *1025:8 0.000141954
10 *857:14 *992:10 0
11 *857:14 *1018:23 6.00862e-06
12 *3660:A1 *857:8 9.41704e-05
13 *291:10 *857:8 5.50106e-05
14 *543:25 *857:14 0.000142678
15 *605:50 *857:14 6.11923e-05
16 *614:10 *857:14 0
17 *614:12 *857:14 0
18 *614:63 *857:14 0
19 *717:8 *857:14 1.17256e-05
*RES
1 *4066:X *857:8 42.4329 
2 *857:8 *857:14 28.6921 
3 *857:14 *4384:A 23 
*END

*D_NET *858 0.00212616
*CONN
*I *4385:A I *D sky130_fd_sc_hd__clkdlybuf4s25_1
*I *4067:X O *D sky130_fd_sc_hd__buf_2
*CAP
1 *4385:A 4.60392e-05
2 *4067:X 0.000500461
3 *858:8 0.0005465
4 *4385:A *4168:A 0.000274078
5 *4385:A *860:16 0.000153145
6 *858:8 *859:18 0.00012705
7 *858:8 *910:10 0
8 *858:8 *1013:29 0
9 *858:8 *1019:26 0.000138718
10 *858:8 *1026:12 0.000140958
11 *3881:RESET_B *858:8 2.2477e-05
12 *55:18 *858:8 0
13 *409:20 *858:8 6.29711e-05
14 *647:28 *858:8 2.43917e-05
15 *647:44 *858:8 8.93697e-05
16 *728:14 *858:8 0
*RES
1 *4067:X *858:8 48.7093 
2 *858:8 *4385:A 41.0036 
*END

*D_NET *859 0.00590324
*CONN
*I *4386:A I *D sky130_fd_sc_hd__clkdlybuf4s25_1
*I *4068:X O *D sky130_fd_sc_hd__buf_2
*CAP
1 *4386:A 0
2 *4068:X 6.0546e-05
3 *859:18 0.00196478
4 *859:10 0.00202532
5 *859:10 *981:65 0.000102696
6 *859:10 *1015:20 3.51881e-05
7 *859:18 *861:18 0.00154808
8 *859:18 *1015:20 0
9 *671:10 *859:10 0
10 *728:14 *859:18 3.95717e-05
11 *858:8 *859:18 0.00012705
*RES
1 *4068:X *859:10 47.7296 
2 *859:10 *859:18 30.5387 
3 *859:18 *4386:A 23 
*END

*D_NET *860 0.00356354
*CONN
*I *4387:A I *D sky130_fd_sc_hd__clkdlybuf4s25_1
*I *4069:X O *D sky130_fd_sc_hd__buf_2
*CAP
1 *4387:A 0
2 *4069:X 0.00021712
3 *860:16 0.000837188
4 *860:8 0.00105431
5 *860:16 *4168:A 0.000132251
6 *860:16 *910:10 6.99589e-05
7 *4385:A *860:16 0.000153145
8 *21:17 *860:8 0.000311855
9 *22:9 *860:16 7.88828e-05
10 *56:8 *860:16 1.14876e-05
11 *58:8 *860:16 0.000248262
12 *654:10 *860:8 0
13 *654:16 *860:8 0
14 *718:10 *860:16 0.000184527
15 *728:6 *860:16 0.000264553
*RES
1 *4069:X *860:8 42.3707 
2 *860:8 *860:16 35.1964 
3 *860:16 *4387:A 23 
*END

*D_NET *861 0.00829456
*CONN
*I *4388:A I *D sky130_fd_sc_hd__clkdlybuf4s25_1
*I *4070:X O *D sky130_fd_sc_hd__buf_2
*CAP
1 *4388:A 0
2 *4070:X 0.000427639
3 *861:18 0.00186665
4 *861:8 0.00229429
5 *861:8 *874:10 0
6 *861:8 *910:72 0
7 *861:8 *1025:12 0
8 *861:8 *1025:40 0
9 *861:18 *863:18 1.05658e-05
10 *861:18 *910:16 0
11 *3878:RESET_B *861:8 0.000275565
12 *647:12 *861:18 0.0016426
13 *758:12 *861:8 0.000141282
14 *759:8 *861:8 8.78864e-05
15 *859:18 *861:18 0.00154808
*RES
1 *4070:X *861:8 48.1811 
2 *861:8 *861:18 37.8171 
3 *861:18 *4388:A 23 
*END

*D_NET *862 0.00282139
*CONN
*I *3644:A1 I *D sky130_fd_sc_hd__mux2_1
*I *4371:X O *D sky130_fd_sc_hd__clkdlybuf4s25_1
*CAP
1 *3644:A1 0
2 *4371:X 0.000176588
3 *862:20 0.000842426
4 *862:8 0.00101901
5 *862:8 *3646:S 0
6 *862:8 *884:12 0
7 *862:20 *4309:A 0
8 *862:20 *908:93 7.34511e-05
9 *862:20 *929:10 5.20028e-05
10 *3872:D *862:20 0.000542165
11 *281:8 *862:20 0
12 *283:10 *862:8 4.08641e-05
13 *608:33 *862:8 7.4878e-05
*RES
1 *4371:X *862:8 42.0186 
2 *862:8 *862:20 44.8314 
3 *862:20 *3644:A1 38 
*END

*D_NET *863 0.0033092
*CONN
*I *4389:A I *D sky130_fd_sc_hd__clkdlybuf4s25_1
*I *3326:Y O *D sky130_fd_sc_hd__inv_2
*CAP
1 *4389:A 0
2 *3326:Y 0.000982766
3 *863:18 0.000277877
4 *863:10 0.00126064
5 *863:10 *3326:A 0
6 *863:10 *1012:10 2.54193e-05
7 *3968:RESET_B *863:10 9.35646e-05
8 *4383:A *863:18 4.3407e-05
9 *25:15 *863:18 0
10 *60:8 *863:18 3.7122e-06
11 *613:22 *863:10 7.91752e-05
12 *613:35 *863:10 5.52293e-05
13 *666:8 *863:18 3.83778e-05
14 *690:6 *863:10 0.000438462
15 *861:18 *863:18 1.05658e-05
*RES
1 *3326:Y *863:10 37.6036 
2 *863:10 *863:18 34.9093 
3 *863:18 *4389:A 23 
*END

*D_NET *864 0.00312838
*CONN
*I *4208:A I *D sky130_fd_sc_hd__dlygate4sd3_1
*I *4390:A I *D sky130_fd_sc_hd__clkdlybuf4s25_1
*I *3884:Q O *D sky130_fd_sc_hd__dfxtp_2
*CAP
1 *4208:A 0
2 *4390:A 0.000996182
3 *3884:Q 6.69334e-05
4 *864:21 7.72499e-05
5 *864:6 0.00114037
6 *4390:A *907:121 0.000137361
7 *4390:A *947:36 6.12551e-05
8 *4095:A *4390:A 2.64616e-05
9 *342:10 *4390:A 0.000317553
10 *622:42 *864:21 5.61414e-05
11 *623:101 *4390:A 0.000192736
12 *641:37 *864:21 5.61414e-05
*RES
1 *3884:Q *864:6 24.0979 
2 *864:6 *4390:A 41.6221 
3 *864:6 *864:21 32.2579 
4 *864:21 *4208:A 23 
*END

*D_NET *865 0.00413177
*CONN
*I *4391:A I *D sky130_fd_sc_hd__clkdlybuf4s25_1
*I *4206:A I *D sky130_fd_sc_hd__dlygate4sd3_1
*I *3885:Q O *D sky130_fd_sc_hd__dfxtp_2
*CAP
1 *4391:A 0
2 *4206:A 0
3 *3885:Q 0.000400309
4 *865:23 0.000480909
5 *865:12 0.00050813
6 *865:10 0.00042753
7 *865:10 *4392:A 0
8 *865:10 *866:10 0
9 *865:10 *867:12 9.51713e-05
10 *865:10 *867:16 0.000209469
11 *865:10 *868:12 0.000169075
12 *865:10 *868:18 3.1647e-05
13 *865:10 *868:26 0.000225275
14 *865:10 *940:6 1.04196e-05
15 *865:10 *940:12 3.47879e-05
16 *865:23 *4392:A 0.000105662
17 *865:23 *868:26 0.000288578
18 *865:23 *906:62 0.000138727
19 *13:19 *865:23 0.000125253
20 *16:11 *865:23 0.000287351
21 *17:13 *865:23 6.46393e-05
22 *413:10 *865:23 0.000107508
23 *553:10 *865:10 0.000354769
24 *642:14 *865:23 6.65664e-05
*RES
1 *3885:Q *865:10 49.8071 
2 *865:10 *865:12 0.621429 
3 *865:12 *4206:A 38 
4 *865:12 *865:23 28.8786 
5 *865:23 *4391:A 23 
*END

*D_NET *866 0.00335586
*CONN
*I *4392:A I *D sky130_fd_sc_hd__clkdlybuf4s25_1
*I *4207:A I *D sky130_fd_sc_hd__dlygate4sd3_1
*I *3886:Q O *D sky130_fd_sc_hd__dfxtp_2
*CAP
1 *4392:A 0.000343025
2 *4207:A 0.000613159
3 *3886:Q 0.000335662
4 *866:10 0.00129185
5 *4392:A *3405:A 6.95681e-05
6 *866:10 *868:18 7.91493e-05
7 *3670:A0 *4207:A 3.64736e-05
8 *3670:A1 *4207:A 0.000140259
9 *3670:S *4207:A 0.00013962
10 *13:19 *4392:A 0.000105399
11 *624:91 *4392:A 0
12 *700:10 *4392:A 0
13 *701:12 *4392:A 3.5664e-05
14 *701:12 *866:10 6.03737e-05
15 *865:10 *4392:A 0
16 *865:10 *866:10 0
17 *865:23 *4392:A 0.000105662
*RES
1 *3886:Q *866:10 43.1371 
2 *866:10 *4207:A 49.1236 
3 *866:10 *4392:A 46.2443 
*END

*D_NET *867 0.00435331
*CONN
*I *4393:A I *D sky130_fd_sc_hd__clkdlybuf4s25_1
*I *4205:A I *D sky130_fd_sc_hd__dlygate4sd3_1
*I *3887:Q O *D sky130_fd_sc_hd__dfxtp_2
*CAP
1 *4393:A 0.000555187
2 *4205:A 3.27344e-05
3 *3887:Q 0.000105344
4 *867:16 0.000836986
5 *867:12 0.000354408
6 *867:12 *889:126 5.3304e-05
7 *867:12 *940:12 6.38845e-05
8 *867:16 *868:26 0.00041036
9 o_receive_data[2] *867:12 1.17182e-05
10 o_receive_data[2] *867:16 0.000833579
11 *64:6 *4205:A 5.3304e-05
12 *64:6 *4393:A 0.000550728
13 *163:10 *4393:A 0.000187129
14 *865:10 *867:12 9.51713e-05
15 *865:10 *867:16 0.000209469
*RES
1 *3887:Q *867:12 40.5168 
2 *867:12 *867:16 25.9889 
3 *867:16 *4205:A 23.6214 
4 *867:16 *4393:A 35.47 
*END

*D_NET *868 0.00471814
*CONN
*I *4203:A I *D sky130_fd_sc_hd__dlygate4sd3_1
*I *4394:A I *D sky130_fd_sc_hd__clkdlybuf4s25_1
*I *3888:Q O *D sky130_fd_sc_hd__dfxtp_2
*CAP
1 *4203:A 0
2 *4394:A 0
3 *3888:Q 0.000348024
4 *868:26 0.000547933
5 *868:18 0.000853369
6 *868:12 0.000653461
7 *868:12 *940:12 4.76829e-05
8 *868:26 *906:62 0.000138727
9 o_receive_data[1] *868:12 0
10 o_receive_data[1] *868:26 5.62424e-05
11 o_receive_data[2] *868:26 7.53077e-05
12 *3670:S *868:18 5.3304e-05
13 *15:13 *868:26 4.85008e-05
14 *17:13 *868:26 0.000202763
15 *413:10 *868:26 0.000109739
16 *413:18 *868:26 2.64616e-05
17 *553:10 *868:18 0.000352538
18 *701:12 *868:12 0
19 *701:12 *868:18 0
20 *865:10 *868:12 0.000169075
21 *865:10 *868:18 3.1647e-05
22 *865:10 *868:26 0.000225275
23 *865:23 *868:26 0.000288578
24 *866:10 *868:18 7.91493e-05
25 *867:16 *868:26 0.00041036
*RES
1 *3888:Q *868:12 44.8668 
2 *868:12 *868:18 22.2811 
3 *868:18 *868:26 45.3286 
4 *868:26 *4394:A 23 
5 *868:18 *4203:A 23 
*END

*D_NET *869 0.00307811
*CONN
*I *4395:A I *D sky130_fd_sc_hd__clkdlybuf4s25_1
*I *4200:A I *D sky130_fd_sc_hd__dlygate4sd3_1
*I *3889:Q O *D sky130_fd_sc_hd__dfxtp_2
*CAP
1 *4395:A 0.000169404
2 *4200:A 7.55526e-05
3 *3889:Q 0.00039305
4 *869:10 0.000795504
5 *869:8 0.000943598
6 *869:8 *3673:B 0.000131263
7 *869:10 *3673:A 0
8 *869:10 *945:8 0.000136609
9 *3670:A0 *869:10 0
10 *344:10 *4395:A 0
11 *359:87 *869:10 0
12 *555:10 *869:8 1.05235e-05
13 *606:56 *4395:A 0
14 *624:44 *4200:A 4.3198e-05
15 *624:46 *4200:A 9.77405e-05
16 *624:143 *4395:A 1.46784e-05
17 *624:143 *869:10 9.1906e-05
18 *702:8 *4395:A 0.00011871
19 *702:8 *869:10 4.23714e-05
20 *780:8 *4395:A 0
21 *816:10 *869:8 1.40004e-05
*RES
1 *3889:Q *869:8 43.3857 
2 *869:8 *869:10 10.3571 
3 *869:10 *4200:A 39.5743 
4 *869:10 *4395:A 42.0807 
*END

*D_NET *870 0.00403313
*CONN
*I *4204:A I *D sky130_fd_sc_hd__dlygate4sd3_1
*I *4396:A I *D sky130_fd_sc_hd__clkdlybuf4s25_1
*I *3890:Q O *D sky130_fd_sc_hd__dfxtp_2
*CAP
1 *4204:A 3.75795e-05
2 *4396:A 0
3 *3890:Q 0.000348384
4 *870:16 0.00104319
5 *870:8 0.00142915
6 *4204:A *932:34 0
7 *870:16 *3711:B 0.000249918
8 *870:16 *4298:A 0.000224345
9 *870:16 *909:72 0
10 *870:16 *930:10 0.000127272
11 *870:16 *932:8 0.000330144
12 *870:16 *932:34 0
13 *3873:RESET_B *870:16 0
14 *4:15 *870:16 4.07902e-05
15 *278:10 *870:16 0
16 *623:60 *4204:A 0
17 *623:60 *870:16 0
18 *640:105 *870:16 0
19 *699:14 *870:8 0.000100066
20 *739:8 *870:16 0.000102289
21 *803:8 *870:16 0
*RES
1 *3890:Q *870:8 42.4329 
2 *870:8 *870:16 36.1907 
3 *870:16 *4396:A 23 
4 *870:8 *4204:A 38.8493 
*END

*D_NET *871 0.0060948
*CONN
*I *4210:A I *D sky130_fd_sc_hd__dlygate4sd3_1
*I *4397:A I *D sky130_fd_sc_hd__clkdlybuf4s25_1
*I *3891:Q O *D sky130_fd_sc_hd__dfxtp_2
*CAP
1 *4210:A 0.000120009
2 *4397:A 0
3 *3891:Q 0.000545824
4 *871:22 0.0014422
5 *871:10 0.00156221
6 *871:8 0.000545824
7 *871:8 *936:12 0
8 *871:8 *947:8 5.80963e-05
9 *871:8 *971:59 0
10 *871:22 *3735:A 5.72041e-05
11 *871:22 *3735:C 0.000140935
12 *3717:A2 *871:22 0.00026457
13 *3735:D *871:22 0.000153507
14 *3736:C *871:22 0.000108482
15 *3741:C *871:22 0.000200655
16 *314:10 *871:8 9.85728e-05
17 *320:10 *871:22 4.05745e-05
18 *354:30 *4210:A 0.000100733
19 *354:30 *871:22 7.88828e-05
20 *557:8 *871:8 0
21 *581:12 *871:8 0
22 *582:10 *871:22 3.17516e-05
23 *582:74 *871:22 7.43942e-05
24 *595:8 *871:22 0.000227473
25 *595:63 *871:22 0.00014109
26 *705:10 *871:8 0
27 *705:10 *871:22 1.32939e-05
28 *789:8 *871:8 8.85189e-05
*RES
1 *3891:Q *871:8 49.0614 
2 *871:8 *871:10 15 
3 *871:10 *871:22 29.9114 
4 *871:22 *4397:A 23 
5 *871:10 *4210:A 25.5479 
*END

*D_NET *872 0.00537254
*CONN
*I *4398:A I *D sky130_fd_sc_hd__clkdlybuf4s25_1
*I *3977:Q O *D sky130_fd_sc_hd__dfrtp_2
*CAP
1 *4398:A 0
2 *3977:Q 0.00150869
3 *872:22 0.000356794
4 *872:14 0.000601649
5 *872:6 0.00175354
6 *872:6 *989:8 5.70419e-05
7 *872:14 *990:10 8.51225e-05
8 *872:22 *874:10 0.000190904
9 *3965:RESET_B *872:6 0.000111842
10 *3978:RESET_B *872:6 2.27585e-05
11 *4380:A *872:14 0.000228909
12 *4380:A *872:22 0
13 *70:8 *872:22 0
14 *106:18 *872:6 0.000128401
15 *614:37 *872:14 0.000272377
16 *649:10 *872:22 0
17 *650:10 *872:14 4.30604e-05
18 *654:22 *872:22 1.14452e-05
19 *669:8 *872:22 0
*RES
1 *3977:Q *872:6 42.6786 
2 *872:6 *872:14 37.1671 
3 *872:14 *872:22 36.4007 
4 *872:22 *4398:A 23 
*END

*D_NET *873 0.00196073
*CONN
*I *3645:A1 I *D sky130_fd_sc_hd__mux2_1
*I *4372:X O *D sky130_fd_sc_hd__clkdlybuf4s25_1
*CAP
1 *3645:A1 0
2 *4372:X 0.000156408
3 *873:12 0.000477339
4 *873:8 0.000633747
5 *873:12 *895:14 0.000192691
6 *873:12 *909:63 0.000500548
7 *8:13 *873:12 0
8 *619:59 *873:12 0
9 *619:63 *873:12 0
*RES
1 *4372:X *873:8 40.0507 
2 *873:8 *873:12 28.1743 
3 *873:12 *3645:A1 23 
*END

*D_NET *874 0.00155601
*CONN
*I *4399:A I *D sky130_fd_sc_hd__clkdlybuf4s25_1
*I *3978:Q O *D sky130_fd_sc_hd__dfrtp_2
*CAP
1 *4399:A 4.67873e-05
2 *3978:Q 0.000552525
3 *874:10 0.000599312
4 *3878:D *874:10 0.000103637
5 *286:10 *874:10 6.28488e-05
6 *614:37 *874:10 0
7 *758:12 *874:10 0
8 *861:8 *874:10 0
9 *872:22 *874:10 0.000190904
*RES
1 *3978:Q *874:10 47.1557 
2 *874:10 *4399:A 38.6214 
*END

*D_NET *875 0.0170039
*CONN
*I *3718:B I *D sky130_fd_sc_hd__or2_2
*I *3725:A2 I *D sky130_fd_sc_hd__o2111a_2
*I *4400:A I *D sky130_fd_sc_hd__clkdlybuf4s25_1
*I *3524:A3 I *D sky130_fd_sc_hd__a31o_2
*I *3972:Q O *D sky130_fd_sc_hd__dfrtp_2
*CAP
1 *3718:B 0.000203355
2 *3725:A2 9.01449e-05
3 *4400:A 0
4 *3524:A3 0
5 *3972:Q 2.60871e-05
6 *875:58 0.00125484
7 *875:43 0.00275442
8 *875:31 0.00501311
9 *875:18 0.000889613
10 *875:8 0.00221305
11 *3718:B *965:46 0
12 *3718:B *971:37 0
13 *3718:B *999:8 2.93845e-05
14 *3718:B *999:14 0.000171906
15 *875:18 *4314:A 3.7122e-06
16 *875:18 *1004:12 4.57742e-05
17 *875:43 *908:49 0.000508729
18 *875:43 *908:59 0.000936123
19 *875:58 *3754:S 0
20 *875:58 *4271:A 0
21 *875:58 *961:26 0.000183572
22 *875:58 *970:53 0
23 *3949:D *875:18 8.46337e-05
24 *3972:CLK *875:18 0.000323822
25 *36:17 *875:43 0
26 *109:14 *875:18 0
27 *113:23 *875:18 0.00010404
28 *114:10 *875:18 0
29 *351:8 *875:58 0
30 *364:31 *875:18 0.000114083
31 *427:67 *875:43 0.000382254
32 *449:20 *875:43 0.000844517
33 *585:14 *875:58 0
34 *604:12 *875:31 0.00067342
35 *604:12 *875:58 5.48536e-06
36 *634:116 *875:58 0.000147809
37 *774:10 *875:58 0
*RES
1 *3972:Q *875:8 38.3211 
2 *875:8 *875:18 44.1168 
3 *875:18 *3524:A3 38 
4 *875:8 *875:31 19.3619 
5 *875:31 *875:43 43.7681 
6 *875:43 *4400:A 23 
7 *875:31 *875:58 27.0976 
8 *875:58 *3725:A2 39.0979 
9 *875:58 *3718:B 42.7021 
*END

*D_NET *876 0.016062
*CONN
*I *3766:A1 I *D sky130_fd_sc_hd__o21a_2
*I *3802:A1 I *D sky130_fd_sc_hd__o21a_2
*I *3803:A1 I *D sky130_fd_sc_hd__o21a_2
*I *3801:A1 I *D sky130_fd_sc_hd__o21a_2
*I *3800:A1 I *D sky130_fd_sc_hd__o21a_2
*I *3799:A1 I *D sky130_fd_sc_hd__o21a_2
*I *3798:A1 I *D sky130_fd_sc_hd__o21a_2
*I *3797:A1 I *D sky130_fd_sc_hd__o21a_2
*I *3796:A1 I *D sky130_fd_sc_hd__o21a_2
*I *3795:A1 I *D sky130_fd_sc_hd__o21a_2
*I *4137:X O *D sky130_fd_sc_hd__clkdlybuf4s25_1
*CAP
1 *3766:A1 0
2 *3802:A1 0.000302029
3 *3803:A1 7.73025e-05
4 *3801:A1 5.70498e-05
5 *3800:A1 0.000359473
6 *3799:A1 0
7 *3798:A1 0.000107513
8 *3797:A1 0
9 *3796:A1 0
10 *3795:A1 2.50374e-05
11 *4137:X 0.000284399
12 *876:139 0.000201989
13 *876:102 0.000134352
14 *876:100 0.000485827
15 *876:87 0.00100153
16 *876:78 0.000429272
17 *876:70 0.00134183
18 *876:55 0.000778769
19 *876:48 7.42799e-05
20 *876:30 0.000225246
21 *876:26 0.000595045
22 *876:20 0.000537511
23 *876:18 0.000826172
24 *876:6 0.00131256
25 *3795:A1 *3795:A2 5.79559e-05
26 *3800:A1 *3800:A2 6.12587e-05
27 *3801:A1 *3803:A2 2.64616e-05
28 *3801:A1 *890:120 5.40241e-05
29 *3801:A1 *1059:10 6.8137e-05
30 *3802:A1 *890:128 0.000368601
31 *3802:A1 *1060:8 5.83599e-05
32 *3803:A1 *3803:A2 1.03955e-05
33 *3803:A1 *1059:10 0.000137651
34 *876:6 *3767:A2 9.0102e-05
35 *876:6 *891:49 0.000337806
36 *876:6 *1042:10 0.000206337
37 *876:18 *3507:A 5.10686e-05
38 *876:18 *3767:A1 1.24376e-05
39 *876:18 *3767:A2 0.000115052
40 *876:18 *877:14 3.31127e-05
41 *876:18 *877:29 0.000109388
42 *876:18 *1041:73 4.79641e-05
43 *876:18 *1042:25 0.000389772
44 *876:18 *1042:29 0.000170375
45 *876:26 *3507:B 9.37067e-05
46 *876:26 *3797:A2 0
47 *876:30 *3507:B 8.06804e-06
48 *876:30 *3795:A2 9.68402e-06
49 *876:48 *3797:A2 0.000141869
50 *876:48 *889:140 4.21594e-06
51 *876:70 *1057:10 0.000240324
52 *876:78 *890:79 0.000161067
53 *876:78 *890:92 1.12863e-05
54 *876:78 *1057:10 2.02872e-05
55 *876:87 *3512:B1 4.2361e-05
56 *876:87 *890:79 0.000115022
57 *876:87 *890:92 0
58 *876:87 *1057:22 0
59 *876:100 *3512:B1 2.76611e-06
60 *876:100 *890:128 6.04064e-05
61 *876:100 *1059:10 9.508e-05
62 *876:100 *1060:8 3.41998e-06
63 *876:139 *877:14 0
64 *3795:B1 *876:30 1.68976e-05
65 *3796:B1 *876:30 8.77456e-05
66 *3802:B1 *3802:A1 0
67 *3918:CLK *876:18 0.000238194
68 *3918:D *876:6 6.17437e-06
69 *3918:D *876:18 2.93747e-05
70 *3995:CLK *3800:A1 4.7444e-05
71 *11:10 *876:139 0.000111694
72 *166:8 *876:78 0
73 *170:12 *3800:A1 3.6415e-05
74 *387:14 *3803:A1 5.92493e-05
75 *387:14 *876:87 0
76 *387:35 *876:70 0.000192077
77 *387:35 *876:87 0
78 *396:40 *876:18 0.000261956
79 *469:8 *876:26 4.7869e-05
80 *469:8 *876:55 0.00030437
81 *469:8 *876:70 7.44353e-05
82 *606:45 *876:139 0.000182826
83 *641:99 *876:78 0.000263936
84 *641:99 *876:87 3.43144e-05
85 *641:107 *876:78 0.000121053
86 *641:120 *876:78 0.000109532
87 *641:120 *876:87 0
88 *641:139 *876:100 0
89 *646:63 *876:26 0.000118174
90 *646:63 *876:48 0
91 *646:63 *876:55 0.000617876
92 *646:63 *876:70 0.000346225
93 *715:10 *876:139 0.000181131
*RES
1 *4137:X *876:6 31.7207 
2 *876:6 *876:18 48.6221 
3 *876:18 *876:20 15 
4 *876:20 *876:26 20.51 
5 *876:26 *876:30 2.9 
6 *876:30 *3795:A1 23.6214 
7 *876:30 *3796:A1 23 
8 *876:26 *876:48 31.9057 
9 *876:48 *3797:A1 23 
10 *876:20 *876:55 8.24429 
11 *876:55 *3798:A1 39.5743 
12 *876:55 *876:70 24.6321 
13 *876:70 *876:78 38.0993 
14 *876:78 *3799:A1 23 
15 *876:70 *876:87 23.5964 
16 *876:87 *3800:A1 42.8057 
17 *876:87 *876:100 4.01857 
18 *876:100 *876:102 15 
19 *876:102 *3801:A1 24.5743 
20 *876:102 *3803:A1 25.5686 
21 *876:100 *3802:A1 44.4007 
22 *876:6 *876:139 35.0129 
23 *876:139 *3766:A1 23 
*END

*D_NET *877 0.0115287
*CONN
*I *3850:A1 I *D sky130_fd_sc_hd__o21a_2
*I *3765:A1 I *D sky130_fd_sc_hd__o21a_2
*I *3770:A1 I *D sky130_fd_sc_hd__o21a_2
*I *3769:A1 I *D sky130_fd_sc_hd__o21a_2
*I *4137:A I *D sky130_fd_sc_hd__clkdlybuf4s25_1
*I *3767:A1 I *D sky130_fd_sc_hd__o21a_2
*I *4138:X O *D sky130_fd_sc_hd__clkdlybuf4s25_1
*CAP
1 *3850:A1 0
2 *3765:A1 0
3 *3770:A1 0
4 *3769:A1 0
5 *4137:A 0.000317484
6 *3767:A1 3.83726e-05
7 *4138:X 0
8 *877:83 0.000260993
9 *877:65 0.000478722
10 *877:48 0.00133831
11 *877:31 0.00117707
12 *877:29 0.000979365
13 *877:14 0.00164787
14 *877:8 0.000791129
15 *877:4 0.00042199
16 *3767:A1 *3767:A2 1.76557e-05
17 *3767:A1 *1041:73 9.67842e-05
18 *4137:A *891:49 0
19 *4137:A *891:62 0
20 *4137:A *1050:70 7.03766e-05
21 *877:8 *3765:A2 0.000271476
22 *877:14 *941:26 7.28526e-05
23 *877:14 *1041:10 0
24 *877:14 *1041:21 0
25 *877:29 *3363:A1 5.12254e-05
26 *877:29 *3365:B 0.000182585
27 *877:29 *3383:A1 6.48142e-05
28 *877:29 *890:25 0.000182962
29 *877:48 *3768:A1 2.18409e-05
30 *877:48 *3768:A2 2.93747e-05
31 *877:48 *891:62 0
32 *877:48 *1050:70 2.60152e-05
33 *877:65 *3768:A1 9.98796e-05
34 *877:65 *3768:A2 1.03955e-05
35 *877:65 *3769:A2 5.50049e-05
36 *877:65 *891:72 0.000228903
37 *877:83 *3765:A2 4.17736e-05
38 *877:83 *3850:A2 9.39159e-05
39 *877:83 *891:10 1.58805e-05
40 *877:83 *894:111 0
41 *877:83 *1031:10 1.14452e-05
42 *3372:A2 *877:48 0.000138708
43 *3765:B1 *877:83 4.5051e-05
44 *3770:B1 *877:65 0.000400198
45 *3918:CLK *877:29 3.95159e-06
46 *3919:D *877:29 3.22879e-05
47 *11:10 *877:14 0
48 *11:10 *877:83 4.03011e-06
49 *176:10 *877:8 5.67058e-05
50 *176:10 *877:14 0
51 *178:8 *877:29 2.93562e-05
52 *180:8 *877:65 3.56537e-05
53 *216:10 *877:48 0
54 *394:27 *877:48 5.15096e-05
55 *396:10 *877:48 0
56 *396:32 *877:29 0.000139647
57 *396:40 *877:29 0
58 *396:96 *877:48 0.000158124
59 *625:109 *877:29 0.000260631
60 *644:39 *877:14 0.000141879
61 *644:55 *4137:A 0
62 *644:55 *877:48 0
63 *644:66 *877:48 0
64 *644:77 *877:48 0
65 *644:83 *877:48 6.33614e-05
66 *644:103 *877:48 1.83564e-05
67 *644:103 *877:65 0.000562276
68 *644:120 *877:65 2.46345e-05
69 *716:10 *877:14 0.000110913
70 *785:8 *877:14 0
71 *876:18 *3767:A1 1.24376e-05
72 *876:18 *877:14 3.31127e-05
73 *876:18 *877:29 0.000109388
74 *876:139 *877:14 0
*RES
1 *4138:X *877:4 23 
2 *877:4 *877:8 3.97714 
3 *877:8 *877:14 27.5114 
4 *877:14 *3767:A1 39.0979 
5 *877:14 *877:29 35.8179 
6 *877:29 *877:31 15 
7 *877:31 *4137:A 44.0486 
8 *877:31 *877:48 33.0214 
9 *877:48 *3769:A1 23 
10 *877:48 *877:65 43.92 
11 *877:65 *3770:A1 23 
12 *877:8 *3765:A1 23 
13 *877:4 *877:83 35.2407 
14 *877:83 *3850:A1 23 
*END

*D_NET *878 0.0182681
*CONN
*I *3793:A1 I *D sky130_fd_sc_hd__o21a_2
*I *3791:A1 I *D sky130_fd_sc_hd__o21a_2
*I *3790:A1 I *D sky130_fd_sc_hd__o21a_2
*I *3786:A1 I *D sky130_fd_sc_hd__o21a_2
*I *3849:A1 I *D sky130_fd_sc_hd__o21a_2
*I *3846:A1 I *D sky130_fd_sc_hd__o21a_2
*I *3764:A1 I *D sky130_fd_sc_hd__o21a_2
*I *3789:A1 I *D sky130_fd_sc_hd__o21a_2
*I *3848:A1 I *D sky130_fd_sc_hd__o21a_2
*I *3792:A1 I *D sky130_fd_sc_hd__o21a_2
*I *4139:X O *D sky130_fd_sc_hd__clkdlybuf4s25_1
*CAP
1 *3793:A1 0
2 *3791:A1 0.000170478
3 *3790:A1 1.96641e-05
4 *3786:A1 0
5 *3849:A1 0
6 *3846:A1 0.000147445
7 *3764:A1 2.34823e-05
8 *3789:A1 0
9 *3848:A1 0
10 *3792:A1 0.000590086
11 *4139:X 0.00034094
12 *878:151 0.000112755
13 *878:124 0.000450019
14 *878:109 0.000524897
15 *878:92 0.00117376
16 *878:76 0.000359266
17 *878:64 0.000416232
18 *878:62 0.00072163
19 *878:53 0.000411889
20 *878:47 0.000819403
21 *878:43 0.000397603
22 *878:33 0.000708748
23 *878:16 0.00142289
24 *878:6 0.000981946
25 *3791:A1 *3791:A2 7.08761e-05
26 *3792:A1 *3792:A2 0.000328285
27 *3792:A1 *1030:42 0
28 *3846:A1 *1034:14 0.000302348
29 *878:6 *4139:A 1.21972e-05
30 *878:16 *1035:8 0.00014504
31 *878:33 *1035:8 0
32 *878:43 *892:52 4.08664e-05
33 *878:47 *892:52 0.000523722
34 *878:53 *892:58 0.000226923
35 *878:53 *1030:42 9.5877e-05
36 *878:62 *4138:A 0.000352415
37 *878:62 *892:58 2.18286e-05
38 *878:62 *892:62 2.25809e-05
39 *878:64 *4138:A 0.000141954
40 *878:76 *3789:A2 0.00049412
41 *878:76 *4138:A 0.000315857
42 *878:92 *911:89 0
43 *878:92 *1034:14 7.39034e-05
44 *878:109 *3846:A2 7.03766e-05
45 *878:124 *892:117 0.000206494
46 *878:151 *892:139 0.000357921
47 *878:151 *894:83 0.000181412
48 *3390:A1 *3846:A1 1.97329e-05
49 *3390:A1 *878:92 6.12496e-06
50 *3390:A1 *878:109 4.21281e-05
51 *3390:A2 *878:92 0
52 *3390:B1 *878:109 0.000311549
53 *3398:A *3846:A1 0
54 *3440:B1 *3792:A1 0.000170745
55 *3440:B1 *878:16 0.000197649
56 *3528:B1 *878:124 4.96264e-05
57 *3786:B1 *878:124 1.83444e-05
58 *3790:B1 *3790:A1 4.00259e-06
59 *3790:B1 *878:43 9.63634e-05
60 *3942:SET_B *878:33 6.64873e-05
61 *4040:D *878:92 0
62 *92:8 *878:124 0.000459638
63 *175:8 *878:92 0.000304309
64 *197:8 *878:124 3.56433e-05
65 *201:8 *878:43 5.3304e-05
66 *202:10 *3791:A1 5.50049e-05
67 *202:10 *878:33 0.000192375
68 *257:10 *3846:A1 0
69 *325:10 *878:109 8.08139e-06
70 *360:33 *878:53 0.000159793
71 *360:33 *878:124 0.000182863
72 *367:20 *878:124 9.67842e-05
73 *407:10 *878:92 0.000108559
74 *603:55 *878:16 0
75 *603:105 *3791:A1 7.73735e-05
76 *603:105 *878:43 6.3584e-05
77 *603:105 *878:47 0.000277649
78 *606:35 *878:76 6.7177e-06
79 *627:40 *878:33 0.000164282
80 *643:67 *878:109 4.83778e-05
81 *643:76 *878:109 4.21594e-06
82 *643:98 *878:64 7.1349e-05
83 *643:98 *878:76 0.000180812
84 *643:107 *878:62 0.000170208
85 *643:107 *878:64 6.17437e-06
86 *643:119 *878:33 6.29695e-05
87 *644:10 *878:76 0
88 *644:14 *878:76 9.84794e-05
89 *644:27 *878:76 7.38076e-05
90 *645:78 *878:53 0.000305431
91 *645:101 *878:124 3.06353e-05
92 *645:148 *878:33 7.75329e-06
93 *678:12 *878:6 7.15126e-05
94 *678:12 *878:16 6.53382e-05
95 *689:6 *878:53 1.56665e-05
96 *723:10 *878:92 0
97 *763:12 *878:53 0
98 *763:12 *878:124 0
99 *764:8 *878:124 4.85126e-05
*RES
1 *4139:X *878:6 27.4329 
2 *878:6 *878:16 38.3893 
3 *878:16 *3792:A1 31.7621 
4 *878:16 *878:33 37.1879 
5 *878:33 *878:43 4.76429 
6 *878:43 *878:47 20.8621 
7 *878:47 *878:53 21.2143 
8 *878:53 *3848:A1 23 
9 *878:53 *878:62 5.40643 
10 *878:62 *878:64 1.57429 
11 *878:64 *878:76 41.5793 
12 *878:76 *3789:A1 23 
13 *878:64 *3764:A1 23.4971 
14 *878:62 *878:92 26.0614 
15 *878:92 *3846:A1 42.0186 
16 *878:92 *878:109 38.2443 
17 *878:109 *3849:A1 38 
18 *878:47 *878:124 28.0086 
19 *878:124 *3786:A1 23 
20 *878:43 *3790:A1 23.4971 
21 *878:33 *3791:A1 26.5007 
22 *878:6 *878:151 34.7229 
23 *878:151 *3793:A1 23 
*END

*D_NET *879 0.0166063
*CONN
*I *3804:A1 I *D sky130_fd_sc_hd__o21a_2
*I *3772:A1 I *D sky130_fd_sc_hd__o21a_2
*I *3771:A1 I *D sky130_fd_sc_hd__o21a_2
*I *3768:A1 I *D sky130_fd_sc_hd__o21a_2
*I *3773:A1 I *D sky130_fd_sc_hd__o21a_2
*I *3794:A1 I *D sky130_fd_sc_hd__o21a_2
*I *3805:A1 I *D sky130_fd_sc_hd__o21a_2
*I *3774:A1 I *D sky130_fd_sc_hd__o21a_2
*I *3788:A1 I *D sky130_fd_sc_hd__o21a_2
*I *4140:X O *D sky130_fd_sc_hd__clkdlybuf4s25_1
*CAP
1 *3804:A1 0
2 *3772:A1 3.94759e-05
3 *3771:A1 0
4 *3768:A1 0.00117053
5 *3773:A1 0
6 *3794:A1 0
7 *3805:A1 0.000231141
8 *3774:A1 8.33325e-05
9 *3788:A1 0.000207895
10 *4140:X 0.000406231
11 *879:108 0.0004814
12 *879:83 0.00174392
13 *879:74 0.000471112
14 *879:68 0.00064844
15 *879:59 0.000289896
16 *879:37 0.0014746
17 *879:29 0.00152984
18 *879:25 0.000734611
19 *879:8 0.00103908
20 *3768:A1 *3768:A2 2.32683e-05
21 *3768:A1 *3769:A2 7.22308e-05
22 *3768:A1 *891:72 9.67842e-05
23 *3768:A1 *1047:14 0.000317553
24 *3768:A1 *1047:20 5.50106e-05
25 *3768:A1 *1048:69 0.000157938
26 *3768:A1 *1049:27 4.05745e-05
27 *3774:A1 *893:46 0.000140958
28 *3788:A1 *893:14 0.000406092
29 *3805:A1 *3805:A2 1.94693e-05
30 *3805:A1 *893:31 1.59094e-05
31 *3805:A1 *893:46 0.000213811
32 *879:8 *880:117 3.3577e-05
33 *879:25 *893:14 0.000431843
34 *879:25 *893:25 0.000454515
35 *879:29 *893:27 0.000314432
36 *879:29 *893:31 1.41077e-05
37 *879:37 *893:55 6.48049e-05
38 *879:37 *1051:20 0
39 *879:59 *4291:A 3.92407e-05
40 *879:59 *893:55 0.000197479
41 *879:59 *1052:8 0.000116314
42 *879:68 *4291:A 0.000207507
43 *879:68 *893:55 6.16439e-05
44 *879:68 *893:74 0.000316848
45 *879:74 *893:80 0
46 *879:74 *893:100 0
47 *879:83 *3768:A2 1.40958e-05
48 *879:108 *893:100 0.000913041
49 *3363:A3 *3774:A1 4.21594e-06
50 *3768:B1 *3768:A1 2.4754e-05
51 *3773:B1 *3768:A1 2.32101e-05
52 *3804:B1 *879:25 8.52481e-05
53 *3804:B1 *879:29 0.000141052
54 *3939:CLK *879:8 1.05235e-05
55 *3939:CLK *879:25 7.73301e-05
56 *3939:RESET_B *879:8 2.92911e-06
57 *119:10 *879:37 0.000119828
58 *182:10 *879:108 0
59 *184:8 *879:108 0.000143733
60 *199:8 *3788:A1 0
61 *199:8 *879:25 0
62 *205:8 *879:37 0
63 *205:8 *879:59 0
64 *394:27 *3768:A1 5.61697e-05
65 *394:85 *3768:A1 4.75937e-05
66 *394:98 *3768:A1 0.000112451
67 *626:21 *3774:A1 0
68 *626:21 *3805:A1 0
69 *628:42 *879:25 0.000192849
70 *644:66 *3805:A1 0
71 *644:77 *3805:A1 0
72 *659:28 *3788:A1 0
73 *710:10 *3788:A1 4.08641e-05
74 *710:10 *879:25 2.95125e-05
75 *754:10 *879:29 8.1796e-05
76 *877:48 *3768:A1 2.18409e-05
77 *877:65 *3768:A1 9.98796e-05
*RES
1 *4140:X *879:8 42.9093 
2 *879:8 *3788:A1 43.3443 
3 *879:8 *879:25 28.5679 
4 *879:25 *879:29 23.2443 
5 *879:29 *879:37 46.5507 
6 *879:37 *3774:A1 39.9057 
7 *879:37 *3805:A1 43.1164 
8 *879:29 *879:59 2.61 
9 *879:59 *3794:A1 38 
10 *879:59 *879:68 5.77929 
11 *879:68 *879:74 21.7943 
12 *879:74 *3773:A1 23 
13 *879:74 *879:83 1.595 
14 *879:83 *3768:A1 41.6014 
15 *879:83 *879:108 43.5886 
16 *879:108 *3771:A1 23 
17 *879:68 *3772:A1 38.6214 
18 *879:25 *3804:A1 23 
*END

*D_NET *880 0.0224685
*CONN
*I *4140:A I *D sky130_fd_sc_hd__clkdlybuf4s25_1
*I *4139:A I *D sky130_fd_sc_hd__clkdlybuf4s25_1
*I *3784:A1 I *D sky130_fd_sc_hd__o21a_2
*I *4138:A I *D sky130_fd_sc_hd__clkdlybuf4s25_1
*I *3782:A1 I *D sky130_fd_sc_hd__o21a_2
*I *3824:A1 I *D sky130_fd_sc_hd__o21a_2
*I *3806:A1 I *D sky130_fd_sc_hd__o21a_2
*I *3775:A1 I *D sky130_fd_sc_hd__o21a_2
*I *4141:X O *D sky130_fd_sc_hd__clkdlybuf4s25_1
*CAP
1 *4140:A 0
2 *4139:A 6.56714e-05
3 *3784:A1 0
4 *4138:A 0.000977172
5 *3782:A1 2.14194e-05
6 *3824:A1 2.32701e-05
7 *3806:A1 0.000218888
8 *3775:A1 0
9 *4141:X 0.000625061
10 *880:117 0.000822126
11 *880:102 0.00149823
12 *880:91 0.00117248
13 *880:78 0.00154848
14 *880:61 0.000707354
15 *880:59 0.000676667
16 *880:57 0.000406897
17 *880:38 0.00107234
18 *880:21 0.000975028
19 *880:12 0.000113965
20 *880:10 0.000625061
21 *3782:A1 *911:62 5.90675e-06
22 *880:10 *3329:A 8.90445e-05
23 *880:10 *894:10 0.000123611
24 *880:38 *939:60 5.20305e-05
25 *880:57 *894:68 3.72639e-05
26 *880:57 *911:62 0.000411299
27 *880:57 *1091:10 0.000404124
28 *880:61 *894:68 0.000308946
29 *880:61 *911:62 1.79651e-05
30 *880:78 *889:34 0.000352547
31 *880:78 *911:62 2.92911e-06
32 *880:78 *911:89 0.000367929
33 *880:91 *4261:A 0.000123944
34 *880:91 *894:68 9.67842e-05
35 *880:91 *894:72 0.000218183
36 *880:102 *894:83 0.000350406
37 *880:117 *885:70 0
38 *880:117 *894:83 8.75122e-05
39 *880:117 *894:96 0.000551541
40 *880:117 *899:97 0
41 *3430:B2 *880:38 0
42 *3765:B1 *4138:A 9.87414e-05
43 *3775:B1 *3806:A1 0.000218476
44 *3775:B1 *880:21 0.000334975
45 *3784:B1 *880:91 7.42621e-05
46 *3784:B1 *880:102 0.000355822
47 *3793:B1 *880:102 7.20415e-05
48 *3824:B1 *3824:A1 5.3304e-05
49 *3883:SET_B *3824:A1 5.3304e-05
50 *4122:A *880:38 0.000136486
51 *4122:A *880:57 0.000208809
52 *4236:A *880:61 0.00026808
53 *4236:A *880:91 0.000298215
54 *76:10 *880:10 6.68793e-05
55 *120:27 *880:10 9.58714e-05
56 *144:8 *880:117 0
57 *217:8 *3806:A1 0.000135037
58 *217:8 *880:21 0.000269781
59 *354:10 *880:78 0.00125989
60 *362:25 *880:10 1.01436e-05
61 *365:30 *880:78 0.000169939
62 *370:14 *880:10 5.16344e-05
63 *370:14 *880:38 0
64 *604:101 *3806:A1 3.17027e-05
65 *621:87 *3806:A1 7.40275e-06
66 *621:97 *880:38 0.00016134
67 *621:118 *880:57 9.91895e-05
68 *636:109 *3806:A1 9.77405e-05
69 *643:26 *880:57 0.000118889
70 *643:98 *4138:A 9.69397e-05
71 *643:119 *880:78 2.26406e-05
72 *646:43 *880:38 0.000594962
73 *658:68 *880:102 0.000118899
74 *678:8 *880:102 0.000138718
75 *678:12 *4139:A 5.3304e-05
76 *686:18 *880:38 0
77 *687:8 *880:57 1.34354e-05
78 *696:14 *880:10 0
79 *724:8 *880:78 0.000140404
80 *741:8 *880:38 0.000136486
81 *763:8 *880:91 0.000396689
82 *878:6 *4139:A 1.21972e-05
83 *878:62 *4138:A 0.000352415
84 *878:64 *4138:A 0.000141954
85 *878:76 *4138:A 0.000315857
86 *879:8 *880:117 3.3577e-05
*RES
1 *4141:X *880:10 47.4043 
2 *880:10 *880:12 15 
3 *880:12 *3775:A1 23 
4 *880:12 *880:21 4.45357 
5 *880:21 *3806:A1 27.4536 
6 *880:21 *880:38 29.7693 
7 *880:38 *3824:A1 38.6214 
8 *880:38 *880:57 41.4964 
9 *880:57 *880:59 15 
10 *880:59 *880:61 3.95643 
11 *880:61 *3782:A1 23.4971 
12 *880:61 *880:78 48.1664 
13 *880:78 *4138:A 38.2871 
14 *880:59 *880:91 14.4586 
15 *880:91 *3784:A1 23 
16 *880:91 *880:102 30.37 
17 *880:102 *4139:A 39.0979 
18 *880:102 *880:117 33.1457 
19 *880:117 *4140:A 23 
*END

*D_NET *881 0.024097
*CONN
*I *3626:A1 I *D sky130_fd_sc_hd__o21a_2
*I *3819:A1 I *D sky130_fd_sc_hd__o21a_2
*I *3820:A1 I *D sky130_fd_sc_hd__o21a_2
*I *3814:A1 I *D sky130_fd_sc_hd__o21a_2
*I *3815:A1 I *D sky130_fd_sc_hd__o21a_2
*I *3816:A1 I *D sky130_fd_sc_hd__o21a_2
*I *3822:A1 I *D sky130_fd_sc_hd__o21a_2
*I *3818:A1 I *D sky130_fd_sc_hd__o21a_2
*I *3821:A1 I *D sky130_fd_sc_hd__o21a_2
*I *3817:A1 I *D sky130_fd_sc_hd__o21a_2
*I *4142:X O *D sky130_fd_sc_hd__clkdlybuf4s25_1
*CAP
1 *3626:A1 0
2 *3819:A1 0
3 *3820:A1 0
4 *3814:A1 0
5 *3815:A1 0
6 *3816:A1 2.18824e-05
7 *3822:A1 0.000401459
8 *3818:A1 2.36519e-05
9 *3821:A1 9.66162e-05
10 *3817:A1 0.000317134
11 *4142:X 7.68064e-05
12 *881:137 0.00121759
13 *881:121 0.000544538
14 *881:107 0.000760624
15 *881:103 0.0023709
16 *881:90 0.00124272
17 *881:75 0.000217726
18 *881:65 0.000778924
19 *881:31 0.000120268
20 *881:29 0.000539753
21 *881:23 0.000753361
22 *881:10 0.00113322
23 *881:8 0.000555409
24 *3817:A1 *910:20 0.000335861
25 *3818:A1 *3818:A2 6.17437e-06
26 *3818:A1 *896:45 2.02872e-05
27 *3821:A1 *896:45 2.02872e-05
28 *3822:A1 *896:45 0
29 *3822:A1 *896:56 0
30 *3822:A1 *896:73 0
31 *881:8 *4142:A 9.67842e-05
32 *881:10 *910:20 0.00026058
33 *881:23 *3554:A1 5.58003e-05
34 *881:23 *4184:A 2.50118e-05
35 *881:23 *896:31 7.64059e-06
36 *881:23 *896:39 1.12268e-05
37 *881:23 *1118:14 4.69521e-05
38 *881:29 *896:39 0.000126621
39 *881:65 *896:110 0.000408138
40 *881:65 *910:20 0.000115289
41 *881:75 *3815:A2 0.000136743
42 *881:75 *896:110 4.17736e-05
43 *881:75 *1085:19 8.9458e-05
44 *881:90 *896:110 1.01436e-05
45 *881:90 *896:123 0.00027355
46 *881:90 *910:20 0.000679704
47 *881:103 *896:133 0.00112763
48 *881:121 *3820:A2 3.7122e-06
49 *881:121 *4326:A 1.02387e-05
50 *881:121 *904:57 6.71514e-05
51 *881:121 *904:63 1.12487e-05
52 *881:121 *1074:14 0
53 *881:137 *3543:C1 0.00026478
54 *881:137 *3808:A1 1.27424e-05
55 *881:137 *3809:A1 0
56 *881:137 *882:90 0
57 *881:137 *896:146 0
58 *881:137 *897:60 0
59 *881:137 *904:8 0.000110922
60 *881:137 *1079:10 2.54646e-05
61 *881:137 *1079:16 7.76364e-06
62 *3348:A *881:103 7.53384e-06
63 *3554:A2 *3822:A1 0
64 *3554:A2 *881:23 2.34392e-05
65 *3554:B1 *881:23 0.000275411
66 *3634:C_N *3817:A1 4.6318e-06
67 *3808:B1 *881:137 0
68 *3809:B1 *881:137 0.000228909
69 *225:10 *881:103 5.67058e-05
70 *226:8 *881:90 0.000168744
71 *227:10 *881:23 5.58003e-05
72 *230:8 *881:121 0.000196549
73 *231:10 *881:121 0.000374991
74 *272:10 *3821:A1 0.00049883
75 *272:20 *881:23 9.66585e-05
76 *272:20 *881:29 0.000204796
77 *377:8 *881:137 0.000141888
78 *381:10 *881:103 1.40958e-05
79 *381:10 *881:121 0.000190426
80 *388:6 *881:23 0.000394183
81 *389:34 *881:121 0
82 *453:10 *881:137 0.000373081
83 *454:25 *881:137 2.70469e-05
84 *457:8 *881:103 0.000191148
85 *457:8 *881:137 0.000240695
86 *457:25 *881:137 9.90033e-05
87 *491:10 *881:103 5.67058e-05
88 *493:18 *3822:A1 0
89 *493:68 *881:75 2.02872e-05
90 *495:8 *881:65 0.000141888
91 *501:10 *881:121 0.000194318
92 *605:82 *881:103 0.000188926
93 *605:82 *881:121 2.18409e-05
94 *605:82 *881:137 0.000438174
95 *613:103 *3822:A1 0.000141954
96 *655:18 *3818:A1 5.58003e-05
97 *655:18 *3821:A1 0.00048523
98 *655:20 *3821:A1 5.82853e-05
99 *655:70 *3822:A1 8.78582e-06
100 *655:70 *881:23 9.66668e-05
101 *655:70 *881:29 1.41891e-05
102 *655:84 *3817:A1 7.80354e-05
103 *656:47 *3817:A1 0.000429579
104 *656:54 *3817:A1 0.000300454
105 *656:54 *881:10 0.00015301
106 *656:69 *881:10 0.000241784
107 *656:69 *881:65 0.000241744
108 *656:69 *881:90 6.61686e-06
109 *657:19 *881:75 9.168e-05
110 *657:53 *881:107 0.000471308
111 *657:53 *881:121 0.000143655
112 *657:59 *881:121 5.50106e-05
113 *668:8 *3817:A1 0.000195871
114 *797:12 *881:103 7.13587e-05
115 *797:12 *881:137 0.000246999
*RES
1 *4142:X *881:8 39.0979 
2 *881:8 *881:10 7.18786 
3 *881:10 *3817:A1 49.7657 
4 *881:10 *881:23 27.0557 
5 *881:23 *881:29 18.3557 
6 *881:29 *881:31 15 
7 *881:31 *3821:A1 28.8621 
8 *881:31 *3818:A1 23.6214 
9 *881:29 *3822:A1 45.7471 
10 *881:23 *3816:A1 23.4971 
11 *881:8 *881:65 8.59643 
12 *881:65 *881:75 48.7286 
13 *881:75 *3815:A1 23 
14 *881:65 *881:90 25.6886 
15 *881:90 *3814:A1 23 
16 *881:90 *881:103 36.2321 
17 *881:103 *881:107 20.3857 
18 *881:107 *881:121 45.3286 
19 *881:121 *3820:A1 23 
20 *881:107 *3819:A1 23 
21 *881:103 *881:137 45.8436 
22 *881:137 *3626:A1 23 
*END

*D_NET *882 0.0150606
*CONN
*I *3808:A1 I *D sky130_fd_sc_hd__o21a_2
*I *3809:A1 I *D sky130_fd_sc_hd__o21a_2
*I *3807:A1 I *D sky130_fd_sc_hd__o21a_2
*I *3810:A1 I *D sky130_fd_sc_hd__o21a_2
*I *3762:A1 I *D sky130_fd_sc_hd__o21a_2
*I *3811:A1 I *D sky130_fd_sc_hd__o21a_2
*I *3812:A1 I *D sky130_fd_sc_hd__o21a_2
*I *3813:A1 I *D sky130_fd_sc_hd__o21a_2
*I *4143:X O *D sky130_fd_sc_hd__clkdlybuf4s25_1
*CAP
1 *3808:A1 8.84557e-05
2 *3809:A1 0.000349246
3 *3807:A1 5.00971e-05
4 *3810:A1 0.000297339
5 *3762:A1 2.34823e-05
6 *3811:A1 0
7 *3812:A1 0
8 *3813:A1 0.000191664
9 *4143:X 5.45426e-05
10 *882:90 0.00052439
11 *882:75 0.000924725
12 *882:58 0.00170897
13 *882:52 0.00167726
14 *882:41 0.00160798
15 *882:28 0.000684652
16 *882:19 0.000209171
17 *882:8 0.000301653
18 *3809:A1 *3532:A 9.84794e-05
19 *3809:A1 *3809:A2 0.000212447
20 *3810:A1 *3490:D_N 0.000171941
21 *3810:A1 *904:44 0.00056917
22 *3810:A1 *1078:14 4.7568e-05
23 *3810:A1 *1078:16 4.46163e-05
24 *3813:A1 *3813:A2 0.000283088
25 *3813:A1 *897:17 0.000440387
26 *3813:A1 *910:20 0.000287175
27 *3813:A1 *910:22 0.000213937
28 *882:19 *897:17 0.000132665
29 *882:19 *897:26 3.92407e-05
30 *882:19 *910:22 8.51329e-05
31 *882:28 *897:26 0.000365819
32 *882:28 *897:39 6.70363e-05
33 *882:28 *910:22 0.000214825
34 *882:41 *3762:A2 5.47808e-05
35 *882:41 *897:39 0.000519679
36 *882:41 *902:96 2.72055e-05
37 *882:41 *910:22 0.000233432
38 *882:52 *3344:A 9.6103e-05
39 *882:52 *3486:B 0.000182826
40 *882:58 *3344:A 7.53384e-06
41 *882:58 *4292:A 8.47448e-05
42 *882:58 *904:44 8.4047e-05
43 *882:58 *1078:10 0.000155417
44 *882:58 *1078:12 6.6869e-05
45 *882:58 *1078:14 6.22475e-05
46 *882:58 *1087:10 0.000130984
47 *882:75 *902:46 0.000695012
48 *882:75 *902:50 0
49 *882:75 *902:62 0
50 *882:75 *1071:21 0
51 *882:90 *3809:A2 2.31209e-05
52 *882:90 *897:60 0.000111852
53 *3807:B1 *3807:A1 2.93845e-05
54 *3809:B1 *3809:A1 0.000313249
55 *4015:D *882:75 0.000138718
56 *135:8 *882:75 0
57 *142:12 *3807:A1 2.64616e-05
58 *220:8 *882:58 3.70094e-05
59 *479:10 *3810:A1 0
60 *479:21 *882:75 0
61 *881:137 *3808:A1 1.27424e-05
62 *881:137 *3809:A1 0
63 *881:137 *882:90 0
*RES
1 *4143:X *882:8 38.6214 
2 *882:8 *3813:A1 47.3007 
3 *882:8 *882:19 2.25786 
4 *882:19 *3812:A1 38 
5 *882:19 *882:28 5.77929 
6 *882:28 *3811:A1 38 
7 *882:28 *882:41 27.9464 
8 *882:41 *3762:A1 23.4971 
9 *882:41 *882:52 13.9821 
10 *882:52 *882:58 25.5436 
11 *882:58 *3810:A1 45.8921 
12 *882:58 *882:75 42.1386 
13 *882:75 *3807:A1 39.1186 
14 *882:52 *882:90 16.7296 
15 *882:90 *3809:A1 46.3996 
16 *882:90 *3808:A1 39.4189 
*END

*D_NET *883 0.0143718
*CONN
*I *3826:A1 I *D sky130_fd_sc_hd__o21a_2
*I *3780:A1 I *D sky130_fd_sc_hd__o21a_2
*I *3785:A1 I *D sky130_fd_sc_hd__o21a_2
*I *3781:A1 I *D sky130_fd_sc_hd__o21a_2
*I *3779:A1 I *D sky130_fd_sc_hd__o21a_2
*I *3783:A1 I *D sky130_fd_sc_hd__o21a_2
*I *3827:A1 I *D sky130_fd_sc_hd__o21a_2
*I *3825:A1 I *D sky130_fd_sc_hd__o21a_2
*I *3828:A1 I *D sky130_fd_sc_hd__o21a_2
*I *3823:A1 I *D sky130_fd_sc_hd__o21a_2
*I *4144:X O *D sky130_fd_sc_hd__clkdlybuf4s25_1
*CAP
1 *3826:A1 0
2 *3780:A1 0
3 *3785:A1 0.000192736
4 *3781:A1 0
5 *3779:A1 0
6 *3783:A1 6.91734e-05
7 *3827:A1 0.000164136
8 *3825:A1 0.00015511
9 *3828:A1 0
10 *3823:A1 0.000114649
11 *4144:X 5.45426e-05
12 *883:128 0.00024135
13 *883:122 0.000543444
14 *883:103 0.000688449
15 *883:94 0.000342937
16 *883:85 0.000559149
17 *883:58 0.000916534
18 *883:38 0.000503189
19 *883:36 0.00150889
20 *883:32 0.00168029
21 *883:10 0.000278801
22 *883:8 0.000712934
23 *3783:A1 *3431:B 2.4754e-05
24 *3785:A1 *3785:A2 2.18506e-05
25 *3823:A1 *3823:A2 9.63918e-05
26 *3825:A1 *3825:A2 0.000186813
27 *3825:A1 *898:18 6.25829e-05
28 *3827:A1 *3827:A2 0.000288733
29 *883:10 *3823:A2 2.70366e-05
30 *883:10 *898:126 0.000125894
31 *883:10 *902:62 0
32 *883:32 *898:126 9.54383e-05
33 *883:32 *902:50 0
34 *883:32 *902:62 0
35 *883:36 *4315:A 0.000202653
36 *883:38 *898:18 0.000234382
37 *883:38 *898:46 0.000114092
38 *883:58 *898:46 0.000666494
39 *883:85 *898:46 6.81402e-05
40 *883:85 *898:67 0.000340701
41 *883:85 *911:24 0
42 *883:85 *911:30 0
43 *883:94 *898:78 0.000277714
44 *883:103 *898:91 0
45 *883:103 *898:102 0
46 *883:103 *1094:10 0
47 *883:122 *3826:A2 2.02872e-05
48 *883:122 *898:102 0
49 *883:122 *1090:10 4.08641e-05
50 *883:122 *1094:10 0
51 *883:128 *3780:A2 0.000545265
52 *883:128 *898:102 8.62876e-05
53 *3427:A1 *883:36 2.05898e-05
54 *3784:B1 *883:85 1.37232e-05
55 *3785:B1 *3785:A1 0.000141954
56 *3785:B1 *883:128 1.19796e-05
57 *3937:CLK *883:122 3.85902e-05
58 *3937:RESET_B *883:122 9.67842e-05
59 *3975:CLK *883:85 6.46163e-05
60 *3980:CLK *883:36 2.93747e-05
61 *4020:CLK *883:38 0
62 *4020:D *3827:A1 9.58714e-05
63 *99:10 *883:85 0.000141879
64 *101:12 *883:103 0
65 *110:12 *883:36 6.17437e-06
66 *111:10 *3825:A1 0
67 *111:23 *3825:A1 0
68 *111:23 *883:85 6.17437e-06
69 *125:8 *883:128 0.000224345
70 *126:10 *3823:A1 0
71 *192:8 *883:103 0
72 *196:10 *3785:A1 3.22879e-05
73 *196:10 *883:122 4.08537e-05
74 *218:10 *3823:A1 0
75 *218:10 *883:10 0
76 *360:10 *883:85 5.56411e-05
77 *360:73 *3783:A1 2.02517e-05
78 *423:36 *883:128 1.34354e-05
79 *611:10 *883:58 0
80 *611:12 *883:58 0
81 *611:14 *883:38 0
82 *611:14 *883:58 0
83 *651:75 *3827:A1 0.000308033
84 *658:10 *883:128 8.83341e-05
85 *658:36 *883:128 5.01846e-05
86 *658:105 *3783:A1 5.50106e-05
87 *658:105 *883:85 0.000375353
88 *704:8 *883:38 7.03766e-05
89 *822:10 *883:58 0.00011726
*RES
1 *4144:X *883:8 38.6214 
2 *883:8 *883:10 4.01857 
3 *883:10 *3823:A1 40.61 
4 *883:10 *3828:A1 38 
5 *883:8 *883:32 22.4986 
6 *883:32 *883:36 28.9614 
7 *883:36 *883:38 4.72286 
8 *883:38 *3825:A1 41.3143 
9 *883:38 *3827:A1 42.9093 
10 *883:36 *883:58 8.94857 
11 *883:58 *3783:A1 39.595 
12 *883:58 *883:85 31.3436 
13 *883:85 *3779:A1 23 
14 *883:32 *883:94 18.6664 
15 *883:94 *3781:A1 38 
16 *883:94 *883:103 3.31429 
17 *883:103 *3785:A1 41.9564 
18 *883:103 *883:122 20.4271 
19 *883:122 *883:128 38.9486 
20 *883:128 *3780:A1 23 
21 *883:122 *3826:A1 23 
*END

*D_NET *884 0.00256476
*CONN
*I *3646:A1 I *D sky130_fd_sc_hd__mux2_1
*I *4373:X O *D sky130_fd_sc_hd__clkdlybuf4s25_1
*CAP
1 *3646:A1 0
2 *4373:X 0.000173791
3 *884:12 0.000698146
4 *884:8 0.000871938
5 *884:12 *3646:S 1.14452e-05
6 *884:12 *909:37 0.000353598
7 *884:12 *909:48 7.8085e-05
8 *884:12 *909:63 4.16661e-05
9 *3868:CLK *884:12 0
10 *3:11 *884:12 7.23822e-05
11 *277:8 *884:12 0.000263711
12 *283:10 *884:12 0
13 *862:8 *884:12 0
*RES
1 *4373:X *884:8 40.0507 
2 *884:8 *884:12 33.8086 
3 *884:12 *3646:A1 23 
*END

*D_NET *885 0.0143342
*CONN
*I *3829:A1 I *D sky130_fd_sc_hd__o21a_2
*I *3844:A1 I *D sky130_fd_sc_hd__o21a_2
*I *3843:A1 I *D sky130_fd_sc_hd__o21a_2
*I *3845:A1 I *D sky130_fd_sc_hd__o21a_2
*I *3763:A1 I *D sky130_fd_sc_hd__o21a_2
*I *3787:A1 I *D sky130_fd_sc_hd__o21a_2
*I *3777:A1 I *D sky130_fd_sc_hd__o21a_2
*I *3847:A1 I *D sky130_fd_sc_hd__o21a_2
*I *3778:A1 I *D sky130_fd_sc_hd__o21a_2
*I *3776:A1 I *D sky130_fd_sc_hd__o21a_2
*I *4145:X O *D sky130_fd_sc_hd__clkdlybuf4s25_1
*CAP
1 *3829:A1 8.64142e-05
2 *3844:A1 0.000424815
3 *3843:A1 0
4 *3845:A1 3.62428e-05
5 *3763:A1 4.01155e-05
6 *3787:A1 0.000125779
7 *3777:A1 0
8 *3847:A1 0
9 *3778:A1 0
10 *3776:A1 6.74574e-06
11 *4145:X 4.67584e-05
12 *885:104 0.00104246
13 *885:93 0.000817583
14 *885:70 0.000277413
15 *885:64 0.000796366
16 *885:62 0.00120336
17 *885:54 0.00109968
18 *885:50 0.000422878
19 *885:39 0.00038791
20 *885:28 0.000967027
21 *885:20 0.000789676
22 *3829:A1 *3829:A2 0.000400204
23 *3829:A1 *899:68 4.08664e-05
24 *3829:A1 *1113:16 0.000315857
25 *3844:A1 *3844:A2 4.95081e-05
26 *3845:A1 *887:67 9.84794e-05
27 *3845:A1 *899:72 0.000140259
28 *885:28 *899:10 8.62089e-05
29 *885:28 *899:26 0.000749612
30 *885:28 *899:47 3.17027e-05
31 *885:28 *1114:36 0
32 *885:39 *899:47 5.50106e-05
33 *885:39 *899:60 3.70187e-05
34 *885:50 *899:60 0.000407218
35 *885:50 *899:68 1.58805e-05
36 *885:50 *1113:8 6.7177e-06
37 *885:54 *899:68 9.67842e-05
38 *885:62 *899:82 3.06213e-05
39 *885:70 *899:97 0.000573972
40 *885:93 *901:57 1.62015e-05
41 *885:104 *887:67 0.000111148
42 *885:104 *887:82 0.000207427
43 *885:104 *899:116 0
44 *885:104 *901:57 4.99753e-06
45 *3422:B2 *885:28 1.21972e-05
46 *3422:B2 *885:39 6.68822e-05
47 *3426:C1 *885:28 0
48 *3778:B1 *885:28 9.72057e-06
49 *4021:CLK *885:62 9.67756e-05
50 *4039:D *885:62 5.50106e-05
51 *4133:A *885:54 0.000121021
52 *150:10 *885:104 0
53 *151:10 *885:104 0.000177914
54 *189:8 *885:28 3.5664e-05
55 *256:8 *885:62 0
56 *256:8 *885:93 0
57 *258:8 *885:62 1.44546e-05
58 *262:8 *885:93 0
59 *420:8 *885:39 1.97329e-05
60 *534:12 *885:104 1.59312e-05
61 *607:27 *3776:A1 5.67058e-05
62 *607:27 *885:20 3.22879e-05
63 *607:78 *885:62 0
64 *607:78 *885:93 0
65 *607:86 *3845:A1 2.18506e-05
66 *611:138 *885:28 0.000131077
67 *628:127 *885:62 3.71251e-05
68 *658:50 *3776:A1 5.67058e-05
69 *659:6 *885:54 1.94812e-05
70 *659:16 *885:62 7.59964e-05
71 *659:16 *885:64 5.10805e-05
72 *659:20 *3787:A1 0.000230604
73 *659:20 *885:64 0.000147996
74 *659:107 *3844:A1 0.000278927
75 *659:107 *885:104 1.19796e-05
76 *662:41 *885:39 0.000246767
77 *662:52 *885:50 0.00012828
78 *662:67 *3829:A1 6.9805e-05
79 *662:67 *885:54 6.53382e-05
80 *880:117 *885:70 0
*RES
1 *4145:X *3776:A1 46.6214 
2 *4145:X *885:20 38.6214 
3 *885:20 *885:28 32.2343 
4 *885:28 *3778:A1 23 
5 *885:28 *885:39 20.365 
6 *885:39 *3847:A1 38 
7 *885:39 *885:50 20.7793 
8 *885:50 *885:54 18.9564 
9 *885:54 *885:62 27.4079 
10 *885:62 *885:64 5.86214 
11 *885:64 *885:70 37.54 
12 *885:70 *3777:A1 23 
13 *885:64 *3787:A1 26.3764 
14 *885:62 *3763:A1 23.8493 
15 *885:54 *885:93 2.61 
16 *885:93 *3845:A1 39.5743 
17 *885:93 *885:104 14.5829 
18 *885:104 *3843:A1 38 
19 *885:104 *3844:A1 46.1407 
20 *885:50 *3829:A1 27.9093 
*END

*D_NET *886 0.0127828
*CONN
*I *3839:A1 I *D sky130_fd_sc_hd__o21a_2
*I *3838:A1 I *D sky130_fd_sc_hd__o21a_2
*I *3837:A1 I *D sky130_fd_sc_hd__o21a_2
*I *3836:A1 I *D sky130_fd_sc_hd__o21a_2
*I *3835:A1 I *D sky130_fd_sc_hd__o21a_2
*I *3834:A1 I *D sky130_fd_sc_hd__o21a_2
*I *3833:A1 I *D sky130_fd_sc_hd__o21a_2
*I *3832:A1 I *D sky130_fd_sc_hd__o21a_2
*I *3831:A1 I *D sky130_fd_sc_hd__o21a_2
*I *3830:A1 I *D sky130_fd_sc_hd__o21a_2
*I *4146:X O *D sky130_fd_sc_hd__clkdlybuf4s25_1
*CAP
1 *3839:A1 0.000425992
2 *3838:A1 0
3 *3837:A1 4.24511e-05
4 *3836:A1 3.2572e-05
5 *3835:A1 8.18661e-05
6 *3834:A1 2.89146e-05
7 *3833:A1 1.85078e-05
8 *3832:A1 0
9 *3831:A1 2.01797e-05
10 *3830:A1 5.37224e-05
11 *4146:X 0.000506227
12 *886:111 0.000672918
13 *886:100 0.000600187
14 *886:87 0.000516713
15 *886:74 0.000476275
16 *886:63 0.000623551
17 *886:33 0.000133277
18 *886:18 0.000742913
19 *886:16 0.00123135
20 *886:8 0.000769411
21 *3831:A1 *3831:A2 9.84794e-05
22 *3834:A1 *3834:A2 6.17437e-06
23 *3834:A1 *900:68 5.50106e-05
24 *3836:A1 *3836:A2 2.93747e-05
25 *3839:A1 *3839:A2 0.00028897
26 *3839:A1 *900:101 2.3529e-05
27 *886:16 *3495:A_N 9.5877e-05
28 *886:18 *900:20 0.000383053
29 *886:33 *900:33 0.000161121
30 *886:74 *900:68 0.000567669
31 *886:87 *900:68 6.48142e-05
32 *886:87 *900:81 0.000371129
33 *886:100 *3836:A2 6.17437e-06
34 *886:100 *900:81 5.65408e-05
35 *886:100 *900:92 0.000196188
36 *886:111 *900:92 2.95125e-05
37 *886:111 *900:101 0.000188142
38 *3355:A *3833:A1 2.28308e-05
39 *3355:A *886:16 0.000451416
40 *3355:A *886:18 3.22879e-05
41 *3636:A1 *886:63 0.000218471
42 *3830:B1 *3830:A1 3.22879e-05
43 *3830:B1 *886:18 6.68919e-05
44 *3835:B1 *886:74 0.000308899
45 *4082:A *3831:A1 9.84794e-05
46 *246:8 *886:87 8.58219e-05
47 *249:8 *886:111 0
48 *458:10 *886:16 5.50106e-05
49 *610:47 *886:33 0
50 *610:87 *886:8 0
51 *610:98 *886:8 0.000164282
52 *660:27 *886:16 6.33627e-05
53 *660:104 *886:63 0.000404047
54 *661:30 *886:87 0
55 *661:94 *3839:A1 0
56 *661:107 *3839:A1 0
57 *662:10 *3834:A1 3.7122e-06
58 *662:10 *886:63 7.6144e-05
59 *662:16 *886:63 0.000250839
60 *662:104 *886:33 0
61 *680:22 *886:8 0.000299178
62 *680:22 *886:16 0.000181919
63 *680:22 *886:63 0.000306332
64 *817:12 *886:63 3.82956e-05
65 *817:12 *886:74 2.35393e-05
*RES
1 *4146:X *886:8 42.0186 
2 *886:8 *886:16 26.2686 
3 *886:16 *886:18 12.5321 
4 *886:18 *3830:A1 24.1186 
5 *886:18 *886:33 32.2579 
6 *886:33 *3831:A1 24.0979 
7 *886:33 *3832:A1 23 
8 *886:16 *3833:A1 23.4971 
9 *4146:X *886:63 48.3364 
10 *886:63 *3834:A1 38.6214 
11 *886:63 *886:74 8.24429 
12 *886:74 *3835:A1 39.0979 
13 *886:74 *886:87 20.7793 
14 *886:87 *3836:A1 23.6214 
15 *886:87 *886:100 21.8771 
16 *886:100 *3837:A1 38.6214 
17 *886:100 *886:111 5.77929 
18 *886:111 *3838:A1 38 
19 *886:111 *3839:A1 47.57 
*END

*D_NET *887 0.0256662
*CONN
*I *3840:A1 I *D sky130_fd_sc_hd__o21a_2
*I *3842:A1 I *D sky130_fd_sc_hd__o21a_2
*I *3852:A1 I *D sky130_fd_sc_hd__o21a_2
*I *3853:A1 I *D sky130_fd_sc_hd__o21a_2
*I *3851:A1 I *D sky130_fd_sc_hd__o21a_2
*I *3841:A1 I *D sky130_fd_sc_hd__o21a_2
*I *4146:A I *D sky130_fd_sc_hd__clkdlybuf4s25_1
*I *4145:A I *D sky130_fd_sc_hd__clkdlybuf4s25_1
*I *4147:X O *D sky130_fd_sc_hd__clkdlybuf4s25_1
*CAP
1 *3840:A1 0
2 *3842:A1 0
3 *3852:A1 0
4 *3853:A1 0
5 *3851:A1 0
6 *3841:A1 0
7 *4146:A 0
8 *4145:A 0
9 *4147:X 6.27375e-05
10 *887:119 0.00074652
11 *887:106 0.00120033
12 *887:90 0.000406914
13 *887:82 0.000904594
14 *887:67 0.000987034
15 *887:54 0.000489353
16 *887:52 0.00353571
17 *887:24 0.00138274
18 *887:20 0.00145514
19 *887:14 0.000397012
20 *887:8 0.00346925
21 *887:14 *900:18 0
22 *887:14 *901:10 1.02387e-05
23 *887:20 *1068:19 6.63801e-05
24 *887:24 *3831:A2 0.000187129
25 *887:52 *901:96 2.33476e-05
26 *887:67 *899:72 0.000114846
27 *887:67 *901:57 0.000602044
28 *887:82 *901:69 0.000185428
29 *887:90 *901:77 0.000382574
30 *887:106 *901:96 3.5471e-05
31 *887:106 *901:107 0.0010231
32 *887:106 *901:122 5.50106e-05
33 *887:119 *901:122 0.000563467
34 *3521:A *887:24 3.87132e-05
35 *3608:C *887:67 2.93747e-05
36 *3845:A1 *887:67 9.84794e-05
37 *4082:A *887:24 3.84349e-05
38 *4103:A *887:24 9.0102e-05
39 *4248:A *887:119 9.84851e-05
40 *150:10 *887:82 6.79006e-05
41 *243:10 *887:24 5.67058e-05
42 *251:10 *887:119 0
43 *390:6 *887:67 5.25848e-05
44 *390:19 *887:67 2.93747e-05
45 *511:46 *887:52 0
46 *511:107 *887:52 0
47 *526:27 *887:52 0
48 *607:58 *887:24 0.000777182
49 *607:86 *887:67 0.00026808
50 *607:97 *887:67 0.00133469
51 *609:75 *887:14 0.000174396
52 *609:75 *887:52 2.19246e-05
53 *610:81 *887:24 0.000308039
54 *610:87 *887:14 0.000562276
55 *610:87 *887:20 0.000195248
56 *610:87 *887:52 3.81338e-05
57 *628:61 *887:82 0.00010018
58 *628:61 *887:90 0
59 *659:75 *887:82 4.00259e-06
60 *659:99 *887:90 0.000402801
61 *660:64 *887:24 0.00114017
62 *661:53 *887:67 2.93104e-06
63 *662:67 *887:52 2.5343e-05
64 *662:67 *887:106 0.00104866
65 *748:10 *887:119 5.70419e-05
66 *806:8 *887:14 0
67 *885:104 *887:67 0.000111148
68 *885:104 *887:82 0.000207427
*RES
1 *4147:X *887:8 38.6214 
2 *887:8 *887:14 23.6379 
3 *887:14 *887:20 32.61 
4 *887:20 *887:24 31.9621 
5 *887:24 *4145:A 23 
6 *887:14 *4146:A 23 
7 *887:8 *887:52 39.6434 
8 *887:52 *887:54 15 
9 *887:54 *3841:A1 23 
10 *887:54 *887:67 36.2321 
11 *887:67 *3851:A1 38 
12 *887:67 *887:82 26.7864 
13 *887:82 *887:90 40.2121 
14 *887:90 *3853:A1 23 
15 *887:82 *3852:A1 23 
16 *887:52 *887:106 30.6807 
17 *887:106 *3842:A1 23 
18 *887:106 *887:119 46.4057 
19 *887:119 *3840:A1 23 
*END

*D_NET *888 0.0253835
*CONN
*I *4143:A I *D sky130_fd_sc_hd__clkdlybuf4s25_1
*I *4147:A I *D sky130_fd_sc_hd__clkdlybuf4s25_1
*I *4144:A I *D sky130_fd_sc_hd__clkdlybuf4s25_1
*I *4141:A I *D sky130_fd_sc_hd__clkdlybuf4s25_1
*I *4142:A I *D sky130_fd_sc_hd__clkdlybuf4s25_1
*I *4148:X O *D sky130_fd_sc_hd__clkdlybuf4s25_1
*CAP
1 *4143:A 0
2 *4147:A 0.000450683
3 *4144:A 0
4 *4141:A 0
5 *4142:A 0.000581463
6 *4148:X 0.000350323
7 *888:71 0.0013023
8 *888:55 0.00232665
9 *888:43 0.00597711
10 *888:35 0.00482326
11 *888:25 0.00140833
12 *888:10 0.00201892
13 *4142:A *902:10 7.80404e-05
14 *888:35 *902:30 0.000348114
15 *888:35 *910:22 0.000380955
16 *888:43 *898:126 0
17 *888:43 *902:38 0.000112764
18 *888:71 *900:68 7.75329e-06
19 *888:71 *902:30 2.19236e-05
20 *888:71 *902:86 0.000107538
21 *888:71 *910:22 0.00102513
22 *888:71 *910:37 0.000864884
23 *3781:B1 *888:43 0
24 *32:13 *4147:A 0.000140259
25 *32:13 *888:71 0.000299845
26 *234:10 *888:43 0.000157309
27 *234:10 *888:55 0.000105399
28 *239:8 *888:43 3.70094e-05
29 *239:8 *888:55 0.000105399
30 *697:10 *888:55 0
31 *766:14 *888:55 0
32 *817:12 *888:71 0.000299094
33 *828:42 *888:10 0.000270228
34 *828:42 *888:25 0.00111821
35 *828:42 *888:71 0.000567872
36 *881:8 *4142:A 9.67842e-05
*RES
1 *4148:X *888:10 45.8093 
2 *888:10 *4142:A 47.2179 
3 *888:10 *888:25 43.6686 
4 *888:25 *888:35 24.1246 
5 *888:35 *888:43 26.5787 
6 *888:43 *888:55 39.4956 
7 *888:55 *4141:A 23 
8 *888:43 *4144:A 38 
9 *888:35 *888:71 48.0704 
10 *888:71 *4147:A 29.8357 
11 *888:25 *4143:A 23 
*END

*D_NET *889 0.025334
*CONN
*I *3663:A I *D sky130_fd_sc_hd__nand2_2
*I *3665:A I *D sky130_fd_sc_hd__nand2_2
*I *3667:A I *D sky130_fd_sc_hd__nand2_2
*I *3671:A I *D sky130_fd_sc_hd__nand2_2
*I *3669:A I *D sky130_fd_sc_hd__nand2_2
*I *3673:A I *D sky130_fd_sc_hd__nand2_2
*I *3675:A I *D sky130_fd_sc_hd__nand2_2
*I *3677:A I *D sky130_fd_sc_hd__nand2_2
*I *3397:A I *D sky130_fd_sc_hd__and2_2
*I *3662:A1 I *D sky130_fd_sc_hd__a21o_2
*I *4149:X O *D sky130_fd_sc_hd__clkdlybuf4s25_1
*CAP
1 *3663:A 0
2 *3665:A 2.34823e-05
3 *3667:A 0
4 *3671:A 0
5 *3669:A 0
6 *3673:A 0.000150901
7 *3675:A 0.000553943
8 *3677:A 0
9 *3397:A 0
10 *3662:A1 0.00112215
11 *4149:X 0.000447506
12 *889:140 0.000622869
13 *889:126 0.000822853
14 *889:109 0.00101402
15 *889:105 0.000571167
16 *889:97 0.00142478
17 *889:91 0.00079202
18 *889:81 0.00067059
19 *889:66 0.00133857
20 *889:57 0.00114839
21 *889:34 0.0014363
22 *889:26 0.00174801
23 *889:16 0.00106037
24 *889:10 0.000610844
25 *3662:A1 *911:66 2.93845e-05
26 *3673:A *932:34 0
27 *3675:A *947:28 0.000226352
28 *889:10 *911:10 0.000508618
29 *889:10 *911:20 1.7992e-05
30 *889:10 *1096:16 5.0195e-05
31 *889:26 *911:20 0.000227897
32 *889:34 *911:89 0.000354778
33 *889:66 *947:28 0.000182713
34 *889:81 *907:18 0.000564245
35 *889:105 *3671:B 9.84794e-05
36 *889:105 *3747:S 1.94693e-05
37 *889:105 *907:104 7.24484e-05
38 *889:105 *907:136 3.31683e-05
39 *889:105 *945:12 5.3304e-05
40 *889:140 *907:136 0.00010178
41 *889:140 *940:28 0
42 o_receive_data[5] *3673:A 0.000201483
43 o_receive_data[5] *889:126 0.000580849
44 *3397:B *889:16 0.000139352
45 *3670:A0 *889:126 7.55388e-05
46 *3747:A0 *889:105 0.000230543
47 *3752:A0 *889:140 0.000277705
48 *3793:B1 *889:26 0.000395901
49 *3887:D *889:126 0.000145305
50 *3942:CLK *889:34 8.6949e-05
51 *4038:CLK *889:34 0.000184527
52 *4050:RESET_B *889:140 4.85126e-05
53 *4051:CLK *889:97 1.94812e-05
54 *4073:A *889:57 1.04936e-05
55 *51:12 *889:57 3.22879e-05
56 *89:12 *889:34 5.50106e-05
57 *103:8 *889:10 0
58 *144:8 *889:10 0
59 *188:8 *889:10 6.28228e-05
60 *204:10 *889:26 0.000445374
61 *338:10 *889:140 6.68587e-05
62 *339:10 *889:105 0.000487467
63 *339:10 *889:140 1.47563e-05
64 *343:10 *889:91 0.000237741
65 *359:87 *889:109 9.84851e-05
66 *359:87 *889:126 0.000207437
67 *551:14 *889:105 9.48055e-05
68 *551:14 *889:109 3.53115e-05
69 *552:12 *889:140 0.000190794
70 *553:10 *889:126 3.47277e-05
71 *554:10 *889:109 2.93845e-05
72 *602:18 *889:57 0.000247801
73 *624:46 *889:126 2.64616e-05
74 *624:59 *889:126 2.75031e-05
75 *639:8 *889:57 0.000170365
76 *641:22 *889:57 0.000522815
77 *641:22 *889:66 3.86893e-05
78 *641:37 *889:81 0.000564245
79 *641:37 *889:91 8.58486e-05
80 *646:61 *889:91 0
81 *646:63 *889:140 0
82 *658:122 *889:10 5.3304e-05
83 *688:8 *889:10 0.000113153
84 *692:14 *889:10 0.000107651
85 *694:8 *889:126 9.41704e-05
86 *694:14 *3673:A 1.96186e-05
87 *779:10 *889:140 0.000151907
88 *786:8 *889:91 0.000110913
89 *867:12 *889:126 5.3304e-05
90 *869:10 *3673:A 0
91 *876:48 *889:140 4.21594e-06
92 *880:78 *889:34 0.000352547
*RES
1 *4149:X *889:10 48.9786 
2 *889:10 *889:16 18.0243 
3 *889:16 *889:26 48.7257 
4 *889:26 *889:34 47.7314 
5 *889:34 *3662:A1 30.2914 
6 *889:16 *3397:A 23 
7 *3662:A1 *889:57 37.0029 
8 *889:57 *3677:A 23 
9 *889:57 *889:66 8.61714 
10 *889:66 *3675:A 31.1407 
11 *889:66 *889:81 37.54 
12 *889:81 *889:91 40.005 
13 *889:91 *889:97 18.5007 
14 *889:97 *889:105 28.1536 
15 *889:105 *889:109 16.5743 
16 *889:109 *3673:A 41.3143 
17 *889:109 *889:126 33.0629 
18 *889:126 *3669:A 23 
19 *889:105 *3671:A 23 
20 *889:97 *889:140 30.2871 
21 *889:140 *3667:A 23 
22 *889:91 *3665:A 23.4971 
23 *889:81 *3663:A 23 
*END

*D_NET *890 0.0142948
*CONN
*I *3803:A2 I *D sky130_fd_sc_hd__o21a_2
*I *3802:A2 I *D sky130_fd_sc_hd__o21a_2
*I *3801:A2 I *D sky130_fd_sc_hd__o21a_2
*I *3800:A2 I *D sky130_fd_sc_hd__o21a_2
*I *3799:A2 I *D sky130_fd_sc_hd__o21a_2
*I *3798:A2 I *D sky130_fd_sc_hd__o21a_2
*I *3797:A2 I *D sky130_fd_sc_hd__o21a_2
*I *3796:A2 I *D sky130_fd_sc_hd__o21a_2
*I *3795:A2 I *D sky130_fd_sc_hd__o21a_2
*I *3766:A2 I *D sky130_fd_sc_hd__o21a_2
*I *4150:X O *D sky130_fd_sc_hd__clkdlybuf4s25_1
*CAP
1 *3803:A2 0.000131284
2 *3802:A2 0
3 *3801:A2 0
4 *3800:A2 5.96967e-05
5 *3799:A2 0
6 *3798:A2 0.000113066
7 *3797:A2 0.00011611
8 *3796:A2 0
9 *3795:A2 4.18449e-05
10 *3766:A2 0.000371091
11 *4150:X 0.00018633
12 *890:128 0.000293096
13 *890:120 0.000497474
14 *890:113 0.000383371
15 *890:92 0.000695749
16 *890:79 0.0007906
17 *890:60 0.000815399
18 *890:37 0.000100188
19 *890:29 0.000289666
20 *890:27 0.000352721
21 *890:25 0.00178217
22 *890:8 0.00233959
23 *3766:A2 *891:34 2.01531e-05
24 *3766:A2 *1042:10 2.5415e-05
25 *3766:A2 *1042:25 2.54046e-05
26 *3766:A2 *1050:56 0
27 *3795:A2 *3507:B 0.000144494
28 *890:8 *1050:8 0.000153155
29 *890:25 *3508:A 7.88828e-05
30 *890:25 *3508:B 7.9199e-05
31 *890:25 *1043:8 7.7507e-06
32 *890:37 *3507:B 5.3304e-05
33 *890:79 *1057:10 0.000218103
34 *890:113 *1059:10 6.30285e-06
35 *890:120 *1059:10 1.08287e-05
36 *3795:A1 *3795:A2 5.79559e-05
37 *3795:B1 *3795:A2 1.3523e-05
38 *3796:B1 *3795:A2 1.24376e-05
39 *3796:B1 *890:37 4.2573e-05
40 *3798:B1 *3798:A2 0.00014196
41 *3800:A1 *3800:A2 6.12587e-05
42 *3801:A1 *3803:A2 2.64616e-05
43 *3801:A1 *890:120 5.40241e-05
44 *3801:B1 *890:113 6.17437e-06
45 *3802:A1 *890:128 0.000368601
46 *3802:B1 *890:128 0
47 *3803:A1 *3803:A2 1.03955e-05
48 *3919:D *890:25 5.50106e-05
49 *3919:RESET_B *890:25 4.81382e-05
50 *3988:RESET_B *890:25 2.56175e-05
51 *11:10 *3766:A2 0
52 *11:10 *890:25 0
53 *177:10 *3766:A2 0.000193388
54 *207:8 *890:29 8.76088e-05
55 *209:8 *890:79 0.000116314
56 *328:8 *890:25 9.48381e-06
57 *387:14 *3803:A2 0.000141052
58 *387:35 *890:79 0
59 *469:8 *3797:A2 0
60 *469:8 *890:29 0
61 *469:8 *890:60 0
62 *469:8 *890:79 0
63 *625:8 *890:79 0.000485984
64 *625:21 *890:92 0
65 *625:109 *890:25 8.9458e-05
66 *641:58 *3797:A2 7.74361e-05
67 *641:84 *3797:A2 2.29977e-05
68 *641:84 *890:29 0.000119983
69 *641:84 *890:37 2.21614e-05
70 *641:84 *890:60 0.000158092
71 *641:99 *890:60 1.6891e-05
72 *641:99 *890:79 0.00015713
73 *641:107 *890:79 0.000100703
74 *641:107 *890:92 1.12508e-05
75 *641:120 *890:92 0.000154574
76 *641:124 *890:92 9.19153e-05
77 *641:139 *3800:A2 4.00724e-05
78 *641:139 *890:113 0.000222046
79 *641:139 *890:128 0
80 *644:39 *3766:A2 8.9783e-05
81 *715:10 *3766:A2 9.75779e-05
82 *876:26 *3797:A2 0
83 *876:30 *3795:A2 9.68402e-06
84 *876:48 *3797:A2 0.000141869
85 *876:78 *890:79 0.000161067
86 *876:78 *890:92 1.12863e-05
87 *876:87 *890:79 0.000115022
88 *876:87 *890:92 0
89 *876:100 *890:128 6.04064e-05
90 *877:29 *890:25 0.000182962
*RES
1 *4150:X *890:8 41.0036 
2 *890:8 *3766:A2 45.2293 
3 *890:8 *890:25 39.5464 
4 *890:25 *890:27 15 
5 *890:27 *890:29 3.49036 
6 *890:29 *890:37 16.5639 
7 *890:37 *3795:A2 24.5743 
8 *890:37 *3796:A2 23 
9 *890:29 *3797:A2 41.1382 
10 *890:27 *890:60 5.075 
11 *890:60 *3798:A2 40.5271 
12 *890:60 *890:79 43.775 
13 *890:79 *3799:A2 38 
14 *890:79 *890:92 6.31786 
15 *890:92 *3800:A2 39.4707 
16 *890:92 *890:113 20.655 
17 *890:113 *3801:A2 23 
18 *890:113 *890:120 1.57429 
19 *890:120 *890:128 36.4007 
20 *890:128 *3802:A2 23 
21 *890:120 *3803:A2 25.5271 
*END

*D_NET *891 0.0101471
*CONN
*I *3769:A2 I *D sky130_fd_sc_hd__o21a_2
*I *3770:A2 I *D sky130_fd_sc_hd__o21a_2
*I *4150:A I *D sky130_fd_sc_hd__clkdlybuf4s25_1
*I *3767:A2 I *D sky130_fd_sc_hd__o21a_2
*I *3765:A2 I *D sky130_fd_sc_hd__o21a_2
*I *3850:A2 I *D sky130_fd_sc_hd__o21a_2
*I *4151:X O *D sky130_fd_sc_hd__clkdlybuf4s25_1
*CAP
1 *3769:A2 3.51907e-05
2 *3770:A2 0
3 *4150:A 2.95294e-05
4 *3767:A2 0.000319714
5 *3765:A2 7.77013e-05
6 *3850:A2 0.000116205
7 *4151:X 4.24511e-05
8 *891:72 0.000620543
9 *891:62 0.00153629
10 *891:49 0.00161931
11 *891:34 0.00133604
12 *891:10 0.000315431
13 *891:8 0.000471082
14 *3769:A2 *3768:A2 2.18409e-05
15 *4150:A *1050:6 5.50049e-05
16 *891:10 *894:111 0
17 *891:62 *4237:A 3.96053e-05
18 *891:62 *1050:70 6.53445e-05
19 *3765:B1 *3765:A2 0.0002263
20 *3766:A2 *891:34 2.01531e-05
21 *3767:A1 *3767:A2 1.76557e-05
22 *3768:A1 *3769:A2 7.22308e-05
23 *3768:A1 *891:72 9.67842e-05
24 *3768:B1 *3769:A2 4.2573e-05
25 *3768:B1 *891:72 9.84794e-05
26 *3770:B1 *891:72 2.4754e-05
27 *3850:B1 *3850:A2 5.67058e-05
28 *4137:A *891:49 0
29 *4137:A *891:62 0
30 *11:10 *3850:A2 0.000104977
31 *11:10 *891:10 0.000115703
32 *11:10 *891:34 0.000293361
33 *179:10 *891:62 0
34 *180:8 *891:72 0.000110913
35 *331:10 *891:72 0
36 *606:67 *891:49 0.000144168
37 *606:67 *891:62 0.000449467
38 *606:88 *891:62 0.00013118
39 *644:27 *891:34 4.6323e-05
40 *644:39 *891:34 4.18957e-05
41 *644:55 *891:49 0
42 *644:83 *891:62 3.884e-05
43 *644:89 *3769:A2 5.67058e-05
44 *644:103 *891:62 6.7177e-06
45 *876:6 *3767:A2 9.0102e-05
46 *876:6 *891:49 0.000337806
47 *876:18 *3767:A2 0.000115052
48 *877:8 *3765:A2 0.000271476
49 *877:48 *891:62 0
50 *877:65 *3769:A2 5.50049e-05
51 *877:65 *891:72 0.000228903
52 *877:83 *3765:A2 4.17736e-05
53 *877:83 *3850:A2 9.39159e-05
54 *877:83 *891:10 1.58805e-05
*RES
1 *4151:X *891:8 38.6214 
2 *891:8 *891:10 2.96214 
3 *891:10 *3850:A2 41.2314 
4 *891:10 *3765:A2 41.48 
5 *891:8 *891:34 22.54 
6 *891:34 *3767:A2 27.93 
7 *891:34 *891:49 26.9107 
8 *891:49 *4150:A 38.6214 
9 *891:49 *891:62 35.2171 
10 *891:62 *891:72 42.6979 
11 *891:72 *3770:A2 23 
12 *891:62 *3769:A2 24.5743 
*END

*D_NET *892 0.017184
*CONN
*I *3793:A2 I *D sky130_fd_sc_hd__o21a_2
*I *3790:A2 I *D sky130_fd_sc_hd__o21a_2
*I *3786:A2 I *D sky130_fd_sc_hd__o21a_2
*I *3848:A2 I *D sky130_fd_sc_hd__o21a_2
*I *3764:A2 I *D sky130_fd_sc_hd__o21a_2
*I *3789:A2 I *D sky130_fd_sc_hd__o21a_2
*I *3849:A2 I *D sky130_fd_sc_hd__o21a_2
*I *3846:A2 I *D sky130_fd_sc_hd__o21a_2
*I *3791:A2 I *D sky130_fd_sc_hd__o21a_2
*I *3792:A2 I *D sky130_fd_sc_hd__o21a_2
*I *4152:X O *D sky130_fd_sc_hd__clkdlybuf4s25_1
*CAP
1 *3793:A2 0
2 *3790:A2 2.27923e-05
3 *3786:A2 0
4 *3848:A2 0
5 *3764:A2 0
6 *3789:A2 0.000312849
7 *3849:A2 0.000103394
8 *3846:A2 0.000661011
9 *3791:A2 2.42624e-05
10 *3792:A2 0.00018712
11 *4152:X 0
12 *892:139 0.000311053
13 *892:117 0.000554836
14 *892:68 0.00115518
15 *892:66 0.000886741
16 *892:62 0.000445634
17 *892:58 0.000474666
18 *892:52 0.00130035
19 *892:46 0.000597765
20 *892:31 0.000492491
21 *892:23 0.000738361
22 *892:8 0.000941611
23 *892:4 0.000837017
24 *3790:A2 *1035:25 6.16531e-05
25 *3792:A2 *993:38 4.96264e-05
26 *3846:A2 *1039:8 0
27 *892:23 *993:38 7.14186e-05
28 *892:23 *1030:28 1.03934e-05
29 *892:23 *1035:25 5.58534e-05
30 *892:31 *1035:12 2.4754e-05
31 *892:46 *1035:25 8.4047e-05
32 *892:58 *993:46 4.49769e-05
33 *892:58 *1030:42 1.01436e-05
34 *892:117 *993:58 0.000154531
35 *892:117 *1065:10 3.04021e-05
36 *892:139 *894:83 2.19643e-05
37 *3390:A2 *3846:A2 3.74442e-05
38 *3390:A2 *892:68 7.55832e-05
39 *3440:B1 *3792:A2 0.000301783
40 *3442:A2 *3790:A2 5.15096e-05
41 *3442:A2 *892:23 0.000132074
42 *3442:A2 *892:46 7.48331e-05
43 *3528:B1 *892:117 0.000164282
44 *3790:B1 *3791:A2 0
45 *3791:A1 *3791:A2 7.08761e-05
46 *3792:A1 *3792:A2 0.000328285
47 *3916:CLK *3849:A2 0.00010018
48 *3942:SET_B *892:23 2.83386e-05
49 *4040:D *892:68 2.54226e-05
50 *89:12 *3792:A2 0
51 *89:12 *892:23 0
52 *259:10 *892:62 9.84851e-05
53 *325:10 *3846:A2 0.000125904
54 *354:54 *892:58 1.01436e-05
55 *354:54 *892:117 0.000314617
56 *360:33 *892:58 6.51429e-05
57 *360:33 *892:117 0.000101657
58 *367:20 *892:117 1.21972e-05
59 *603:55 *892:139 0.000285452
60 *603:105 *3791:A2 2.79257e-05
61 *603:105 *892:31 0
62 *603:105 *892:52 4.62773e-05
63 *606:8 *3789:A2 0
64 *606:12 *3789:A2 0
65 *606:35 *3789:A2 5.31444e-05
66 *627:42 *892:8 7.56391e-05
67 *627:98 *892:8 0.000163765
68 *627:98 *892:139 4.93341e-05
69 *627:104 *892:139 0.000141869
70 *643:67 *3846:A2 0
71 *643:76 *3846:A2 0
72 *643:76 *892:68 0
73 *643:89 *3789:A2 0
74 *643:89 *892:68 0
75 *643:98 *892:62 9.84794e-05
76 *643:98 *892:66 0.000402806
77 *643:107 *892:62 0.000306724
78 *645:101 *892:117 9.5877e-05
79 *645:148 *892:31 0.00052419
80 *689:6 *892:58 0.000139352
81 *713:20 *892:23 2.26497e-05
82 *878:43 *892:52 4.08664e-05
83 *878:47 *892:52 0.000523722
84 *878:53 *892:58 0.000226923
85 *878:62 *892:58 2.18286e-05
86 *878:62 *892:62 2.25809e-05
87 *878:76 *3789:A2 0.00049412
88 *878:109 *3846:A2 7.03766e-05
89 *878:124 *892:117 0.000206494
90 *878:151 *892:139 0.000357921
*RES
1 *4152:X *892:4 23 
2 *892:4 *892:8 22.2914 
3 *892:8 *3792:A2 43.5307 
4 *892:8 *892:23 4.72286 
5 *892:23 *892:31 36.815 
6 *892:31 *3791:A2 38.9736 
7 *892:23 *892:46 1.20143 
8 *892:46 *892:52 37.7679 
9 *892:52 *892:58 20.2614 
10 *892:58 *892:62 5.88286 
11 *892:62 *892:66 19.4329 
12 *892:66 *892:68 7.18786 
13 *892:68 *3846:A2 49.9936 
14 *892:68 *3849:A2 40.0714 
15 *892:66 *3789:A2 45.3536 
16 *892:62 *3764:A2 23 
17 *892:58 *3848:A2 23 
18 *892:52 *892:117 28.5679 
19 *892:117 *3786:A2 23 
20 *892:46 *3790:A2 38.8493 
21 *892:4 *892:139 39.1143 
22 *892:139 *3793:A2 23 
*END

*D_NET *893 0.0167564
*CONN
*I *3804:A2 I *D sky130_fd_sc_hd__o21a_2
*I *3772:A2 I *D sky130_fd_sc_hd__o21a_2
*I *3771:A2 I *D sky130_fd_sc_hd__o21a_2
*I *3773:A2 I *D sky130_fd_sc_hd__o21a_2
*I *3768:A2 I *D sky130_fd_sc_hd__o21a_2
*I *3794:A2 I *D sky130_fd_sc_hd__o21a_2
*I *3774:A2 I *D sky130_fd_sc_hd__o21a_2
*I *3805:A2 I *D sky130_fd_sc_hd__o21a_2
*I *3788:A2 I *D sky130_fd_sc_hd__o21a_2
*I *4153:X O *D sky130_fd_sc_hd__clkdlybuf4s25_1
*CAP
1 *3804:A2 0
2 *3772:A2 0
3 *3771:A2 0
4 *3773:A2 0
5 *3768:A2 0.000725375
6 *3794:A2 7.23497e-05
7 *3774:A2 0
8 *3805:A2 0.000106355
9 *3788:A2 0
10 *4153:X 0.000269097
11 *893:100 0.000625712
12 *893:82 0.000725375
13 *893:80 0.000876993
14 *893:74 0.000525289
15 *893:55 0.000510166
16 *893:46 0.000193038
17 *893:31 0.00138104
18 *893:27 0.00157302
19 *893:25 0.000641655
20 *893:14 0.000405639
21 *893:8 0.00098883
22 *893:8 *1030:12 0.000400204
23 *893:14 *894:96 0.000289603
24 *893:25 *894:96 4.43717e-05
25 *3768:A1 *3768:A2 2.32683e-05
26 *3768:B1 *3768:A2 0.000228001
27 *3769:A2 *3768:A2 2.18409e-05
28 *3772:B1 *893:80 0.000153155
29 *3773:B1 *3768:A2 9.5877e-05
30 *3774:A1 *893:46 0.000140958
31 *3788:A1 *893:14 0.000406092
32 *3804:B1 *893:25 0.000181125
33 *3804:B1 *893:27 9.84794e-05
34 *3805:A1 *3805:A2 1.94693e-05
35 *3805:A1 *893:31 1.59094e-05
36 *3805:A1 *893:46 0.000213811
37 *3924:RESET_B *893:80 0.000187129
38 *3986:D *893:31 2.93747e-05
39 *3996:CLK *3794:A2 9.41704e-05
40 *119:10 *893:55 3.70187e-05
41 *198:10 *893:14 0.000216712
42 *394:12 *3768:A2 0.000438462
43 *394:27 *3768:A2 0.000223698
44 *394:44 *3768:A2 0.000171296
45 *394:85 *3768:A2 0.000304321
46 *394:98 *3768:A2 0.000159724
47 *394:98 *893:80 6.28591e-05
48 *394:98 *893:100 1.34354e-05
49 *644:66 *893:46 0
50 *644:89 *3768:A2 4.34745e-05
51 *754:10 *893:55 0
52 *877:48 *3768:A2 2.93747e-05
53 *877:65 *3768:A2 1.03955e-05
54 *879:25 *893:14 0.000431843
55 *879:25 *893:25 0.000454515
56 *879:29 *893:27 0.000314432
57 *879:29 *893:31 1.41077e-05
58 *879:37 *893:55 6.48049e-05
59 *879:59 *893:55 0.000197479
60 *879:68 *893:55 6.16439e-05
61 *879:68 *893:74 0.000316848
62 *879:74 *893:80 0
63 *879:74 *893:100 0
64 *879:83 *3768:A2 1.40958e-05
65 *879:108 *893:100 0.000913041
*RES
1 *4153:X *893:8 42.4329 
2 *893:8 *893:14 27.2836 
3 *893:14 *3788:A2 23 
4 *893:8 *893:25 23.1821 
5 *893:25 *893:27 7.29143 
6 *893:27 *893:31 13.9821 
7 *893:31 *3805:A2 24.595 
8 *893:31 *893:46 34.7229 
9 *893:46 *3774:A2 23 
10 *893:27 *893:55 19.0186 
11 *893:55 *3794:A2 39.0979 
12 *893:55 *893:74 20.9864 
13 *893:74 *893:80 21.5664 
14 *893:80 *893:82 15 
15 *893:82 *3768:A2 40.7729 
16 *893:82 *3773:A2 23 
17 *893:80 *893:100 29.8936 
18 *893:100 *3771:A2 23 
19 *893:74 *3772:A2 23 
20 *893:25 *3804:A2 23 
*END

*D_NET *894 0.020726
*CONN
*I *3775:A2 I *D sky130_fd_sc_hd__o21a_2
*I *3806:A2 I *D sky130_fd_sc_hd__o21a_2
*I *4151:A I *D sky130_fd_sc_hd__clkdlybuf4s25_1
*I *4153:A I *D sky130_fd_sc_hd__clkdlybuf4s25_1
*I *4152:A I *D sky130_fd_sc_hd__clkdlybuf4s25_1
*I *3784:A2 I *D sky130_fd_sc_hd__o21a_2
*I *3782:A2 I *D sky130_fd_sc_hd__o21a_2
*I *3824:A2 I *D sky130_fd_sc_hd__o21a_2
*I *4154:X O *D sky130_fd_sc_hd__clkdlybuf4s25_1
*CAP
1 *3775:A2 0
2 *3806:A2 0
3 *4151:A 0
4 *4153:A 0
5 *4152:A 2.95011e-05
6 *3784:A2 0
7 *3782:A2 0
8 *3824:A2 4.09526e-05
9 *4154:X 0.000142419
10 *894:111 0.00179686
11 *894:96 0.000803088
12 *894:83 0.00154566
13 *894:72 0.00127662
14 *894:68 0.000932822
15 *894:60 0.00219093
16 *894:51 0.000308379
17 *894:32 0.00120986
18 *894:22 0.00134191
19 *894:12 0.000456588
20 *894:10 0.000142419
21 *894:10 *3329:A 3.7122e-06
22 *894:32 *3470:B1 3.81554e-05
23 *894:32 *3661:A2 0
24 *894:32 *4323:A 8.48131e-05
25 *894:32 *911:72 0
26 *894:32 *936:29 0
27 *894:32 *1067:8 0.000100533
28 *894:51 *1038:10 0.000136486
29 *894:68 *911:62 1.01436e-05
30 *894:72 *4261:A 0.000226306
31 *894:96 *1029:8 0
32 *894:111 *1031:10 2.04774e-05
33 *3775:B1 *894:22 0.000559452
34 *3784:B1 *894:72 0.00010018
35 *3784:B1 *894:83 0.000313249
36 *3824:B1 *3824:A2 5.3304e-05
37 *3929:CLK *4152:A 5.50106e-05
38 *4122:A *894:51 0.00025114
39 *4236:A *894:72 0.000123944
40 *100:10 *894:51 1.14452e-05
41 *100:10 *894:60 6.16439e-05
42 *100:10 *894:111 0.000111852
43 *190:10 *894:83 5.50106e-05
44 *193:10 *894:51 5.29212e-05
45 *195:10 *894:72 9.84851e-05
46 *198:10 *894:96 0.000219873
47 *324:10 *894:96 0
48 *354:10 *894:32 1.01436e-05
49 *354:10 *894:51 0.000419943
50 *354:10 *894:60 5.01986e-05
51 *354:10 *894:111 0.000901749
52 *360:22 *894:111 5.09885e-05
53 *360:33 *894:111 0
54 *365:30 *894:111 0.000113929
55 *603:55 *894:83 0
56 *603:105 *894:96 0
57 *604:101 *894:22 5.3304e-05
58 *604:101 *894:32 5.3304e-05
59 *606:8 *894:111 0.000157299
60 *606:12 *894:111 0.000312154
61 *621:87 *894:32 0.000164282
62 *621:103 *894:32 3.92407e-05
63 *621:118 *894:32 0.000228981
64 *621:118 *894:51 0.000114092
65 *627:104 *894:83 9.69609e-05
66 *627:104 *894:96 1.13579e-05
67 *636:109 *894:22 2.65505e-05
68 *636:109 *894:32 6.16531e-05
69 *643:119 *894:111 0
70 *645:42 *894:68 3.31683e-05
71 *646:43 *894:32 0
72 *667:10 *894:111 2.24608e-05
73 *678:8 *894:83 0.000138718
74 *686:40 *894:72 0.000137651
75 *687:8 *894:51 0
76 *689:12 *894:111 0.000276951
77 *696:14 *894:10 3.31683e-05
78 *877:83 *894:111 0
79 *878:151 *894:83 0.000181412
80 *880:10 *894:10 0.000123611
81 *880:57 *894:68 3.72639e-05
82 *880:61 *894:68 0.000308946
83 *880:91 *894:68 9.67842e-05
84 *880:91 *894:72 0.000218183
85 *880:102 *894:83 0.000350406
86 *880:117 *894:83 8.75122e-05
87 *880:117 *894:96 0.000551541
88 *891:10 *894:111 0
89 *892:139 *894:83 2.19643e-05
90 *893:14 *894:96 0.000289603
91 *893:25 *894:96 4.43717e-05
*RES
1 *4154:X *894:10 40.6514 
2 *894:10 *894:12 15 
3 *894:12 *894:22 9.05214 
4 *894:22 *894:32 32.6279 
5 *894:32 *3824:A2 38.6214 
6 *894:32 *894:51 9.77714 
7 *894:51 *3782:A2 38 
8 *894:51 *894:60 0.849286 
9 *894:60 *894:68 35.9864 
10 *894:68 *894:72 27.5321 
11 *894:72 *3784:A2 23 
12 *894:72 *894:83 33.0629 
13 *894:83 *4152:A 38.6214 
14 *894:83 *894:96 35.2171 
15 *894:96 *4153:A 23 
16 *894:60 *894:111 37.7573 
17 *894:111 *4151:A 38 
18 *894:22 *3806:A2 23 
19 *894:12 *3775:A2 23 
*END

*D_NET *895 0.00284531
*CONN
*I *3647:A1 I *D sky130_fd_sc_hd__mux2_1
*I *4374:X O *D sky130_fd_sc_hd__clkdlybuf4s25_1
*CAP
1 *3647:A1 0
2 *4374:X 6.78864e-05
3 *895:14 0.000796746
4 *895:8 0.000864633
5 *895:14 *3647:S 0
6 *895:14 *909:72 0
7 *895:14 *909:89 0
8 o_receive_data[6] *895:14 0
9 *3647:A0 *895:14 5.50049e-05
10 *6:13 *895:14 0
11 *8:13 *895:14 0
12 *68:8 *895:14 0.000713859
13 *280:8 *895:14 9.88678e-05
14 *284:10 *895:14 0
15 *851:8 *895:14 5.56203e-05
16 *873:12 *895:14 0.000192691
*RES
1 *4374:X *895:8 39.0979 
2 *895:8 *895:14 34.9064 
3 *895:14 *3647:A1 23 
*END

*D_NET *896 0.0232062
*CONN
*I *3814:A2 I *D sky130_fd_sc_hd__o21a_2
*I *3626:A2 I *D sky130_fd_sc_hd__o21a_2
*I *3819:A2 I *D sky130_fd_sc_hd__o21a_2
*I *3815:A2 I *D sky130_fd_sc_hd__o21a_2
*I *3816:A2 I *D sky130_fd_sc_hd__o21a_2
*I *3818:A2 I *D sky130_fd_sc_hd__o21a_2
*I *3820:A2 I *D sky130_fd_sc_hd__o21a_2
*I *3822:A2 I *D sky130_fd_sc_hd__o21a_2
*I *3821:A2 I *D sky130_fd_sc_hd__o21a_2
*I *3817:A2 I *D sky130_fd_sc_hd__o21a_2
*I *4155:X O *D sky130_fd_sc_hd__clkdlybuf4s25_1
*CAP
1 *3814:A2 0
2 *3626:A2 0
3 *3819:A2 0.000415253
4 *3815:A2 6.81558e-05
5 *3816:A2 0
6 *3818:A2 7.5884e-05
7 *3820:A2 8.09324e-05
8 *3822:A2 0
9 *3821:A2 8.56507e-05
10 *3817:A2 0
11 *4155:X 0
12 *896:146 0.00126291
13 *896:133 0.00225585
14 *896:123 0.000780197
15 *896:110 0.000561088
16 *896:73 0.00111466
17 *896:56 0.00110964
18 *896:45 0.000613004
19 *896:39 0.00069133
20 *896:31 0.000774662
21 *896:16 0.000383286
22 *896:10 0.00141267
23 *896:4 0.000709145
24 *896:10 *4239:A 5.50106e-05
25 *896:31 *4184:A 0.000257981
26 *896:31 *1118:14 7.56848e-05
27 *896:73 *3568:B1 4.19437e-05
28 *896:73 *904:63 5.62433e-06
29 *896:73 *1076:10 0
30 *896:73 *1077:27 6.9805e-05
31 *896:110 *910:20 0.000410379
32 *896:146 *3489:A_N 0
33 *896:146 *1069:18 0
34 *896:146 *1079:31 0.000166522
35 *3548:A2 *896:133 0.000141954
36 *3554:A2 *896:31 0.000408137
37 *3557:B *896:10 4.5051e-05
38 *3557:B *896:110 7.53384e-06
39 *3572:B *896:73 0.000435854
40 *3634:C_N *896:16 1.83667e-05
41 *3808:B1 *896:146 8.51432e-05
42 *3815:B1 *3815:A2 2.02872e-05
43 *3817:B1 *896:16 5.50049e-05
44 *3818:A1 *3818:A2 6.17437e-06
45 *3818:A1 *896:45 2.02872e-05
46 *3820:B1 *3820:A2 3.7122e-06
47 *3821:A1 *896:45 2.02872e-05
48 *3822:A1 *896:45 0
49 *3822:A1 *896:56 0
50 *3822:A1 *896:73 0
51 *4009:RESET_B *896:10 0.000497275
52 *4009:RESET_B *896:16 0.000803898
53 *139:8 *896:146 0
54 *226:8 *896:123 0.000168744
55 *231:10 *3820:A2 5.61255e-06
56 *233:8 *896:73 0
57 *272:10 *896:45 0.00041079
58 *272:30 *896:39 1.50409e-05
59 *380:10 *896:146 0
60 *450:8 *896:146 0.00016069
61 *452:8 *896:146 0.000222113
62 *483:86 *896:146 0
63 *487:12 *896:146 0
64 *488:10 *896:146 0
65 *491:10 *896:133 0
66 *493:68 *3815:A2 5.3304e-05
67 *503:16 *896:73 7.74865e-06
68 *612:78 *896:133 0
69 *612:78 *896:146 0
70 *613:103 *896:73 0
71 *613:118 *896:73 0
72 *655:18 *3818:A2 1.47795e-05
73 *655:18 *3821:A2 5.3304e-05
74 *655:20 *3821:A2 9.84794e-05
75 *655:57 *896:45 3.47781e-05
76 *655:57 *896:56 0.000131744
77 *655:57 *896:73 2.55642e-05
78 *655:70 *896:31 2.83509e-05
79 *655:70 *896:39 6.7935e-05
80 *655:84 *896:10 0.00012174
81 *655:84 *896:16 0.000376156
82 *656:69 *896:10 0.000287191
83 *656:69 *896:123 0.000676629
84 *657:19 *896:10 0.000174324
85 *657:53 *3819:A2 0.000781048
86 *657:67 *896:73 0.000219084
87 *677:10 *896:31 5.58003e-05
88 *745:31 *896:45 0
89 *797:12 *896:133 0.000457122
90 *797:12 *896:146 0.000342084
91 *828:26 *896:16 2.26406e-05
92 *881:23 *896:31 7.64059e-06
93 *881:23 *896:39 1.12268e-05
94 *881:29 *896:39 0.000126621
95 *881:65 *896:110 0.000408138
96 *881:75 *3815:A2 0.000136743
97 *881:75 *896:110 4.17736e-05
98 *881:90 *896:110 1.01436e-05
99 *881:90 *896:123 0.00027355
100 *881:103 *896:133 0.00112763
101 *881:121 *3820:A2 3.7122e-06
102 *881:137 *896:146 0
*RES
1 *4155:X *896:4 23 
2 *896:4 *896:10 27.9879 
3 *896:10 *896:16 27.6357 
4 *896:16 *3817:A2 23 
5 *896:10 *896:31 25.8129 
6 *896:31 *896:39 33.7079 
7 *896:39 *896:45 21.9393 
8 *896:45 *3821:A2 39.5743 
9 *896:45 *896:56 1.90571 
10 *896:56 *3822:A2 38 
11 *896:56 *896:73 49.9271 
12 *896:73 *3820:A2 39.1186 
13 *896:39 *3818:A2 24.4707 
14 *896:31 *3816:A2 23 
15 *896:4 *896:110 38.12 
16 *896:110 *3815:A2 24.5743 
17 *896:110 *896:123 38.9486 
18 *896:123 *896:133 32.3379 
19 *896:133 *3819:A2 46.7207 
20 *896:133 *896:146 43.3164 
21 *896:146 *3626:A2 23 
22 *896:123 *3814:A2 23 
*END

*D_NET *897 0.0142342
*CONN
*I *3808:A2 I *D sky130_fd_sc_hd__o21a_2
*I *3809:A2 I *D sky130_fd_sc_hd__o21a_2
*I *3807:A2 I *D sky130_fd_sc_hd__o21a_2
*I *3810:A2 I *D sky130_fd_sc_hd__o21a_2
*I *3762:A2 I *D sky130_fd_sc_hd__o21a_2
*I *3811:A2 I *D sky130_fd_sc_hd__o21a_2
*I *3812:A2 I *D sky130_fd_sc_hd__o21a_2
*I *3813:A2 I *D sky130_fd_sc_hd__o21a_2
*I *4156:X O *D sky130_fd_sc_hd__clkdlybuf4s25_1
*CAP
1 *3808:A2 3.25721e-05
2 *3809:A2 0.000280302
3 *3807:A2 0.000832914
4 *3810:A2 0.000215617
5 *3762:A2 7.53153e-05
6 *3811:A2 0
7 *3812:A2 0
8 *3813:A2 7.49713e-05
9 *4156:X 0
10 *897:60 0.00156195
11 *897:58 0.000864277
12 *897:54 0.00102289
13 *897:39 0.00138098
14 *897:26 0.000535025
15 *897:17 0.000324193
16 *897:6 0.000250043
17 *3809:A2 *3532:A 5.50049e-05
18 *3809:A2 *1087:10 7.13673e-05
19 *3810:A2 *3490:A 0.000141236
20 *3810:A2 *3490:D_N 0.000138444
21 *897:39 *902:96 0.000160682
22 *897:54 *902:96 0
23 *897:60 *3490:A 0.000233462
24 *897:60 *4292:A 9.21347e-06
25 *897:60 *1071:64 0.000411694
26 *897:60 *1079:10 0.000177526
27 *897:60 *1079:12 1.22803e-05
28 *897:60 *1087:10 0.000134216
29 *3539:B *897:54 7.44354e-05
30 *3807:B1 *3807:A2 4.37586e-06
31 *3808:B1 *897:54 0.000270914
32 *3808:B1 *897:58 4.96717e-05
33 *3809:A1 *3809:A2 0.000212447
34 *3809:B1 *3809:A2 0.000269775
35 *3813:A1 *3813:A2 0.000283088
36 *3813:A1 *897:17 0.000440387
37 *4134:A *897:54 0.000228903
38 *142:12 *3807:A2 0.000566072
39 *172:8 *897:54 0.000110913
40 *451:10 *897:60 0.000376925
41 *451:18 *3810:A2 0.000111852
42 *451:18 *897:60 6.25829e-05
43 *454:12 *3810:A2 2.25419e-05
44 *485:8 *897:54 0
45 *656:69 *3813:A2 6.07611e-06
46 *656:78 *3813:A2 0.000144158
47 *656:78 *897:17 0.000284328
48 *656:78 *897:26 1.47563e-05
49 *656:89 *897:26 0.000185312
50 *656:89 *897:39 1.22803e-05
51 *660:12 *897:54 0.000192022
52 *881:137 *897:60 0
53 *882:19 *897:17 0.000132665
54 *882:19 *897:26 3.92407e-05
55 *882:28 *897:26 0.000365819
56 *882:28 *897:39 6.70363e-05
57 *882:41 *3762:A2 5.47808e-05
58 *882:41 *897:39 0.000519679
59 *882:90 *3809:A2 2.31209e-05
60 *882:90 *897:60 0.000111852
*RES
1 *4156:X *897:6 38 
2 *897:6 *3813:A2 41.6664 
3 *897:6 *897:17 7.54 
4 *897:17 *3812:A2 38 
5 *897:17 *897:26 5.42714 
6 *897:26 *3811:A2 38 
7 *897:26 *897:39 25.2121 
8 *897:39 *3762:A2 24.5743 
9 *897:39 *897:54 47.8764 
10 *897:54 *897:58 16.0979 
11 *897:58 *897:60 14.5829 
12 *897:60 *3810:A2 42.5571 
13 *897:60 *3807:A2 49.9521 
14 *897:58 *3809:A2 44.9186 
15 *897:54 *3808:A2 23.4971 
*END

*D_NET *898 0.0151551
*CONN
*I *3828:A2 I *D sky130_fd_sc_hd__o21a_2
*I *3823:A2 I *D sky130_fd_sc_hd__o21a_2
*I *3780:A2 I *D sky130_fd_sc_hd__o21a_2
*I *3826:A2 I *D sky130_fd_sc_hd__o21a_2
*I *3785:A2 I *D sky130_fd_sc_hd__o21a_2
*I *3781:A2 I *D sky130_fd_sc_hd__o21a_2
*I *3779:A2 I *D sky130_fd_sc_hd__o21a_2
*I *3783:A2 I *D sky130_fd_sc_hd__o21a_2
*I *3827:A2 I *D sky130_fd_sc_hd__o21a_2
*I *3825:A2 I *D sky130_fd_sc_hd__o21a_2
*I *4157:X O *D sky130_fd_sc_hd__clkdlybuf4s25_1
*CAP
1 *3828:A2 2.72544e-05
2 *3823:A2 0.000175193
3 *3780:A2 0.000202198
4 *3826:A2 9.77002e-05
5 *3785:A2 7.29692e-05
6 *3781:A2 0
7 *3779:A2 0
8 *3783:A2 8.19331e-05
9 *3827:A2 0.000294476
10 *3825:A2 0.000101275
11 *4157:X 0.000141361
12 *898:126 0.000445443
13 *898:102 0.000613334
14 *898:91 0.000648115
15 *898:78 0.000420614
16 *898:67 0.000522009
17 *898:46 0.00101217
18 *898:18 0.000498449
19 *898:16 0.00122572
20 *898:8 0.00107064
21 *898:6 0.000581294
22 *3780:A2 *1090:10 0
23 *3783:A2 *3431:B 0.000136738
24 *3828:A2 *902:62 5.50106e-05
25 *898:16 *3522:B 2.64616e-05
26 *898:16 *1070:10 5.67058e-05
27 *898:18 *3522:B 6.48142e-05
28 *898:46 *3431:B 1.00251e-05
29 *898:46 *3433:A1 0
30 *898:46 *3522:B 0.000301259
31 *898:46 *911:30 0
32 *898:46 *1067:70 7.53721e-05
33 *898:67 *911:30 4.5882e-05
34 *898:91 *3335:A 5.55784e-05
35 *898:102 *1090:10 0
36 *3781:B1 *898:78 0.000174417
37 *3781:B1 *898:126 0
38 *3785:A1 *3785:A2 2.18506e-05
39 *3785:B1 *3785:A2 0.00010018
40 *3785:B1 *898:102 0
41 *3823:A1 *3823:A2 9.63918e-05
42 *3823:B1 *3823:A2 0
43 *3825:A1 *3825:A2 0.000186813
44 *3825:A1 *898:18 6.25829e-05
45 *3827:A1 *3827:A2 0.000288733
46 *3937:CLK *3826:A2 1.24376e-05
47 *3951:CLK *3823:A2 5.50106e-05
48 *3951:RESET_B *3823:A2 0
49 *3975:CLK *898:67 6.17437e-06
50 *3980:RESET_B *898:18 2.34364e-05
51 *4015:D *898:6 1.32939e-05
52 *99:10 *3783:A2 5.3304e-05
53 *99:10 *898:67 0.000141879
54 *143:8 *898:18 0.000114092
55 *194:8 *898:46 1.14452e-05
56 *194:8 *898:67 0.000345555
57 *196:10 *898:102 4.96264e-05
58 *234:10 *3823:A2 0
59 *234:10 *898:126 0
60 *239:8 *898:126 6.63698e-05
61 *368:8 *898:91 0.000141052
62 *423:36 *3780:A2 0.00021623
63 *611:27 *898:6 6.82611e-05
64 *611:27 *898:8 0.000141154
65 *611:27 *898:16 0.000954262
66 *651:25 *3825:A2 1.83564e-05
67 *651:69 *3825:A2 7.30335e-05
68 *651:69 *898:18 3.26321e-05
69 *651:75 *3827:A2 2.4754e-05
70 *712:8 *3780:A2 0
71 *883:10 *3823:A2 2.70366e-05
72 *883:10 *898:126 0.000125894
73 *883:32 *898:126 9.54383e-05
74 *883:38 *898:18 0.000234382
75 *883:38 *898:46 0.000114092
76 *883:58 *898:46 0.000666494
77 *883:85 *898:46 6.81402e-05
78 *883:85 *898:67 0.000340701
79 *883:94 *898:78 0.000277714
80 *883:103 *898:91 0
81 *883:103 *898:102 0
82 *883:122 *3826:A2 2.02872e-05
83 *883:122 *898:102 0
84 *883:128 *3780:A2 0.000545265
85 *883:128 *898:102 8.62876e-05
86 *888:43 *898:126 0
*RES
1 *4157:X *898:6 25.0507 
2 *898:6 *898:8 3.00357 
3 *898:8 *898:16 29.6036 
4 *898:16 *898:18 4.01857 
5 *898:18 *3825:A2 40.61 
6 *898:18 *3827:A2 43.5514 
7 *898:16 *898:46 12.18 
8 *898:46 *3783:A2 39.5743 
9 *898:46 *898:67 27.4079 
10 *898:67 *3779:A2 23 
11 *898:8 *898:78 34.7229 
12 *898:78 *3781:A2 23 
13 *898:78 *898:91 20.2821 
14 *898:91 *3785:A2 39.5743 
15 *898:91 *898:102 4.37071 
16 *898:102 *3826:A2 39.595 
17 *898:102 *3780:A2 45.1879 
18 *898:6 *898:126 21.1314 
19 *898:126 *3823:A2 41.9357 
20 *898:126 *3828:A2 38.6214 
*END

*D_NET *899 0.0156379
*CONN
*I *3829:A2 I *D sky130_fd_sc_hd__o21a_2
*I *3844:A2 I *D sky130_fd_sc_hd__o21a_2
*I *3843:A2 I *D sky130_fd_sc_hd__o21a_2
*I *3845:A2 I *D sky130_fd_sc_hd__o21a_2
*I *3763:A2 I *D sky130_fd_sc_hd__o21a_2
*I *3777:A2 I *D sky130_fd_sc_hd__o21a_2
*I *3787:A2 I *D sky130_fd_sc_hd__o21a_2
*I *3847:A2 I *D sky130_fd_sc_hd__o21a_2
*I *3778:A2 I *D sky130_fd_sc_hd__o21a_2
*I *3776:A2 I *D sky130_fd_sc_hd__o21a_2
*I *4158:X O *D sky130_fd_sc_hd__clkdlybuf4s25_1
*CAP
1 *3829:A2 0.000182799
2 *3844:A2 0.000223284
3 *3843:A2 5.8961e-05
4 *3845:A2 2.34823e-05
5 *3763:A2 0
6 *3777:A2 0
7 *3787:A2 0.000145544
8 *3847:A2 0
9 *3778:A2 0
10 *3776:A2 0
11 *4158:X 0.000646222
12 *899:116 0.000981012
13 *899:97 0.000349174
14 *899:84 0.000709205
15 *899:82 0.000689497
16 *899:72 0.000608951
17 *899:68 0.00105305
18 *899:60 0.000717638
19 *899:47 0.000500116
20 *899:28 0.000209096
21 *899:26 0.000295623
22 *899:10 0.000350599
23 *3829:A2 *1113:16 2.4754e-05
24 *899:60 *1113:8 7.03766e-05
25 *899:68 *1113:8 0
26 *899:72 *901:57 0.000354127
27 *899:97 *911:10 0
28 *3422:B2 *899:47 9.58714e-05
29 *3426:C1 *899:10 0.000162422
30 *3778:B1 *899:47 5.90675e-06
31 *3829:A1 *3829:A2 0.000400204
32 *3829:A1 *899:68 4.08664e-05
33 *3844:A1 *3844:A2 4.95081e-05
34 *3845:A1 *899:72 0.000140259
35 *3845:B1 *899:82 0.000139357
36 *4037:D *899:47 6.55442e-05
37 *4037:D *899:60 5.30121e-05
38 *145:10 *899:60 0
39 *152:8 *899:26 0
40 *254:10 *3843:A2 3.7122e-06
41 *255:8 *3844:A2 0.000138727
42 *255:8 *899:116 0.000407199
43 *256:8 *899:82 0.000323831
44 *262:8 *899:82 1.22803e-05
45 *531:38 *899:116 0
46 *531:51 *899:116 0
47 *533:10 *3843:A2 0.000182826
48 *607:78 *899:26 0.000487452
49 *607:78 *899:47 0.000166522
50 *607:78 *899:68 4.03628e-05
51 *607:78 *899:116 8.72173e-05
52 *607:86 *899:72 1.57571e-05
53 *607:86 *899:82 3.53115e-05
54 *611:132 *899:10 5.31514e-05
55 *611:138 *899:26 0.00014411
56 *628:91 *899:82 0.000168754
57 *628:93 *899:82 0.000194318
58 *628:127 *899:82 5.50106e-05
59 *658:122 *899:97 8.76088e-05
60 *659:16 *899:82 0.000215671
61 *659:16 *899:84 9.84851e-05
62 *659:20 *3787:A2 0.000315852
63 *659:20 *899:84 0.000345193
64 *659:99 *3843:A2 9.84794e-05
65 *659:107 *3844:A2 0.000227736
66 *659:107 *899:116 1.58805e-05
67 *662:41 *899:26 0
68 *662:41 *899:47 8.16356e-05
69 *662:52 *899:68 8.94487e-05
70 *880:117 *899:97 0
71 *885:28 *899:10 8.62089e-05
72 *885:28 *899:26 0.000749612
73 *885:28 *899:47 3.17027e-05
74 *885:39 *899:47 5.50106e-05
75 *885:39 *899:60 3.70187e-05
76 *885:50 *899:60 0.000407218
77 *885:50 *899:68 1.58805e-05
78 *885:54 *899:68 9.67842e-05
79 *885:62 *899:82 3.06213e-05
80 *885:70 *899:97 0.000573972
81 *885:104 *899:116 0
82 *887:67 *899:72 0.000114846
*RES
1 *4158:X *899:10 44.4214 
2 *899:10 *3776:A2 38 
3 *4158:X *899:26 48.3571 
4 *899:26 *899:28 15 
5 *899:28 *3778:A2 23 
6 *899:28 *899:47 35.4479 
7 *899:47 *3847:A2 23 
8 *899:47 *899:60 36.8771 
9 *899:60 *899:68 19.8057 
10 *899:68 *899:72 19.4329 
11 *899:72 *899:82 41.6829 
12 *899:82 *899:84 4.90929 
13 *899:84 *3787:A2 26.48 
14 *899:84 *899:97 38.9486 
15 *899:97 *3777:A2 23 
16 *899:82 *3763:A2 23 
17 *899:72 *3845:A2 23.4971 
18 *899:68 *899:116 14.935 
19 *899:116 *3843:A2 40.0507 
20 *899:116 *3844:A2 43.4893 
21 *899:60 *3829:A2 27.9093 
*END

*D_NET *900 0.0133666
*CONN
*I *3834:A2 I *D sky130_fd_sc_hd__o21a_2
*I *3839:A2 I *D sky130_fd_sc_hd__o21a_2
*I *3838:A2 I *D sky130_fd_sc_hd__o21a_2
*I *3837:A2 I *D sky130_fd_sc_hd__o21a_2
*I *3836:A2 I *D sky130_fd_sc_hd__o21a_2
*I *3835:A2 I *D sky130_fd_sc_hd__o21a_2
*I *3833:A2 I *D sky130_fd_sc_hd__o21a_2
*I *3831:A2 I *D sky130_fd_sc_hd__o21a_2
*I *3832:A2 I *D sky130_fd_sc_hd__o21a_2
*I *3830:A2 I *D sky130_fd_sc_hd__o21a_2
*I *4159:X O *D sky130_fd_sc_hd__clkdlybuf4s25_1
*CAP
1 *3834:A2 3.32923e-05
2 *3839:A2 0.000203123
3 *3838:A2 8.28811e-05
4 *3837:A2 0
5 *3836:A2 6.72219e-05
6 *3835:A2 0
7 *3833:A2 0
8 *3831:A2 6.08739e-05
9 *3832:A2 0
10 *3830:A2 6.62561e-05
11 *4159:X 0
12 *900:101 0.000477854
13 *900:92 0.000401026
14 *900:81 0.000524141
15 *900:68 0.000694268
16 *900:58 0.000677467
17 *900:33 0.000207918
18 *900:20 0.000736959
19 *900:18 0.00171538
20 *900:6 0.00138937
21 *900:18 *3495:B 0.000136738
22 *900:58 *902:96 4.67488e-05
23 *3355:A *900:18 2.80394e-05
24 *3355:A *900:20 0.00010018
25 *3598:B1 *900:92 0
26 *3830:B1 *3830:A2 0.000141954
27 *3830:B1 *900:20 9.84851e-05
28 *3830:B1 *900:33 7.91596e-05
29 *3831:A1 *3831:A2 9.84794e-05
30 *3834:A1 *3834:A2 6.17437e-06
31 *3834:A1 *900:68 5.50106e-05
32 *3836:A1 *3836:A2 2.93747e-05
33 *3838:B1 *3838:A2 0.000139357
34 *3839:A1 *3839:A2 0.00028897
35 *3839:A1 *900:101 2.3529e-05
36 *4082:A *3831:A2 4.50413e-05
37 *121:10 *900:20 5.50049e-05
38 *122:10 *900:18 5.50049e-05
39 *273:10 *900:18 6.11183e-05
40 *274:10 *900:18 0.000151857
41 *607:58 *3831:A2 0
42 *660:27 *900:18 0.000431574
43 *660:68 *900:33 2.49836e-05
44 *661:19 *900:18 5.00898e-05
45 *661:26 *900:18 5.71927e-05
46 *661:30 *900:18 0.000517451
47 *661:30 *900:58 0.000138718
48 *661:30 *900:81 0
49 *661:41 *900:81 0
50 *661:41 *900:92 0
51 *661:83 *900:92 3.55887e-05
52 *661:83 *900:101 0.000194346
53 *661:94 *3839:A2 0.000285359
54 *661:94 *900:101 1.83667e-05
55 *662:104 *900:33 0
56 *680:22 *900:18 0
57 *806:8 *900:18 0.00019747
58 *806:8 *900:58 0.000129504
59 *817:12 *900:68 8.85189e-05
60 *886:18 *900:20 0.000383053
61 *886:33 *900:33 0.000161121
62 *886:74 *900:68 0.000567669
63 *886:87 *900:68 6.48142e-05
64 *886:87 *900:81 0.000371129
65 *886:100 *3836:A2 6.17437e-06
66 *886:100 *900:81 5.65408e-05
67 *886:100 *900:92 0.000196188
68 *886:111 *900:92 2.95125e-05
69 *886:111 *900:101 0.000188142
70 *887:14 *900:18 0
71 *887:24 *3831:A2 0.000187129
72 *888:71 *900:68 7.75329e-06
*RES
1 *4159:X *900:6 38 
2 *900:6 *900:18 38.3243 
3 *900:18 *900:20 12.5321 
4 *900:20 *3830:A2 24.5743 
5 *900:20 *900:33 33.3143 
6 *900:33 *3832:A2 23 
7 *900:33 *3831:A2 25.5479 
8 *900:18 *3833:A2 23 
9 *900:6 *900:58 18.9564 
10 *900:58 *900:68 26.0407 
11 *900:68 *3835:A2 38 
12 *900:68 *900:81 6.54571 
13 *900:81 *3836:A2 39.0979 
14 *900:81 *900:92 5.77929 
15 *900:92 *3837:A2 38 
16 *900:92 *900:101 5.77929 
17 *900:101 *3838:A2 39.5743 
18 *900:101 *3839:A2 45.54 
19 *900:58 *3834:A2 23.6214 
*END

*D_NET *901 0.0222451
*CONN
*I *3840:A2 I *D sky130_fd_sc_hd__o21a_2
*I *3842:A2 I *D sky130_fd_sc_hd__o21a_2
*I *3841:A2 I *D sky130_fd_sc_hd__o21a_2
*I *3851:A2 I *D sky130_fd_sc_hd__o21a_2
*I *3852:A2 I *D sky130_fd_sc_hd__o21a_2
*I *3853:A2 I *D sky130_fd_sc_hd__o21a_2
*I *4158:A I *D sky130_fd_sc_hd__clkdlybuf4s25_1
*I *4159:A I *D sky130_fd_sc_hd__clkdlybuf4s25_1
*I *4160:X O *D sky130_fd_sc_hd__clkdlybuf4s25_1
*CAP
1 *3840:A2 0
2 *3842:A2 0
3 *3841:A2 0
4 *3851:A2 0
5 *3852:A2 0
6 *3853:A2 0
7 *4158:A 0
8 *4159:A 0
9 *4160:X 0.00124636
10 *901:122 0.000847094
11 *901:107 0.00136723
12 *901:96 0.000566529
13 *901:77 0.000370167
14 *901:69 0.000853699
15 *901:59 0.000483531
16 *901:57 0.00137723
17 *901:51 0.00226483
18 *901:40 0.00115884
19 *901:32 0.00200005
20 *901:30 0.000907592
21 *901:10 0.000338772
22 *901:30 *3350:A 5.50106e-05
23 *901:30 *3351:A 5.50049e-05
24 *901:30 *3499:A_N 9.16362e-05
25 *901:30 *3499:B 0.000177265
26 *901:40 *3349:A 7.4416e-05
27 *901:40 *1105:6 9.8971e-06
28 *901:51 *903:64 0
29 *901:51 *1097:57 1.12487e-05
30 *901:51 *1104:10 0
31 *901:51 *1105:21 2.79064e-05
32 *901:51 *1105:49 0.000244526
33 *901:69 *4190:A 0
34 *901:77 *4190:A 6.48049e-05
35 *901:77 *1028:8 0.000141888
36 *901:107 *1101:8 0
37 *901:107 *1101:20 0.000215782
38 *3504:A *901:51 9.52677e-05
39 *3504:B *901:51 0.000222113
40 *3608:C *901:57 5.67058e-05
41 *3851:B1 *901:69 0.0002263
42 *4023:CLK *901:40 0.000185133
43 *150:10 *901:69 0
44 *243:10 *901:40 0.000246757
45 *243:10 *901:51 8.33866e-05
46 *252:8 *901:107 0
47 *262:8 *901:57 0
48 *263:10 *901:77 0
49 *382:10 *901:40 3.80747e-05
50 *384:10 *901:30 0.000184527
51 *390:6 *901:57 9.75779e-05
52 *390:19 *901:57 4.17736e-05
53 *460:10 *901:40 0.000125915
54 *460:10 *901:51 0.000449274
55 *463:8 *901:51 0.000354778
56 *466:12 *901:51 0
57 *466:12 *901:96 0
58 *466:12 *901:107 0
59 *466:22 *901:51 7.75329e-06
60 *507:16 *901:51 1.17152e-05
61 *518:52 *901:107 0
62 *607:86 *901:57 0
63 *607:86 *901:69 6.16531e-05
64 *607:97 *901:51 2.13733e-05
65 *607:97 *901:57 9.88574e-06
66 *609:75 *901:10 0.000138708
67 *659:58 *901:69 3.70094e-05
68 *659:75 *901:69 0.00056261
69 *659:90 *901:77 0
70 *659:99 *901:77 0.000402801
71 *661:53 *901:51 5.3304e-05
72 *661:65 *901:51 0.000192087
73 *661:65 *901:96 2.77188e-05
74 *662:33 *901:30 4.57742e-05
75 *662:67 *901:96 1.96688e-05
76 *748:10 *901:122 3.81391e-05
77 *806:8 *901:10 0
78 *885:93 *901:57 1.62015e-05
79 *885:104 *901:57 4.99753e-06
80 *887:14 *901:10 1.02387e-05
81 *887:52 *901:96 2.33476e-05
82 *887:67 *901:57 0.000602044
83 *887:82 *901:69 0.000185428
84 *887:90 *901:77 0.000382574
85 *887:106 *901:96 3.5471e-05
86 *887:106 *901:107 0.0010231
87 *887:106 *901:122 5.50106e-05
88 *887:119 *901:122 0.000563467
89 *899:72 *901:57 0.000354127
*RES
1 *4160:X *901:10 42.785 
2 *901:10 *4159:A 38 
3 *4160:X *901:30 40.835 
4 *901:30 *901:32 15 
5 *901:32 *901:40 33.125 
6 *901:40 *4158:A 23 
7 *901:32 *901:51 36.0871 
8 *901:51 *901:57 37.04 
9 *901:57 *901:59 15 
10 *901:59 *901:69 41.7864 
11 *901:69 *901:77 40.2121 
12 *901:77 *3853:A2 23 
13 *901:69 *3852:A2 23 
14 *901:59 *3851:A2 23 
15 *901:51 *901:96 16.2014 
16 *901:96 *3841:A2 38 
17 *901:96 *901:107 28.8786 
18 *901:107 *3842:A2 23 
19 *901:107 *901:122 47.1514 
20 *901:122 *3840:A2 23 
*END

*D_NET *902 0.0277297
*CONN
*I *4160:A I *D sky130_fd_sc_hd__clkdlybuf4s25_1
*I *4157:A I *D sky130_fd_sc_hd__clkdlybuf4s25_1
*I *4154:A I *D sky130_fd_sc_hd__clkdlybuf4s25_1
*I *4156:A I *D sky130_fd_sc_hd__clkdlybuf4s25_1
*I *4155:A I *D sky130_fd_sc_hd__clkdlybuf4s25_1
*I *4161:X O *D sky130_fd_sc_hd__clkdlybuf4s25_1
*CAP
1 *4160:A 0
2 *4157:A 0
3 *4154:A 0.000977753
4 *4156:A 5.145e-05
5 *4155:A 0
6 *4161:X 0.0003352
7 *902:96 0.00108763
8 *902:86 0.00152009
9 *902:62 0.00258561
10 *902:50 0.00177105
11 *902:46 0.00145245
12 *902:38 0.00233742
13 *902:30 0.00177315
14 *902:19 0.000998469
15 *902:10 0.000989711
16 *902:10 *1072:8 5.61311e-05
17 *902:19 *910:20 0
18 *902:19 *1072:8 6.11286e-05
19 *902:30 *910:20 0
20 *902:30 *910:22 0.000117534
21 *902:38 *3346:A 8.4047e-05
22 *902:38 *3489:B 5.50049e-05
23 *902:38 *1082:10 3.61413e-05
24 *902:46 *3534:A2 9.8971e-06
25 *902:46 *3534:A3 0.000325289
26 *902:62 *1095:10 0.000138444
27 *902:96 *910:22 0
28 *3487:B1 *902:46 3.53115e-05
29 *3529:A2 *902:62 3.56537e-05
30 *3541:A *902:38 8.4047e-05
31 *3543:A1 *902:38 1.91431e-05
32 *3546:A *902:38 1.01436e-05
33 *3828:A2 *902:62 5.50106e-05
34 *3828:B1 *902:62 0.000294535
35 *3835:B1 *902:96 1.01436e-05
36 *3999:CLK *902:62 0.000176355
37 *4004:CLK *902:38 5.3304e-05
38 *4015:D *902:62 6.88715e-05
39 *4142:A *902:10 7.80404e-05
40 *120:27 *4154:A 0.000105808
41 *137:12 *902:38 5.69933e-05
42 *172:8 *902:96 0
43 *218:10 *902:62 0.000139647
44 *222:10 *902:96 0.000110922
45 *236:10 *902:62 9.5877e-05
46 *245:10 *902:96 2.93747e-05
47 *365:16 *4154:A 5.42887e-05
48 *365:16 *902:62 4.20862e-05
49 *451:10 *902:46 0.000563681
50 *616:46 *4154:A 0.000168985
51 *651:34 *902:62 0.00126018
52 *656:109 *902:46 0.000224665
53 *656:109 *902:86 3.7122e-06
54 *660:23 *902:96 0.000698121
55 *660:104 *902:96 0.000491424
56 *661:19 *902:96 0.000700361
57 *661:26 *902:96 0.000140949
58 *661:30 *902:96 0.000664971
59 *680:8 *902:96 0.000135557
60 *828:42 *902:10 0.000169674
61 *828:42 *902:19 0.00149378
62 *828:42 *902:30 0.000951432
63 *828:42 *902:86 0.000223034
64 *882:41 *902:96 2.72055e-05
65 *882:75 *902:46 0.000695012
66 *882:75 *902:50 0
67 *882:75 *902:62 0
68 *883:10 *902:62 0
69 *883:32 *902:50 0
70 *883:32 *902:62 0
71 *888:35 *902:30 0.000348114
72 *888:43 *902:38 0.000112764
73 *888:71 *902:30 2.19236e-05
74 *888:71 *902:86 0.000107538
75 *897:39 *902:96 0.000160682
76 *897:54 *902:96 0
77 *900:58 *902:96 4.67488e-05
*RES
1 *4161:X *902:10 43.7379 
2 *902:10 *4155:A 38 
3 *902:10 *902:19 19.5129 
4 *902:19 *4156:A 38.6214 
5 *902:19 *902:30 12.47 
6 *902:30 *902:38 43.7336 
7 *902:38 *902:46 38.1793 
8 *902:46 *902:50 17.61 
9 *902:50 *902:62 46.7343 
10 *902:62 *4154:A 37.21 
11 *902:50 *4157:A 38 
12 *902:30 *902:86 36.9186 
13 *902:86 *902:96 46.8586 
14 *902:96 *4160:A 23 
*END

*D_NET *903 0.014726
*CONN
*I *3601:A I *D sky130_fd_sc_hd__nor3_2
*I *3596:A I *D sky130_fd_sc_hd__nor3_2
*I *3597:B1 I *D sky130_fd_sc_hd__a21oi_2
*I *3592:B1 I *D sky130_fd_sc_hd__a21o_2
*I *3587:C1 I *D sky130_fd_sc_hd__a211oi_2
*I *3578:B1 I *D sky130_fd_sc_hd__a31o_2
*I *3611:C1 I *D sky130_fd_sc_hd__a211oi_2
*I *3615:B1 I *D sky130_fd_sc_hd__a31o_2
*I *3612:B1 I *D sky130_fd_sc_hd__a21oi_2
*I *3358:A I *D sky130_fd_sc_hd__inv_2
*I *4162:X O *D sky130_fd_sc_hd__clkdlybuf4s25_1
*CAP
1 *3601:A 0.000635451
2 *3596:A 0
3 *3597:B1 0.000286891
4 *3592:B1 4.24356e-05
5 *3587:C1 0
6 *3578:B1 0
7 *3611:C1 0
8 *3615:B1 6.41988e-05
9 *3612:B1 0.00030873
10 *3358:A 0
11 *4162:X 0.00103547
12 *903:125 0.000840105
13 *903:110 0.000638467
14 *903:94 0.000443169
15 *903:80 0.000614092
16 *903:78 0.00101433
17 *903:64 0.000491256
18 *903:29 0.000455411
19 *903:25 0.000714394
20 *903:12 0.000987069
21 *903:6 0.00114296
22 *3601:A *3602:B 0
23 *3612:B1 *3501:C 0.000135774
24 *3612:B1 *3501:D 5.29672e-05
25 *3615:B1 *3501:C 2.70366e-05
26 *3615:B1 *4299:A 2.08324e-05
27 *3615:B1 *1103:21 4.08641e-05
28 *903:6 *1113:27 4.75206e-05
29 *903:12 *4283:A 5.94125e-05
30 *903:25 *3501:B 0
31 *903:25 *1100:10 0
32 *903:64 *1097:10 0.000122304
33 *903:64 *1097:14 7.91493e-05
34 *903:64 *1097:51 5.67058e-05
35 *903:64 *1104:51 5.50106e-05
36 *903:78 *1113:27 0.000272458
37 *903:94 *3498:C 0.00014196
38 *903:94 *1107:51 4.21594e-06
39 *903:94 *1109:28 0.000216721
40 *903:94 *1110:14 5.78044e-05
41 *903:94 *1110:33 4.83941e-05
42 *3504:B *903:64 0
43 *3594:A1 *3597:B1 3.86227e-05
44 *3601:C *3601:A 0
45 *3604:B *3601:A 0
46 *3604:B *903:125 0
47 *3605:A1 *3601:A 0.000311549
48 *3608:C *903:12 0
49 *3608:C *903:25 0
50 *3611:A2 *903:25 0
51 *4026:D *903:94 5.50049e-05
52 *4031:D *3601:A 3.7122e-06
53 *240:8 *903:12 0
54 *390:19 *903:12 8.22585e-05
55 *390:19 *903:64 0.000349386
56 *463:8 *903:64 0
57 *465:10 *3601:A 0
58 *466:22 *903:64 0
59 *507:10 *903:64 0
60 *507:16 *903:64 0
61 *507:73 *903:94 0
62 *515:8 *903:94 9.10082e-05
63 *515:23 *903:94 9.67842e-05
64 *517:10 *903:78 2.38288e-05
65 *517:10 *903:80 9.3813e-05
66 *517:10 *903:94 3.37995e-05
67 *518:27 *3597:B1 9.75624e-05
68 *518:35 *3597:B1 6.17437e-06
69 *518:35 *903:110 2.22183e-05
70 *518:35 *903:125 0.000101769
71 *519:8 *903:94 8.15327e-05
72 *520:10 *3597:B1 5.50106e-05
73 *520:10 *3601:A 0
74 *520:10 *903:125 0
75 *521:24 *3601:A 8.68903e-05
76 *523:10 *3601:A 0
77 *524:10 *3601:A 6.33614e-05
78 *526:27 *903:125 0
79 *527:8 *3601:A 0
80 *528:8 *903:25 0
81 *531:10 *903:25 0.000167452
82 *531:14 *903:25 9.84794e-05
83 *531:28 *903:25 4.19743e-05
84 *531:28 *903:29 7.44257e-05
85 *609:20 *3612:B1 0.000161121
86 *609:20 *3615:B1 0.000169683
87 *609:20 *903:25 0
88 *609:43 *903:80 0.000152951
89 *609:43 *903:94 0.000394193
90 *609:43 *903:110 9.90384e-05
91 *609:43 *903:125 6.79006e-05
92 *609:95 *3601:A 0
93 *661:65 *903:6 0.000315857
94 *661:65 *903:12 0.000135037
95 *662:67 *903:25 0
96 *787:10 *903:12 0
97 *901:51 *903:64 0
*RES
1 *4162:X *903:6 27.9093 
2 *903:6 *903:12 20.2407 
3 *903:12 *3358:A 38 
4 *903:12 *903:25 26.4757 
5 *903:25 *903:29 16.5743 
6 *903:29 *3612:B1 43.6343 
7 *903:29 *3615:B1 40.2579 
8 *903:25 *3611:C1 23 
9 *903:6 *903:64 40.6264 
10 *903:64 *3578:B1 23 
11 *4162:X *903:78 48.6264 
12 *903:78 *903:80 4.01857 
13 *903:80 *903:94 27.7807 
14 *903:94 *3587:C1 23 
15 *903:80 *3592:B1 38.6214 
16 *903:78 *903:110 2.96214 
17 *903:110 *3597:B1 42.4743 
18 *903:110 *903:125 4.72286 
19 *903:125 *3596:A 38 
20 *903:125 *3601:A 49.2893 
*END

*D_NET *904 0.0169775
*CONN
*I *3567:C1 I *D sky130_fd_sc_hd__a211oi_2
*I *3560:A I *D sky130_fd_sc_hd__nor2_2
*I *3557:A I *D sky130_fd_sc_hd__nor3_2
*I *3553:B1 I *D sky130_fd_sc_hd__a21oi_2
*I *3571:B1 I *D sky130_fd_sc_hd__a31o_2
*I *3552:A I *D sky130_fd_sc_hd__nor3_2
*I *3568:B1 I *D sky130_fd_sc_hd__a21oi_2
*I *3357:A I *D sky130_fd_sc_hd__inv_2
*I *3534:B1 I *D sky130_fd_sc_hd__a31o_2
*I *3543:C1 I *D sky130_fd_sc_hd__a211oi_2
*I *4163:X O *D sky130_fd_sc_hd__clkdlybuf4s25_1
*CAP
1 *3567:C1 0.000197413
2 *3560:A 0
3 *3557:A 0
4 *3553:B1 0
5 *3571:B1 0.000768282
6 *3552:A 0
7 *3568:B1 0.000149739
8 *3357:A 0.000100015
9 *3534:B1 2.42869e-05
10 *3543:C1 0.000334622
11 *4163:X 5.68756e-05
12 *904:126 0.000101267
13 *904:111 0.00113959
14 *904:105 0.000612118
15 *904:94 0.000617329
16 *904:86 0.000799154
17 *904:63 0.000858026
18 *904:57 0.000780201
19 *904:44 0.0014166
20 *904:25 0.00107744
21 *904:8 0.000526464
22 *3534:B1 *3534:A3 5.3304e-05
23 *3543:C1 *3489:A_N 5.67058e-05
24 *3543:C1 *3489:B 7.42621e-05
25 *3543:C1 *1079:10 3.0647e-05
26 *3543:C1 *1079:12 8.16195e-05
27 *3543:C1 *1079:16 1.6279e-05
28 *3543:C1 *1079:31 0.000351513
29 *3568:B1 *1076:31 4.45778e-05
30 *3571:B1 *3571:A1 2.02517e-05
31 *904:8 *1079:10 4.74809e-05
32 *904:25 *3534:A3 3.75171e-05
33 *904:25 *4292:A 0.000180224
34 *904:44 *3490:A 9.15308e-05
35 *904:44 *4292:A 1.01436e-05
36 *904:44 *1071:64 5.27796e-05
37 *904:44 *1080:21 6.6869e-05
38 *904:86 *3491:D 5.02657e-05
39 *904:86 *3563:A 9.41704e-05
40 *904:105 *1073:22 0.000183708
41 *904:111 *1073:22 6.38845e-05
42 *3530:A3 *904:44 0.000143655
43 *3563:B *904:86 0
44 *3567:A1 *3567:C1 6.47194e-05
45 *3572:B *3568:B1 9.58714e-05
46 *3810:A1 *904:44 0.00056917
47 *4010:D *3571:B1 0.000143655
48 *127:8 *904:111 0.000123336
49 *127:8 *904:126 0
50 *130:10 *3567:C1 5.67058e-05
51 *229:8 *904:111 0
52 *229:8 *904:126 7.81176e-05
53 *230:8 *904:57 9.88678e-05
54 *231:10 *904:57 0.000222123
55 *231:10 *904:63 0.000216712
56 *389:12 *3357:A 2.30292e-05
57 *389:12 *904:57 0
58 *389:21 *3357:A 1.94693e-05
59 *389:21 *904:44 6.33627e-05
60 *389:34 *904:57 0
61 *451:10 *904:25 2.98648e-05
62 *451:18 *3357:A 0
63 *451:18 *904:44 7.06812e-05
64 *454:12 *904:44 0
65 *454:12 *904:57 0
66 *455:10 *904:86 0.000177899
67 *456:10 *904:105 7.76364e-06
68 *479:10 *904:44 5.67058e-05
69 *479:42 *3543:C1 0.000121346
70 *492:10 *904:105 2.76611e-06
71 *493:12 *904:105 0
72 *493:18 *904:111 0
73 *493:55 *904:94 0.000181131
74 *493:55 *904:105 4.08664e-05
75 *496:8 *904:105 0
76 *496:8 *904:111 0
77 *497:8 *904:105 0.000166513
78 *498:21 *904:86 0.000789944
79 *498:21 *904:94 6.68303e-05
80 *499:10 *904:94 8.45804e-05
81 *501:10 *904:63 3.54495e-05
82 *501:10 *904:86 4.6318e-06
83 *613:97 *904:126 6.16439e-05
84 *656:109 *3534:B1 2.65505e-05
85 *656:109 *904:25 0.000360326
86 *657:19 *904:105 0
87 *657:59 *904:57 0.000583108
88 *657:59 *904:63 0.000241346
89 *657:67 *904:63 6.1024e-05
90 *657:73 *3568:B1 7.98809e-05
91 *799:12 *3568:B1 5.50049e-05
92 *881:121 *904:57 6.71514e-05
93 *881:121 *904:63 1.12487e-05
94 *881:137 *3543:C1 0.00026478
95 *881:137 *904:8 0.000110922
96 *882:58 *904:44 8.4047e-05
97 *896:73 *3568:B1 4.19437e-05
98 *896:73 *904:63 5.62433e-06
*RES
1 *4163:X *904:8 39.5536 
2 *904:8 *3543:C1 47.5286 
3 *904:8 *904:25 19.4536 
4 *904:25 *3534:B1 23.6214 
5 *904:25 *904:44 48.6014 
6 *904:44 *3357:A 24.9471 
7 *904:44 *904:57 26.4136 
8 *904:57 *904:63 5.78964 
9 *904:63 *3568:B1 41.1796 
10 *904:63 *904:86 28.8682 
11 *904:86 *904:94 6.525 
12 *904:94 *3552:A 23 
13 *904:94 *904:105 21.4007 
14 *904:105 *904:111 20.5929 
15 *904:111 *3571:B1 33.1707 
16 *904:111 *904:126 32.2579 
17 *904:126 *3553:B1 23 
18 *904:105 *3557:A 38 
19 *904:86 *3560:A 23 
20 *904:57 *3567:C1 41.6457 
*END

*D_NET *905 0.0195692
*CONN
*I *3329:A I *D sky130_fd_sc_hd__inv_2
*I *3462:B2 I *D sky130_fd_sc_hd__a22o_2
*I *3401:B I *D sky130_fd_sc_hd__and2_2
*I *3757:S I *D sky130_fd_sc_hd__mux2_1
*I *3759:S I *D sky130_fd_sc_hd__mux2_1
*I *3754:S I *D sky130_fd_sc_hd__mux2_1
*I *3760:S I *D sky130_fd_sc_hd__mux2_1
*I *3755:S I *D sky130_fd_sc_hd__mux2_1
*I *3758:S I *D sky130_fd_sc_hd__mux2_1
*I *3753:S I *D sky130_fd_sc_hd__mux2_1
*I *4164:X O *D sky130_fd_sc_hd__clkdlybuf4s25_1
*CAP
1 *3329:A 0.000184081
2 *3462:B2 6.18616e-05
3 *3401:B 0.000139642
4 *3757:S 4.46443e-05
5 *3759:S 2.34823e-05
6 *3754:S 0.000193918
7 *3760:S 0
8 *3755:S 0
9 *3758:S 0
10 *3753:S 5.83344e-05
11 *4164:X 0.000374755
12 *905:140 0.000957111
13 *905:71 0.000136465
14 *905:54 0.000280481
15 *905:50 0.00041052
16 *905:42 0.000792923
17 *905:34 0.000831063
18 *905:30 0.000459717
19 *905:28 0.00122083
20 *905:20 0.00188878
21 *905:16 0.00232292
22 *905:8 0.00114638
23 *3329:A *907:65 6.03993e-05
24 *3401:B *936:29 4.30723e-05
25 *3753:S *961:40 9.58714e-05
26 *3753:S *964:37 2.32004e-05
27 *3754:S *961:26 0
28 *3754:S *962:10 4.98718e-06
29 *905:16 *3468:A2 0.000182642
30 *905:16 *907:65 8.68081e-05
31 *905:20 *948:10 1.56662e-06
32 *905:20 *966:10 3.58968e-05
33 *905:28 *936:29 0.000120781
34 *905:42 *4058:RESET_B 1.69668e-05
35 *905:42 *962:10 8.54757e-05
36 *905:42 *962:16 1.19796e-05
37 *905:50 *3760:A1 6.07175e-05
38 *905:50 *967:16 0.000100733
39 *905:50 *967:22 0
40 *905:50 *969:10 0.000118351
41 *905:54 *961:40 0.000254735
42 *905:54 *964:37 3.61695e-05
43 *905:71 *4057:RESET_B 0.000216721
44 *905:140 *3525:A1 0.00014196
45 *905:140 *948:10 2.55806e-05
46 *905:140 *1067:42 0
47 *3462:A2 *3462:B2 3.91386e-05
48 *3462:A2 *905:140 0.000487434
49 *3462:B1 *3462:B2 5.41288e-05
50 *3525:A0 *905:140 0
51 *3619:A *905:42 0.000220047
52 *3679:A2 *905:140 0.000163099
53 *3698:A1 *905:71 0.00018515
54 *3755:A1 *3753:S 5.3304e-05
55 *3755:A1 *905:54 0.000223698
56 *3757:A1 *905:30 5.50106e-05
57 *3758:A0 *905:71 0.000330601
58 *3759:A0 *3757:S 0
59 *3759:A0 *905:30 0.000177127
60 *3759:A0 *905:34 4.79008e-05
61 *3759:A1 *905:34 0.000178517
62 *3760:A0 *905:42 4.79641e-05
63 *3760:A0 *905:50 0.000141954
64 *3983:CLK *905:20 7.59794e-05
65 *3983:RESET_B *905:16 9.28842e-05
66 *3983:RESET_B *905:20 1.19087e-05
67 *4076:A *905:28 9.75779e-05
68 *73:14 *905:20 2.93747e-05
69 *78:14 *905:140 3.70094e-05
70 *112:8 *905:16 8.45324e-05
71 *114:10 *3401:B 0.000148736
72 *114:10 *905:28 0.000435013
73 *305:6 *905:8 0.000560166
74 *345:8 *3753:S 0
75 *349:10 *905:30 9.84851e-05
76 *351:8 *3754:S 0.000385726
77 *362:25 *3329:A 8.92192e-05
78 *362:25 *905:16 8.16356e-05
79 *536:8 *3754:S 0.000166676
80 *536:8 *905:42 0.000117102
81 *567:16 *905:71 5.44889e-06
82 *604:68 *905:28 2.41707e-05
83 *617:18 *905:16 6.79006e-05
84 *637:10 *905:16 0
85 *637:12 *905:16 0.000206779
86 *638:37 *905:140 0.000196178
87 *638:59 *905:140 0.00022294
88 *638:76 *905:28 0
89 *696:14 *3329:A 3.46407e-05
90 *749:12 *3401:B 5.3304e-05
91 *749:12 *905:16 6.4393e-05
92 *755:22 *3757:S 5.9836e-05
93 *755:22 *905:28 0.000250371
94 *755:22 *905:30 1.03836e-05
95 *760:6 *905:71 1.40958e-05
96 *794:10 *905:50 9.63918e-05
97 *835:10 *905:140 0
98 *875:58 *3754:S 0
99 *880:10 *3329:A 8.90445e-05
100 *894:10 *3329:A 3.7122e-06
*RES
1 *4164:X *905:8 44.815 
2 *905:8 *905:16 29.5414 
3 *905:16 *905:20 25.6264 
4 *905:20 *905:28 31.9029 
5 *905:28 *905:30 5.86214 
6 *905:30 *905:34 18.0036 
7 *905:34 *905:42 25.3779 
8 *905:42 *905:50 37.5193 
9 *905:50 *905:54 3.50071 
10 *905:54 *3753:S 24.595 
11 *905:54 *905:71 35.0129 
12 *905:71 *3758:S 23 
13 *905:50 *3755:S 23 
14 *905:42 *3760:S 23 
15 *905:34 *3754:S 44.0486 
16 *905:30 *3759:S 23.4971 
17 *905:28 *3757:S 24.595 
18 *905:20 *3401:B 40.8793 
19 *905:16 *905:140 49.9893 
20 *905:140 *3462:B2 24.595 
21 *905:8 *3329:A 42.4121 
*END

*D_NET *906 0.0051924
*CONN
*I *3327:A I *D sky130_fd_sc_hd__inv_2
*I *3406:A1 I *D sky130_fd_sc_hd__a21o_2
*I *3410:A1 I *D sky130_fd_sc_hd__a2111o_2
*I *3405:A I *D sky130_fd_sc_hd__xor2_2
*I *4375:X O *D sky130_fd_sc_hd__clkdlybuf4s25_1
*CAP
1 *3327:A 9.66499e-05
2 *3406:A1 0
3 *3410:A1 0.000286041
4 *3405:A 0.000211661
5 *4375:X 0
6 *906:62 0.000155448
7 *906:48 0.000691623
8 *906:12 0.000630544
9 *906:4 0.000883264
10 *3405:B *3405:A 0
11 *3406:B1 *906:48 9.84851e-05
12 *3407:B *3410:A1 6.87338e-05
13 *3408:B1 *906:12 4.75206e-05
14 *3408:B1 *906:48 0
15 *3410:C1 *3410:A1 2.81138e-05
16 *3410:D1 *3410:A1 5.50049e-05
17 *3410:D1 *906:12 2.4754e-05
18 *3414:A *906:48 6.19442e-05
19 *4392:A *3405:A 6.95681e-05
20 *13:19 *3405:A 0
21 *13:19 *3410:A1 5.91196e-05
22 *13:19 *906:12 9.5877e-05
23 *162:6 *3327:A 0.000181125
24 *162:16 *3405:A 0.000136486
25 *162:16 *3410:A1 2.58197e-05
26 *162:16 *906:12 0.00023203
27 *164:10 *906:12 2.93845e-05
28 *166:8 *906:48 0
29 *210:10 *906:48 0
30 *412:8 *906:48 0.00037402
31 *412:22 *906:48 1.50174e-05
32 *413:18 *906:48 0
33 *624:91 *3405:A 0.000138718
34 *631:27 *3410:A1 3.22343e-05
35 *631:27 *906:12 0.000181125
36 *641:107 *906:48 0
37 *642:14 *3410:A1 4.6318e-06
38 *865:23 *906:62 0.000138727
39 *868:26 *906:62 0.000138727
*RES
1 *4375:X *906:4 23 
2 *906:4 *906:12 20.7793 
3 *906:12 *3405:A 43.075 
4 *906:12 *3410:A1 42.4329 
5 *906:4 *906:48 42.5321 
6 *906:48 *3406:A1 23 
7 *3410:A1 *906:62 39.9057 
8 *906:62 *3327:A 40.0507 
*END

*D_NET *907 0.0252613
*CONN
*I *3749:S I *D sky130_fd_sc_hd__mux2_1
*I *3746:S I *D sky130_fd_sc_hd__mux2_1
*I *3750:S I *D sky130_fd_sc_hd__mux2_1
*I *3747:S I *D sky130_fd_sc_hd__mux2_1
*I *3745:S I *D sky130_fd_sc_hd__mux2_1
*I *3748:S I *D sky130_fd_sc_hd__mux2_1
*I *3402:A I *D sky130_fd_sc_hd__and2_2
*I *3756:S I *D sky130_fd_sc_hd__mux2_1
*I *4164:A I *D sky130_fd_sc_hd__clkdlybuf4s25_1
*I *3525:A1 I *D sky130_fd_sc_hd__mux2_1
*I *4165:X O *D sky130_fd_sc_hd__clkdlybuf4s25_1
*CAP
1 *3749:S 6.08391e-05
2 *3746:S 0
3 *3750:S 0
4 *3747:S 4.3277e-05
5 *3745:S 0
6 *3748:S 0.000144932
7 *3402:A 0
8 *3756:S 0
9 *4164:A 0
10 *3525:A1 0.000162381
11 *4165:X 0.000383397
12 *907:136 0.00047376
13 *907:121 0.000385908
14 *907:104 0.000515147
15 *907:102 0.00103537
16 *907:65 0.000660332
17 *907:46 0.00200389
18 *907:40 0.00133984
19 *907:36 0.00122805
20 *907:32 0.00178242
21 *907:26 0.00191876
22 *907:18 0.00133233
23 *907:16 0.000906127
24 *907:12 0.000219786
25 *907:10 0.000383397
26 *3525:A1 *1067:42 0
27 *3749:S *3663:B 9.29826e-05
28 *907:10 *4165:A 5.50106e-05
29 *907:10 *934:28 0.000194318
30 *907:16 *3663:B 0.000274078
31 *907:36 *939:12 0
32 *907:46 *961:10 0.000689796
33 *907:46 *961:72 7.30979e-06
34 *907:65 *3468:A2 0.000562276
35 *907:65 *960:27 0.000506676
36 *907:65 *1067:42 4.21174e-05
37 *907:136 *940:28 0.000143684
38 *3329:A *907:65 6.03993e-05
39 *3402:B *907:32 0
40 *3402:B *907:36 1.01436e-05
41 *3686:A1 *907:65 5.3304e-05
42 *3752:A0 *907:136 0.000231027
43 *3756:A0 *907:40 9.58714e-05
44 *3756:A0 *907:46 4.38084e-05
45 *3905:RESET_B *907:36 0.000161725
46 *3909:CLK *907:32 2.76611e-06
47 *3979:CLK *907:36 0.000222193
48 *3979:RESET_B *907:36 0.000211671
49 *3982:CLK *907:32 0
50 *3982:SET_B *907:32 0
51 *3984:D *907:36 0
52 *4050:RESET_B *907:136 0.000114092
53 *4052:CLK *907:26 0.000267167
54 *4282:A *907:102 9.91798e-05
55 *4390:A *907:121 0.000137361
56 *11:10 *907:32 0
57 *11:14 *907:32 0.000226235
58 *72:10 *907:36 0
59 *112:8 *3525:A1 4.08537e-05
60 *112:8 *907:65 6.56523e-05
61 *116:10 *3749:S 0.000119429
62 *116:10 *907:10 6.07929e-05
63 *116:10 *907:16 5.41288e-05
64 *116:10 *907:102 0
65 *305:6 *907:65 5.61579e-05
66 *314:10 *907:26 9.14812e-05
67 *342:10 *907:121 0
68 *348:10 *907:40 7.53384e-06
69 *353:10 *907:32 0.000241365
70 *353:10 *907:36 0
71 *359:125 *907:26 2.29192e-05
72 *550:8 *907:10 0
73 *550:8 *907:18 0.000853289
74 *550:8 *907:26 1.14452e-05
75 *550:8 *907:102 3.70187e-05
76 *551:8 *907:136 0.000222113
77 *551:14 *3747:S 5.50049e-05
78 *551:14 *907:102 4.17736e-05
79 *551:14 *907:104 0.00030342
80 *617:36 *907:36 0
81 *621:10 *907:36 9.52677e-05
82 *622:78 *3748:S 0
83 *622:80 *3748:S 0
84 *622:82 *907:32 0
85 *623:101 *907:121 7.72976e-05
86 *636:57 *907:36 0.00010981
87 *636:64 *907:36 4.58924e-05
88 *636:74 *907:36 0.000144475
89 *640:14 *907:26 0.000313249
90 *640:35 *907:121 4.38014e-05
91 *641:10 *907:18 0.000127272
92 *641:10 *907:26 0.000165583
93 *641:37 *907:18 0.000132117
94 *641:37 *907:102 7.90568e-05
95 *643:58 *907:32 0
96 *643:67 *3748:S 0
97 *643:67 *907:32 0
98 *646:61 *907:136 0
99 *696:14 *907:65 6.33258e-05
100 *703:8 *907:26 1.47563e-05
101 *749:12 *3525:A1 1.69668e-05
102 *749:12 *907:46 0.00027922
103 *771:25 *907:121 0.000487154
104 *772:8 *907:121 0
105 *779:10 *907:136 1.14452e-05
106 *785:25 *907:10 0.000265218
107 *889:81 *907:18 0.000564245
108 *889:105 *3747:S 1.94693e-05
109 *889:105 *907:104 7.24484e-05
110 *889:105 *907:136 3.31683e-05
111 *889:140 *907:136 0.00010178
112 *905:16 *907:65 8.68081e-05
113 *905:140 *3525:A1 0.00014196
*RES
1 *4165:X *907:10 47.0314 
2 *907:10 *907:12 15 
3 *907:12 *907:16 18.9564 
4 *907:16 *907:18 11.4136 
5 *907:18 *907:26 45.7429 
6 *907:26 *907:32 28.6093 
7 *907:32 *907:36 40.4993 
8 *907:36 *907:40 18.0036 
9 *907:40 *907:46 32.1929 
10 *907:46 *3525:A1 41.48 
11 *907:46 *907:65 31.5507 
12 *907:65 *4164:A 23 
13 *907:40 *3756:S 23 
14 *907:32 *3402:A 23 
15 *907:26 *3748:S 40.2579 
16 *907:18 *3745:S 38 
17 *907:16 *907:102 23.5964 
18 *907:102 *907:104 3.48 
19 *907:104 *3747:S 24.1186 
20 *907:104 *907:121 39.4664 
21 *907:121 *3750:S 23 
22 *907:102 *907:136 42.5321 
23 *907:136 *3746:S 23 
24 *907:12 *3749:S 25.7136 
*END

*D_NET *908 0.0251167
*CONN
*I *3638:S I *D sky130_fd_sc_hd__mux2_1
*I *3633:S I *D sky130_fd_sc_hd__mux2_1
*I *3632:S I *D sky130_fd_sc_hd__mux2_1
*I *3631:S I *D sky130_fd_sc_hd__mux2_1
*I *3628:S I *D sky130_fd_sc_hd__mux2_1
*I *3627:S I *D sky130_fd_sc_hd__mux2_1
*I *3630:S I *D sky130_fd_sc_hd__mux2_1
*I *3646:S I *D sky130_fd_sc_hd__mux2_1
*I *3644:S I *D sky130_fd_sc_hd__mux2_1
*I *3629:S I *D sky130_fd_sc_hd__mux2_1
*I *4166:X O *D sky130_fd_sc_hd__clkdlybuf4s25_1
*CAP
1 *3638:S 0
2 *3633:S 0
3 *3632:S 0
4 *3631:S 9.23437e-05
5 *3628:S 0
6 *3627:S 0
7 *3630:S 0
8 *3646:S 0.000493877
9 *3644:S 0
10 *3629:S 0.000116779
11 *4166:X 0.000329739
12 *908:122 0.000369022
13 *908:93 0.00280909
14 *908:77 0.00367149
15 *908:73 0.000773023
16 *908:63 0.00091871
17 *908:59 0.00132917
18 *908:49 0.00179664
19 *908:32 0.0015902
20 *908:18 0.00122772
21 *908:16 0.000747552
22 *908:10 0.000802667
23 *3646:S *909:37 0.000428556
24 *908:10 *3638:A0 0.000175335
25 *908:16 *3638:A0 2.08324e-05
26 *908:16 *988:57 0.000148524
27 *908:49 *912:35 0.000244608
28 *908:59 *3691:A0 4.67488e-05
29 *908:59 *983:14 4.82586e-05
30 *908:73 *3479:B 8.85685e-05
31 *908:77 *909:37 0.000106105
32 *908:93 *929:10 0
33 *908:122 *3857:RESET_B 0.000138708
34 *908:122 *913:44 0.000218412
35 *908:122 *983:14 0
36 o_transmit_data_request *908:32 0.000246107
37 *3628:A1 *908:59 4.84129e-06
38 *3628:A1 *908:63 9.03964e-06
39 *3629:A1 *3629:S 0.000172255
40 *3629:A1 *908:49 1.23172e-05
41 *3630:A0 *908:73 0.000138859
42 *3631:A1 *3631:S 0.000124419
43 *3632:A1 *908:32 5.50106e-05
44 *3633:A0 *908:16 0.000187129
45 *3633:A0 *908:18 9.75779e-05
46 *3638:A1 *908:16 0.000169683
47 *3862:RESET_B *908:10 0
48 *3862:RESET_B *908:16 0
49 *35:21 *908:93 0
50 *37:9 *3629:S 1.34354e-05
51 *40:9 *908:18 0.000185428
52 *40:9 *908:32 1.72202e-05
53 *43:13 *908:73 0.000220956
54 *43:13 *908:77 0.000459888
55 *44:19 *908:122 3.22879e-05
56 *48:15 *3629:S 3.22879e-05
57 *106:18 *908:10 3.07161e-05
58 *266:10 *908:73 0.0002263
59 *271:10 *908:18 3.34247e-05
60 *427:55 *908:49 0
61 *442:14 *908:122 1.02387e-05
62 *443:8 *908:73 0.000141347
63 *444:10 *908:63 9.67842e-05
64 *444:10 *908:73 0.000136738
65 *444:10 *908:122 9.43144e-05
66 *449:20 *908:32 0
67 *449:20 *908:59 7.47018e-05
68 *564:14 *3631:S 9.89274e-05
69 *604:30 *908:93 3.85657e-05
70 *608:33 *3646:S 0
71 *618:105 *908:10 8.62783e-05
72 *618:109 *908:16 0
73 *620:58 *3631:S 1.52259e-05
74 *632:12 *3631:S 1.83667e-05
75 *646:18 *908:10 0.000223698
76 *740:10 *908:16 7.53384e-06
77 *784:10 *908:16 0.000197479
78 *813:12 *908:73 0.000215097
79 *813:12 *908:122 0
80 *842:10 *908:49 0.000372838
81 *848:18 *908:59 0.000285585
82 *849:6 *908:122 5.50049e-05
83 *850:26 *3629:S 5.23329e-05
84 *850:26 *908:49 0.000107808
85 *852:20 *908:73 1.22775e-06
86 *853:22 *908:93 0
87 *854:14 *3629:S 5.50106e-05
88 *862:8 *3646:S 0
89 *862:20 *908:93 7.34511e-05
90 *875:43 *908:49 0.000508729
91 *875:43 *908:59 0.000936123
92 *884:12 *3646:S 1.14452e-05
*RES
1 *4166:X *908:10 45.25 
2 *908:10 *908:16 26.5586 
3 *908:16 *908:18 5.86214 
4 *908:18 *908:32 35.4622 
5 *908:32 *3629:S 41.0554 
6 *908:32 *908:49 15.4841 
7 *908:49 *908:59 28.6135 
8 *908:59 *908:63 2.54786 
9 *908:63 *908:73 41.1857 
10 *908:73 *908:77 24.1246 
11 *908:77 *908:93 39.2338 
12 *908:93 *3644:S 38 
13 *908:77 *3646:S 49.2375 
14 *908:73 *3630:S 23 
15 *908:63 *908:122 38.5136 
16 *908:122 *3627:S 23 
17 *908:59 *3628:S 23 
18 *908:49 *3631:S 48.7861 
19 *908:18 *3632:S 23 
20 *908:16 *3633:S 23 
21 *908:10 *3638:S 38 
*END

*D_NET *909 0.0235223
*CONN
*I *4166:A I *D sky130_fd_sc_hd__clkdlybuf4s25_1
*I *3647:S I *D sky130_fd_sc_hd__mux2_1
*I *3643:S I *D sky130_fd_sc_hd__mux2_1
*I *3641:S I *D sky130_fd_sc_hd__mux2_1
*I *3645:S I *D sky130_fd_sc_hd__mux2_1
*I *3640:S I *D sky130_fd_sc_hd__mux2_1
*I *3642:S I *D sky130_fd_sc_hd__mux2_1
*I *3639:S I *D sky130_fd_sc_hd__mux2_1
*I *4167:X O *D sky130_fd_sc_hd__clkdlybuf4s25_1
*CAP
1 *4166:A 4.01155e-05
2 *3647:S 0.000120584
3 *3643:S 0
4 *3641:S 0
5 *3645:S 0
6 *3640:S 3.80122e-05
7 *3642:S 4.08693e-05
8 *3639:S 0.000365149
9 *4167:X 7.3374e-05
10 *909:89 0.000217264
11 *909:82 0.000772972
12 *909:72 0.00127015
13 *909:63 0.00116447
14 *909:48 0.000947882
15 *909:37 0.00151572
16 *909:33 0.00221517
17 *909:25 0.00324452
18 *909:23 0.00260964
19 *909:8 0.000649757
20 *3639:S *981:23 0.000454246
21 *909:8 *981:23 0.000113414
22 *909:25 *987:23 3.17634e-05
23 *909:33 *982:33 0.000456829
24 *909:33 *983:46 1.98991e-05
25 *909:37 *3872:RESET_B 0
26 *909:37 *4309:A 0
27 *909:37 *916:77 0
28 *909:37 *916:79 0
29 *909:37 *916:81 0
30 *909:48 *916:77 0
31 *909:63 *3711:B 0
32 *909:63 *3913:RESET_B 7.28526e-05
33 *909:63 *916:77 0
34 *909:63 *977:14 0.000123282
35 *909:63 *977:25 0
36 *909:72 *932:8 0
37 *909:82 *3707:A 5.58152e-06
38 o_receive_data[0] *909:82 0
39 *3484:A2 *909:33 0.000138007
40 *3639:A1 *3639:S 4.9662e-05
41 *3640:A0 *3640:S 5.3304e-05
42 *3642:A1 *3642:S 3.7122e-06
43 *3646:S *909:37 0.000428556
44 *3862:RESET_B *3639:S 0
45 *3862:RESET_B *909:8 0
46 *3873:RESET_B *909:72 9.53554e-05
47 *4113:A *909:25 0.00116712
48 *4376:A *909:23 6.17437e-06
49 *3:11 *909:63 0
50 *35:21 *909:37 5.28413e-05
51 *43:13 *909:37 0.000385512
52 *312:10 *909:33 1.0092e-05
53 *435:32 *909:33 4.55909e-05
54 *567:8 *909:25 0.000235687
55 *618:109 *3639:S 0
56 *619:63 *909:63 0
57 *620:6 *909:25 0.000117769
58 *620:21 *909:25 0.000279495
59 *620:54 *909:25 0.000304109
60 *623:60 *3647:S 0.000122647
61 *623:60 *909:72 8.22421e-06
62 *623:60 *909:89 9.04758e-05
63 *630:8 *909:48 5.94125e-05
64 *630:8 *909:63 0.000141888
65 *632:6 *909:25 2.64616e-05
66 *632:10 *909:25 0.000676866
67 *632:65 *909:25 4.67488e-05
68 *634:8 *909:23 0.000272383
69 *640:105 *909:72 7.28526e-05
70 *646:18 *909:23 0.000193703
71 *646:18 *909:25 0.000190082
72 *803:8 *909:63 4.83778e-05
73 *803:8 *909:72 1.19692e-05
74 *813:12 *909:37 2.14486e-05
75 *841:38 *909:33 0.00044633
76 *851:8 *3647:S 7.58917e-05
77 *870:16 *909:72 0
78 *873:12 *909:63 0.000500548
79 *884:12 *909:37 0.000353598
80 *884:12 *909:48 7.8085e-05
81 *884:12 *909:63 4.16661e-05
82 *895:14 *3647:S 0
83 *895:14 *909:72 0
84 *895:14 *909:89 0
85 *908:77 *909:37 0.000106105
*RES
1 *4167:X *909:8 39.5536 
2 *909:8 *3639:S 45.7057 
3 *909:8 *909:23 20.8621 
4 *909:23 *909:25 47.7879 
5 *909:25 *909:33 43.9407 
6 *909:33 *909:37 47.8943 
7 *909:37 *3642:S 38.6214 
8 *909:37 *909:48 3.31429 
9 *909:48 *3640:S 38.6214 
10 *909:48 *909:63 20.2793 
11 *909:63 *3645:S 38 
12 *909:63 *909:72 9.12464 
13 *909:72 *909:82 33.0085 
14 *909:82 *3641:S 23 
15 *909:72 *909:89 2.43393 
16 *909:89 *3643:S 38 
17 *909:89 *3647:S 41.3143 
18 *909:23 *4166:A 23.8493 
*END

*D_NET *910 0.027734
*CONN
*I *3659:S I *D sky130_fd_sc_hd__mux2_1
*I *3660:S I *D sky130_fd_sc_hd__mux2_1
*I *4167:A I *D sky130_fd_sc_hd__clkdlybuf4s25_1
*I *3636:S I *D sky130_fd_sc_hd__mux2_1
*I *3637:S I *D sky130_fd_sc_hd__mux2_1
*I *4168:X O *D sky130_fd_sc_hd__clkdlybuf4s25_1
*CAP
1 *3659:S 0
2 *3660:S 1.9139e-05
3 *4167:A 0.00206456
4 *3636:S 0
5 *3637:S 6.89269e-05
6 *4168:X 0.000385396
7 *910:72 0.00250285
8 *910:60 0.000867702
9 *910:50 0.000827483
10 *910:37 0.000328775
11 *910:22 0.00107156
12 *910:20 0.00241092
13 *910:16 0.00357262
14 *910:10 0.00263817
15 *3660:S *1018:23 5.3304e-05
16 *4167:A *4070:A 0.000186032
17 *4167:A *1017:10 8.45065e-06
18 *910:10 *1013:10 8.5477e-05
19 *910:10 *1013:29 9.25213e-05
20 *910:10 *1026:12 0
21 *910:20 *1072:8 0.000566748
22 *910:20 *1119:10 0
23 *910:50 *4218:A 0.000139352
24 *910:50 *1013:29 1.96584e-05
25 *910:60 *1018:23 0.000178517
26 *910:60 *1018:36 3.70187e-05
27 *910:60 *1025:40 5.79489e-05
28 *910:72 *1018:36 0.000197479
29 *910:72 *1025:40 2.05503e-05
30 *3634:C_N *910:20 0
31 *3652:A1 *4167:A 0.000124874
32 *3652:B1 *4167:A 5.82833e-05
33 *3660:A1 *910:60 2.02872e-05
34 *3813:A1 *910:20 0.000287175
35 *3813:A1 *910:22 0.000213937
36 *3817:A1 *910:20 0.000335861
37 *3966:CLK *4167:A 1.84917e-05
38 *4353:A *910:20 0
39 *21:17 *910:10 9.65502e-05
40 *21:17 *910:50 2.12234e-05
41 *57:8 *910:10 0.000364295
42 *286:10 *4167:A 6.89359e-06
43 *289:10 *910:72 8.70422e-05
44 *290:10 *910:60 4.51222e-05
45 *291:10 *910:60 1.32939e-05
46 *543:31 *910:72 2.17615e-05
47 *615:20 *4167:A 5.64575e-05
48 *656:69 *910:20 0
49 *660:23 *910:22 0
50 *662:16 *910:22 0.00011218
51 *662:16 *910:37 3.61397e-05
52 *668:8 *910:20 0.000193649
53 *706:26 *910:16 0.00109821
54 *714:6 *910:60 0.000410879
55 *728:14 *910:10 3.35712e-05
56 *728:14 *910:50 0.000155277
57 *728:14 *910:60 9.58714e-05
58 *759:8 *910:72 0
59 *768:10 *910:72 8.19053e-05
60 *817:12 *3637:S 1.94812e-05
61 *817:12 *910:37 0.000781489
62 *828:10 *910:20 0
63 *828:26 *910:16 0
64 *857:8 *3660:S 5.50049e-05
65 *857:8 *910:60 2.98648e-05
66 *858:8 *910:10 0
67 *860:16 *910:10 6.99589e-05
68 *861:8 *910:72 0
69 *861:18 *910:16 0
70 *881:10 *910:20 0.00026058
71 *881:65 *910:20 0.000115289
72 *881:90 *910:20 0.000679704
73 *882:19 *910:22 8.51329e-05
74 *882:28 *910:22 0.000214825
75 *882:41 *910:22 0.000233432
76 *888:35 *910:22 0.000380955
77 *888:71 *910:22 0.00102513
78 *888:71 *910:37 0.000864884
79 *896:110 *910:20 0.000410379
80 *902:19 *910:20 0
81 *902:30 *910:20 0
82 *902:30 *910:22 0.000117534
83 *902:96 *910:22 0
*RES
1 *4168:X *910:10 47.2904 
2 *910:10 *910:16 20.7787 
3 *910:16 *910:20 45.0121 
4 *910:20 *910:22 24.3911 
5 *910:22 *3637:S 39.0979 
6 *910:22 *910:37 27.5114 
7 *910:37 *3636:S 23 
8 *910:10 *910:50 22.5089 
9 *910:50 *910:60 25.0879 
10 *910:60 *910:72 24.1971 
11 *910:72 *4167:A 49.7214 
12 *910:60 *3660:S 38.6214 
13 *910:50 *3659:S 23 
*END

*D_NET *911 0.0217245
*CONN
*I *3392:A1 I *D sky130_fd_sc_hd__o21a_2
*I *3391:A1 I *D sky130_fd_sc_hd__a21o_2
*I *3424:A1 I *D sky130_fd_sc_hd__a32o_2
*I *3325:A I *D sky130_fd_sc_hd__inv_2
*I *3429:A1 I *D sky130_fd_sc_hd__a22o_2
*I *3361:B I *D sky130_fd_sc_hd__nor2_2
*I *3430:A1 I *D sky130_fd_sc_hd__a22o_2
*I *3398:B I *D sky130_fd_sc_hd__nor2_2
*I *3434:A I *D sky130_fd_sc_hd__or2_2
*I *3661:A1 I *D sky130_fd_sc_hd__a21bo_2
*I *4169:X O *D sky130_fd_sc_hd__clkdlybuf4s25_1
*CAP
1 *3392:A1 0
2 *3391:A1 0
3 *3424:A1 3.88336e-05
4 *3325:A 0
5 *3429:A1 0
6 *3361:B 0
7 *3430:A1 0
8 *3398:B 0
9 *3434:A 0
10 *3661:A1 0
11 *4169:X 3.84657e-05
12 *911:147 0.000134753
13 *911:141 0.000173219
14 *911:110 0.000259299
15 *911:89 0.00128997
16 *911:72 0.00055329
17 *911:66 0.00187052
18 *911:62 0.00084818
19 *911:48 0.0010403
20 *911:42 0.00140192
21 *911:30 0.00142123
22 *911:24 0.000771318
23 *911:20 0.000870032
24 *911:10 0.00161631
25 *911:6 0.000980773
26 *3424:A1 *3424:B1 2.4754e-05
27 *911:10 *4169:A 0
28 *911:10 *1029:8 0
29 *911:10 *1096:8 0.000159465
30 *911:10 *1096:16 0.000145583
31 *911:20 *3424:B1 1.29152e-05
32 *911:20 *1096:16 0
33 *911:30 *3431:B 0.000113614
34 *911:30 *3433:A1 0
35 *911:30 *1088:10 0
36 *911:30 *1092:10 6.42902e-05
37 *911:42 *3429:B2 2.4754e-05
38 *911:42 *4278:A 9.74722e-05
39 *911:42 *996:12 0.00014196
40 *911:42 *1093:18 3.97702e-05
41 *911:72 *936:21 1.94693e-05
42 *911:72 *937:8 0.000111148
43 *911:72 *1067:8 0.000237604
44 *911:89 *3527:A1 0
45 *911:89 *3527:A2 0
46 *911:89 *1034:25 0.000299187
47 *911:89 *1051:30 0.00010018
48 *911:89 *1065:39 0.0001264
49 *911:110 *958:28 0
50 *911:110 *993:14 0
51 *911:110 *1067:28 0.000111148
52 *911:147 *4190:A 0
53 *3392:A2 *911:141 0.00010018
54 *3398:A *911:72 1.14452e-05
55 *3398:A *911:89 0.000491467
56 *3429:A2 *911:30 1.55941e-05
57 *3430:B2 *911:48 9.84794e-05
58 *3430:B2 *911:110 0
59 *3517:A *911:20 5.23315e-05
60 *3662:A1 *911:66 2.93845e-05
61 *3782:A1 *911:62 5.90675e-06
62 *3793:B1 *911:24 0
63 *3998:RESET_B *911:110 0
64 *4236:A *911:62 8.56157e-05
65 *99:10 *911:30 2.45549e-06
66 *103:8 *911:20 3.92407e-05
67 *104:10 *911:10 0.000110913
68 *174:8 *911:10 0.000169142
69 *175:8 *911:89 0
70 *193:10 *911:62 5.3304e-05
71 *194:8 *911:30 9.21347e-06
72 *235:8 *911:72 0.000329214
73 *259:10 *911:89 6.03737e-05
74 *324:10 *911:10 0
75 *354:10 *911:72 7.75329e-06
76 *354:10 *911:89 3.96156e-05
77 *359:8 *911:72 0
78 *359:16 *911:72 0
79 *360:10 *911:24 6.25245e-05
80 *369:10 *911:42 0.000226306
81 *424:10 *911:89 0.000478464
82 *478:10 *911:89 1.40958e-05
83 *628:10 *911:10 0.000194327
84 *628:97 *911:10 0
85 *628:105 *911:10 0
86 *643:6 *911:48 3.5842e-05
87 *643:26 *911:62 0.000183183
88 *643:119 *911:89 2.46922e-05
89 *644:10 *911:89 0
90 *644:55 *911:89 0
91 *645:10 *911:62 0
92 *645:42 *911:62 0
93 *645:78 *911:89 0
94 *645:101 *911:89 0.000154072
95 *646:53 *911:72 0.000103637
96 *658:68 *911:24 0
97 *658:68 *911:30 0
98 *658:105 *911:24 0
99 *658:122 *911:10 0
100 *659:16 *911:10 0
101 *659:47 *911:10 0
102 *683:12 *911:10 0
103 *686:10 *911:62 0
104 *686:10 *911:110 0
105 *686:18 *911:62 1.14452e-05
106 *692:14 *911:20 0.000403127
107 *723:10 *911:89 2.34898e-05
108 *724:8 *911:89 0.000140404
109 *730:10 *911:30 8.26569e-05
110 *732:10 *911:10 0
111 *732:10 *911:147 0.00012838
112 *767:10 *911:42 5.31757e-05
113 *781:10 *911:42 0.000270682
114 *781:10 *911:48 0.000318851
115 *878:92 *911:89 0
116 *880:57 *911:62 0.000411299
117 *880:61 *911:62 1.79651e-05
118 *880:78 *911:62 2.92911e-06
119 *880:78 *911:89 0.000367929
120 *883:85 *911:24 0
121 *883:85 *911:30 0
122 *889:10 *911:10 0.000508618
123 *889:10 *911:20 1.7992e-05
124 *889:26 *911:20 0.000227897
125 *889:34 *911:89 0.000354778
126 *894:32 *911:72 0
127 *894:68 *911:62 1.01436e-05
128 *898:46 *911:30 0
129 *898:67 *911:30 4.5882e-05
130 *899:97 *911:10 0
*RES
1 *4169:X *911:6 38 
2 *911:6 *911:10 38.7386 
3 *911:10 *911:20 41.6414 
4 *911:20 *911:24 19.7229 
5 *911:24 *911:30 25.875 
6 *911:30 *911:42 17.6486 
7 *911:42 *911:48 5.075 
8 *911:48 *911:62 45.8257 
9 *911:62 *911:66 15.6214 
10 *911:66 *911:72 28.4643 
11 *911:72 *3661:A1 23 
12 *911:66 *911:89 47.7079 
13 *911:89 *3434:A 23 
14 *911:62 *3398:B 23 
15 *911:48 *3430:A1 23 
16 *911:42 *911:110 35.075 
17 *911:110 *3361:B 23 
18 *911:30 *3429:A1 23 
19 *911:24 *3325:A 38 
20 *911:10 *3424:A1 23.6214 
21 *4169:X *911:141 24.0979 
22 *911:141 *911:147 33.3143 
23 *911:147 *3391:A1 23 
24 *911:141 *3392:A1 23 
*END

*D_NET *912 0.00400396
*CONN
*I *4381:A I *D sky130_fd_sc_hd__clkbuf_4
*I *3858:RESET_B I *D sky130_fd_sc_hd__dfrtp_2
*I *4170:X O *D sky130_fd_sc_hd__clkdlybuf4s25_1
*CAP
1 *4381:A 0
2 *3858:RESET_B 0.000630681
3 *4170:X 0.000358915
4 *912:35 0.000560216
5 *912:10 0.00042938
6 *912:10 *3476:B 0.00014411
7 *912:10 *3695:A0 2.55642e-05
8 *912:35 *3482:B 5.60728e-05
9 *912:35 *3695:A0 0
10 o_transmit_data_request *912:10 6.97776e-05
11 *3861:CLK *3858:RESET_B 1.72e-05
12 *37:9 *3858:RESET_B 5.3304e-05
13 *37:9 *912:10 0.000321414
14 *48:15 *912:10 1.32939e-05
15 *427:55 *912:35 0.000120042
16 *447:14 *912:35 9.58714e-05
17 *564:8 *912:35 2.44364e-05
18 *566:10 *912:35 0.000359326
19 *850:26 *912:35 0.000209972
20 *854:14 *912:10 0.000269775
21 *854:26 *912:10 0
22 *908:49 *912:35 0.000244608
*RES
1 *4170:X *912:10 45.8507 
2 *912:10 *3858:RESET_B 16.0254 
3 *3858:RESET_B *912:35 42.5736 
4 *912:35 *4381:A 23 
*END

*D_NET *913 0.0116501
*CONN
*I *4062:RESET_B I *D sky130_fd_sc_hd__dfrtp_2
*I *4057:RESET_B I *D sky130_fd_sc_hd__dfrtp_2
*I *3903:RESET_B I *D sky130_fd_sc_hd__dfrtp_2
*I *3901:RESET_B I *D sky130_fd_sc_hd__dfrtp_2
*I *3902:RESET_B I *D sky130_fd_sc_hd__dfrtp_2
*I *3859:RESET_B I *D sky130_fd_sc_hd__dfrtp_2
*I *3857:RESET_B I *D sky130_fd_sc_hd__dfrtp_2
*I *3856:RESET_B I *D sky130_fd_sc_hd__dfrtp_2
*I *3860:RESET_B I *D sky130_fd_sc_hd__dfrtp_2
*I *4381:X O *D sky130_fd_sc_hd__clkbuf_4
*CAP
1 *4062:RESET_B 0.000137193
2 *4057:RESET_B 0.000877305
3 *3903:RESET_B 6.78383e-05
4 *3901:RESET_B 1.72417e-05
5 *3902:RESET_B 0.000990606
6 *3859:RESET_B 9.7309e-05
7 *3857:RESET_B 0.000110718
8 *3856:RESET_B 2.72454e-05
9 *3860:RESET_B 0.000699733
10 *4381:X 0.000277908
11 *913:114 0.000641339
12 *913:88 0.000567392
13 *913:78 0.000387665
14 *913:44 0.00104247
15 *913:35 0.000309304
16 *913:27 0.000726978
17 *913:10 0.000277908
18 *3859:RESET_B *985:6 5.3304e-05
19 *3902:RESET_B *4318:A 0.000242595
20 *3902:RESET_B *982:48 6.52749e-05
21 *3902:RESET_B *982:58 7.64944e-05
22 *3902:RESET_B *983:24 3.78727e-05
23 *4057:RESET_B *956:12 0
24 *4057:RESET_B *956:27 0
25 *4057:RESET_B *969:14 0
26 *4062:RESET_B *964:12 7.51453e-06
27 *913:27 *986:10 0.000137572
28 *913:44 *3479:B 0.000136486
29 *913:44 *4318:A 2.46345e-05
30 *913:78 *956:12 0
31 *913:114 *4288:A 0
32 *3484:A2 *913:27 9.96707e-05
33 *3484:C1 *913:27 2.4732e-05
34 *3700:B1 *3901:RESET_B 4.89921e-05
35 *3702:B1 *913:78 3.34818e-06
36 *3758:A0 *4057:RESET_B 1.12487e-05
37 *3902:CLK *3902:RESET_B 0.000106277
38 *3902:D *3902:RESET_B 3.63221e-05
39 *4057:CLK *4062:RESET_B 1.46784e-05
40 *4062:D *4062:RESET_B 5.03619e-05
41 *347:8 *4057:RESET_B 0.000199701
42 *427:67 *913:10 0
43 *435:22 *3901:RESET_B 2.57362e-05
44 *437:16 *3856:RESET_B 2.56078e-05
45 *437:16 *3902:RESET_B 0.000385615
46 *437:16 *913:27 5.4877e-05
47 *437:16 *913:44 0.000360362
48 *442:14 *913:27 0.000188927
49 *442:14 *913:44 0
50 *444:10 *913:44 4.24694e-06
51 *449:12 *913:27 1.32939e-05
52 *563:22 *913:78 3.70325e-05
53 *563:39 *913:78 5.6339e-05
54 *563:39 *913:88 6.5117e-06
55 *564:8 *913:10 0.000223698
56 *565:14 *913:10 0.000193117
57 *604:24 *913:114 0.000273494
58 *604:30 *913:114 2.31591e-05
59 *608:6 *913:114 3.18322e-05
60 *608:10 *4062:RESET_B 3.11916e-05
61 *608:27 *4062:RESET_B 0.000136295
62 *608:122 *913:114 4.16015e-05
63 *620:21 *3859:RESET_B 9.31794e-05
64 *727:8 *4057:RESET_B 5.61311e-05
65 *792:10 *4057:RESET_B 2.35393e-05
66 *792:10 *913:114 5.12512e-05
67 *794:10 *4057:RESET_B 0.000105975
68 *813:12 *3857:RESET_B 0
69 *813:12 *913:44 0
70 *905:71 *4057:RESET_B 0.000216721
71 *908:122 *3857:RESET_B 0.000138708
72 *908:122 *913:44 0.000218412
*RES
1 *4381:X *913:10 43.1371 
2 *913:10 *3860:RESET_B 15 
3 *3860:RESET_B *913:27 11.6932 
4 *913:27 *3856:RESET_B 0.548929 
5 *913:27 *913:35 15 
6 *913:35 *3857:RESET_B 16.9057 
7 *913:35 *913:44 5.77929 
8 *913:44 *3859:RESET_B 16.9782 
9 *913:44 *3902:RESET_B 29.2411 
10 *3902:RESET_B *913:78 19.3604 
11 *913:78 *3901:RESET_B 15.5489 
12 *913:78 *913:88 1.90571 
13 *913:88 *3903:RESET_B 16.0254 
14 *913:88 *4057:RESET_B 24.6529 
15 *4057:RESET_B *913:114 37.4157 
16 *913:114 *4062:RESET_B 33.0554 
*END

*D_NET *914 0.00591584
*CONN
*I *4064:RESET_B I *D sky130_fd_sc_hd__dfrtp_2
*I *4059:RESET_B I *D sky130_fd_sc_hd__dfrtp_2
*I *4058:RESET_B I *D sky130_fd_sc_hd__dfrtp_2
*I *3899:RESET_B I *D sky130_fd_sc_hd__dfrtp_2
*I *3900:RESET_B I *D sky130_fd_sc_hd__dfrtp_2
*I *3898:RESET_B I *D sky130_fd_sc_hd__dfrtp_2
*I *4171:X O *D sky130_fd_sc_hd__clkdlybuf4s25_1
*CAP
1 *4064:RESET_B 0.000201769
2 *4059:RESET_B 0.000115934
3 *4058:RESET_B 0.0011134
4 *3899:RESET_B 0
5 *3900:RESET_B 0
6 *3898:RESET_B 9.7133e-05
7 *4171:X 0.000124595
8 *914:57 0.000818842
9 *914:29 0.000814564
10 *914:20 0.000299436
11 *914:8 0.000124595
12 *4058:RESET_B *3621:B1 0
13 *4058:RESET_B *4223:A 0
14 *4058:RESET_B *953:23 0.000283186
15 *4058:RESET_B *961:26 0.00039049
16 *4058:RESET_B *961:40 0.000218952
17 *4058:RESET_B *962:16 0
18 *4064:RESET_B *967:10 2.29192e-05
19 *4064:RESET_B *967:16 3.66529e-05
20 *914:20 *4243:A 0.000164545
21 *914:29 *4243:A 3.62854e-05
22 *914:29 *953:23 9.15503e-05
23 *4058:CLK *4059:RESET_B 0.000263159
24 *4058:CLK *914:57 0.000189118
25 *4058:D *914:57 5.50049e-05
26 *352:10 *4064:RESET_B 0
27 *536:8 *4058:RESET_B 0.000430643
28 *604:48 *4064:RESET_B 6.10551e-06
29 *634:116 *4058:RESET_B 0
30 *777:10 *4064:RESET_B 0
31 *905:42 *4058:RESET_B 1.69668e-05
*RES
1 *4171:X *914:8 40.2579 
2 *914:8 *3898:RESET_B 15 
3 *3898:RESET_B *914:20 17.2579 
4 *914:20 *3900:RESET_B 15 
5 *914:20 *914:29 4.28786 
6 *914:29 *3899:RESET_B 15 
7 *914:29 *4058:RESET_B 31.6957 
8 *4058:RESET_B *914:57 9.47679 
9 *914:57 *4059:RESET_B 2.93107 
10 *914:57 *4064:RESET_B 33.6664 
*END

*D_NET *915 0.00121493
*CONN
*I *4382:A I *D sky130_fd_sc_hd__clkbuf_4
*I *3906:RESET_B I *D sky130_fd_sc_hd__dfrtp_2
*I *4172:X O *D sky130_fd_sc_hd__clkdlybuf4s25_1
*CAP
1 *4382:A 0.000108935
2 *3906:RESET_B 0.000179197
3 *4172:X 0.000100993
4 *915:10 0.000288132
5 *915:8 0.000100993
6 *3906:RESET_B *3907:RESET_B 0.000182832
7 *3906:RESET_B *971:8 3.7122e-06
8 *4382:A *3907:RESET_B 4.34745e-05
9 *3721:B *3906:RESET_B 4.23817e-05
10 *315:10 *3906:RESET_B 8.16253e-05
11 *315:10 *915:8 8.26569e-05
12 *583:53 *3906:RESET_B 0
13 *621:35 *915:8 0
14 *621:49 *915:8 0
*RES
1 *4172:X *915:8 40.2579 
2 *915:8 *915:10 15 
3 *915:10 *3906:RESET_B 34.3086 
4 *915:10 *4382:A 25.0507 
*END

*D_NET *916 0.00891603
*CONN
*I *3870:RESET_B I *D sky130_fd_sc_hd__dfrtp_2
*I *3868:RESET_B I *D sky130_fd_sc_hd__dfrtp_2
*I *3874:RESET_B I *D sky130_fd_sc_hd__dfrtp_2
*I *3872:RESET_B I *D sky130_fd_sc_hd__dfrtp_2
*I *3913:RESET_B I *D sky130_fd_sc_hd__dfrtp_2
*I *3912:RESET_B I *D sky130_fd_sc_hd__dfrtp_2
*I *3911:RESET_B I *D sky130_fd_sc_hd__dfrtp_2
*I *3910:RESET_B I *D sky130_fd_sc_hd__dfrtp_2
*I *3907:RESET_B I *D sky130_fd_sc_hd__dfrtp_2
*I *4382:X O *D sky130_fd_sc_hd__clkbuf_4
*CAP
1 *3870:RESET_B 0
2 *3868:RESET_B 0
3 *3874:RESET_B 6.20306e-05
4 *3872:RESET_B 0.000141848
5 *3913:RESET_B 4.65756e-05
6 *3912:RESET_B 0.00105057
7 *3911:RESET_B 0.000152751
8 *3910:RESET_B 0.000421705
9 *3907:RESET_B 0.00122885
10 *4382:X 0.000219194
11 *916:81 0.000327285
12 *916:79 0.00020283
13 *916:77 0.000661715
14 *916:32 0.00116241
15 *3872:RESET_B *4309:A 6.53445e-05
16 *3907:RESET_B *971:8 3.34395e-05
17 *3912:RESET_B *974:8 0.000138275
18 *3912:RESET_B *976:8 6.32777e-05
19 *3912:RESET_B *976:21 2.02872e-05
20 *3913:RESET_B *977:14 0.00014411
21 *916:32 *3732:A 0.000180841
22 *916:32 *971:8 0.000162955
23 *916:77 *3706:A 9.60503e-05
24 *916:77 *4311:A 0
25 *916:77 *925:8 0
26 *916:77 *977:14 0.000137163
27 *916:79 *3706:A 4.83778e-05
28 *916:81 *3706:A 6.46393e-05
29 *916:81 *4309:A 2.46933e-05
30 *3727:B *916:32 0.000184527
31 *3739:A *916:77 0
32 *3906:RESET_B *3907:RESET_B 0.000182832
33 *3907:CLK *916:32 0.000588871
34 *3907:D *916:32 5.52339e-05
35 *4382:A *3907:RESET_B 4.34745e-05
36 *319:10 *916:32 8.50457e-05
37 *320:10 *3911:RESET_B 1.69484e-05
38 *321:8 *916:77 0.000508916
39 *322:8 *916:77 5.80038e-05
40 *595:24 *3912:RESET_B 9.77405e-05
41 *597:8 *916:77 0
42 *619:34 *3911:RESET_B 3.36312e-06
43 *619:34 *916:32 3.26703e-05
44 *619:51 *3911:RESET_B 2.71929e-05
45 *630:8 *916:77 5.93381e-05
46 *818:8 *916:77 4.18032e-05
47 *909:37 *3872:RESET_B 0
48 *909:37 *916:77 0
49 *909:37 *916:79 0
50 *909:37 *916:81 0
51 *909:48 *916:77 0
52 *909:63 *3913:RESET_B 7.28526e-05
53 *909:63 *916:77 0
*RES
1 *4382:X *3907:RESET_B 27.3811 
2 *3907:RESET_B *916:32 35.1861 
3 *916:32 *3910:RESET_B 15 
4 *916:32 *3911:RESET_B 18.0243 
5 *3910:RESET_B *3912:RESET_B 7.14643 
6 *3912:RESET_B *3913:RESET_B 31.9057 
7 *3912:RESET_B *916:77 30.2871 
8 *916:77 *916:79 1.90571 
9 *916:79 *916:81 3.31429 
10 *916:81 *3872:RESET_B 17.61 
11 *916:81 *3874:RESET_B 16.0461 
12 *916:79 *3868:RESET_B 15 
13 *916:77 *3870:RESET_B 15 
*END

*D_NET *917 0.00155636
*CONN
*I *4187:A I *D sky130_fd_sc_hd__dlygate4sd3_1
*I *3864:Q O *D sky130_fd_sc_hd__dfrtp_2
*CAP
1 *4187:A 0.000121341
2 *3864:Q 0.000228743
3 *917:8 0.000350084
4 *33:11 *917:8 0.000289742
5 *828:42 *917:8 0.00056645
*RES
1 *3864:Q *917:8 45.54 
2 *917:8 *4187:A 39.5743 
*END

*D_NET *918 0.00231519
*CONN
*I *4191:A I *D sky130_fd_sc_hd__dlygate4sd3_1
*I *3516:A I *D sky130_fd_sc_hd__nor2_2
*I *3865:Q O *D sky130_fd_sc_hd__dfrtp_2
*CAP
1 *4191:A 4.01155e-05
2 *3516:A 0
3 *3865:Q 0.000895042
4 *918:12 0.000120057
5 *918:6 0.00105522
6 *3855:CLK *918:12 1.14452e-05
7 *3865:D *918:6 5.3304e-05
8 *610:94 *918:6 1.59094e-05
9 *610:98 *918:12 0.000124102
10 *685:10 *918:12 0
*RES
1 *3865:Q *918:6 32.6736 
2 *918:6 *918:12 31.9057 
3 *918:12 *3516:A 23 
4 *918:6 *4191:A 23.8493 
*END

*D_NET *919 0.00212528
*CONN
*I *4181:A I *D sky130_fd_sc_hd__dlygate4sd3_1
*I *3649:B I *D sky130_fd_sc_hd__and2b_2
*I *3973:Q O *D sky130_fd_sc_hd__dfrtp_2
*CAP
1 *4181:A 0
2 *3649:B 0.000355939
3 *3973:Q 0.000346104
4 *919:10 0.000702043
5 *3649:B *920:10 0.000169072
6 *919:10 *1076:31 0
7 *3973:RESET_B *919:10 5.41288e-05
8 *131:10 *919:10 0.000114074
9 *503:24 *919:10 5.50049e-05
10 *657:73 *919:10 0
11 *745:8 *3649:B 0.000311096
12 *745:8 *919:10 1.78126e-05
*RES
1 *3973:Q *919:10 45.2293 
2 *919:10 *3649:B 46.9486 
3 *919:10 *4181:A 38 
*END

*D_NET *920 0.00106656
*CONN
*I *3649:A_N I *D sky130_fd_sc_hd__and2b_2
*I *3967:Q O *D sky130_fd_sc_hd__dfrtp_2
*CAP
1 *3649:A_N 2.47522e-05
2 *3967:Q 0.000272532
3 *920:10 0.000297284
4 *3649:B *920:10 0.000169072
5 *543:25 *920:10 4.49358e-06
6 *605:64 *920:10 0.00013729
7 *614:101 *3649:A_N 5.5792e-05
8 *647:44 *920:10 0.000105343
*RES
1 *3967:Q *920:10 43.6964 
2 *920:10 *3649:A_N 38.6214 
*END

*D_NET *921 0.00354827
*CONN
*I *4245:A I *D sky130_fd_sc_hd__dlygate4sd3_1
*I *4065:A I *D sky130_fd_sc_hd__buf_2
*I *3876:Q O *D sky130_fd_sc_hd__dfrtp_2
*CAP
1 *4245:A 0
2 *4065:A 0
3 *3876:Q 7.98196e-05
4 *921:26 0.000944388
5 *921:12 0.00103981
6 *921:8 0.000175238
7 *921:8 *1013:29 0.000159633
8 *921:12 *1015:41 0.000180224
9 *921:26 *994:26 4.79612e-05
10 *921:26 *1015:41 0.000295808
11 *3969:CLK *921:8 0.000159633
12 *4048:CLK *921:26 0.000188324
13 *272:30 *921:26 0.000138718
14 *542:22 *921:26 0.000138718
*RES
1 *3876:Q *921:8 40.2579 
2 *921:8 *921:12 17.0507 
3 *921:12 *921:26 45.5771 
4 *921:26 *4065:A 23 
5 *921:12 *4245:A 23 
*END

*D_NET *922 0.00228179
*CONN
*I *4297:A I *D sky130_fd_sc_hd__dlygate4sd3_1
*I *3960:Q O *D sky130_fd_sc_hd__dfrtp_2
*CAP
1 *4297:A 0
2 *3960:Q 4.88151e-05
3 *922:14 0.00059244
4 *922:8 0.000641255
5 *922:8 *4177:A 2.93845e-05
6 *922:14 *3653:B 0.00018935
7 *922:14 *981:84 0.000138859
8 *922:14 *990:10 2.54749e-05
9 *922:14 *1016:10 4.05836e-05
10 *922:14 *1016:18 3.84905e-05
11 *922:14 *1020:8 0.000294807
12 *922:14 *1023:10 8.7975e-05
13 *3970:RESET_B *922:14 0
14 *691:14 *922:14 0
15 *695:10 *922:14 0.000154355
*RES
1 *3960:Q *922:8 38.6214 
2 *922:8 *922:14 29.7486 
3 *922:14 *4297:A 23 
*END

*D_NET *923 0.000688042
*CONN
*I *4179:A I *D sky130_fd_sc_hd__dlygate4sd3_1
*I *3962:Q O *D sky130_fd_sc_hd__dfrtp_2
*CAP
1 *4179:A 0
2 *3962:Q 0.000189415
3 *923:6 0.000189415
4 *20:11 *923:6 0.000276925
5 *671:10 *923:6 3.22879e-05
*RES
1 *3962:Q *923:6 28.3857 
2 *923:6 *4179:A 23 
*END

*D_NET *924 0.0060369
*CONN
*I *3452:C I *D sky130_fd_sc_hd__and3_2
*I *3447:B I *D sky130_fd_sc_hd__nand2b_2
*I *3689:A2 I *D sky130_fd_sc_hd__a21oi_2
*I *3690:A2 I *D sky130_fd_sc_hd__a21o_2
*I *3638:A0 I *D sky130_fd_sc_hd__mux2_1
*I *3866:Q O *D sky130_fd_sc_hd__dfrtp_2
*CAP
1 *3452:C 7.47801e-05
2 *3447:B 0
3 *3689:A2 1.98087e-05
4 *3690:A2 0
5 *3638:A0 0.00031491
6 *3866:Q 0.000217877
7 *924:65 0.000240424
8 *924:51 0.000525848
9 *924:35 0.000239934
10 *924:27 0.000849782
11 *924:19 0.000835761
12 *924:8 0.000567864
13 *924:35 *3689:A1 5.5792e-05
14 *924:51 *948:26 4.20429e-05
15 *924:65 *3464:A 5.5792e-05
16 *924:65 *981:39 7.15579e-05
17 *924:65 *1007:14 5.3304e-05
18 *3866:CLK *924:27 5.45644e-05
19 *3866:RESET_B *924:8 2.57362e-05
20 *3904:RESET_B *924:65 5.3304e-05
21 *106:10 *924:8 0.000121803
22 *106:10 *924:27 7.06196e-05
23 *106:10 *924:35 4.86751e-05
24 *109:34 *3638:A0 0.000207948
25 *109:34 *924:19 3.96108e-05
26 *109:34 *924:51 0.000166192
27 *275:10 *3638:A0 0
28 *431:10 *3452:C 1.35999e-05
29 *431:10 *924:65 4.51112e-05
30 *434:73 *924:35 4.07503e-05
31 *435:82 *924:65 9.66668e-05
32 *562:14 *924:35 5.58003e-05
33 *618:105 *3638:A0 7.40449e-05
34 *618:105 *924:19 2.50612e-05
35 *618:105 *924:51 4.41587e-05
36 *618:134 *924:51 2.78105e-05
37 *634:42 *3452:C 2.83509e-05
38 *634:42 *924:65 0.00022572
39 *646:37 *924:65 0.000160125
40 *847:20 *924:35 4.96024e-05
41 *908:10 *3638:A0 0.000175335
42 *908:16 *3638:A0 2.08324e-05
*RES
1 *3866:Q *924:8 42.4329 
2 *924:8 *3638:A0 46.5964 
3 *924:8 *924:19 1.20143 
4 *924:19 *924:27 23.41 
5 *924:27 *924:35 34.9093 
6 *924:35 *3690:A2 23 
7 *924:27 *3689:A2 23.4971 
8 *924:19 *924:51 20.075 
9 *924:51 *924:65 36.525 
10 *924:65 *3447:B 23 
11 *924:51 *3452:C 24.595 
*END

*D_NET *925 0.00236935
*CONN
*I *4311:A I *D sky130_fd_sc_hd__dlygate4sd3_1
*I *3710:A I *D sky130_fd_sc_hd__xnor2_2
*I *3868:Q O *D sky130_fd_sc_hd__dfrtp_2
*CAP
1 *4311:A 0.000166089
2 *3710:A 0.000429503
3 *3868:Q 0.00022367
4 *925:8 0.000819262
5 *3710:A *3706:B 9.58714e-05
6 *4311:A *3705:A 8.51432e-05
7 *4311:A *3706:B 6.78359e-05
8 *925:8 *3705:A 0.000207437
9 *925:8 *3706:A 0
10 *597:8 *4311:A 0.000274543
11 *916:77 *4311:A 0
12 *916:77 *925:8 0
*RES
1 *3868:Q *925:8 43.4271 
2 *925:8 *3710:A 44.3593 
3 *925:8 *4311:A 43.075 
*END

*D_NET *926 0.00165939
*CONN
*I *4300:A I *D sky130_fd_sc_hd__dlygate4sd3_1
*I *3712:A I *D sky130_fd_sc_hd__xnor2_2
*I *3869:Q O *D sky130_fd_sc_hd__dfrtp_2
*CAP
1 *4300:A 0.000204938
2 *3712:A 0.000116322
3 *3869:Q 0.000231857
4 *926:8 0.000553117
5 *3712:A *3707:B 0
6 *3869:RESET_B *926:8 3.77997e-05
7 *359:45 *4300:A 2.93747e-05
8 *623:107 *4300:A 0
9 *623:107 *926:8 0.000315852
10 *640:14 *926:8 2.9938e-05
11 *646:61 *3712:A 6.63698e-05
12 *646:61 *4300:A 7.38195e-05
*RES
1 *3869:Q *926:8 43.3857 
2 *926:8 *3712:A 40.61 
3 *926:8 *4300:A 41.9357 
*END

*D_NET *927 0.00274008
*CONN
*I *4303:A I *D sky130_fd_sc_hd__dlygate4sd3_1
*I *3708:A I *D sky130_fd_sc_hd__xnor2_2
*I *3870:Q O *D sky130_fd_sc_hd__dfrtp_2
*CAP
1 *4303:A 7.20677e-05
2 *3708:A 0
3 *3870:Q 0.00123249
4 *927:22 0.000902337
5 *927:8 0.000402217
6 *9:11 *4303:A 6.67264e-05
7 *619:63 *4303:A 6.42505e-05
*RES
1 *3870:Q *927:8 29.8357 
2 *927:8 *3708:A 23 
3 *3870:Q *927:22 48.15 
4 *927:22 *4303:A 39.9057 
*END

*D_NET *928 0.00361269
*CONN
*I *4305:A I *D sky130_fd_sc_hd__dlygate4sd3_1
*I *3707:A I *D sky130_fd_sc_hd__xnor2_2
*I *3871:Q O *D sky130_fd_sc_hd__dfrtp_2
*CAP
1 *4305:A 0.000488343
2 *3707:A 0.00024944
3 *3871:Q 0.000309695
4 *928:8 0.00104748
5 *4305:A *932:34 0
6 *4305:A *942:10 2.07484e-05
7 *3869:CLK *3707:A 0
8 *3871:RESET_B *928:8 1.46286e-05
9 *278:10 *3707:A 0
10 *359:57 *3707:A 5.20202e-05
11 *359:57 *4305:A 0.000400342
12 *359:61 *4305:A 0.0003216
13 *606:56 *4305:A 1.12487e-05
14 *623:8 *4305:A 0
15 *623:25 *928:8 0.0002263
16 *739:18 *3707:A 0.000385716
17 *805:6 *928:8 7.95535e-05
18 *909:82 *3707:A 5.58152e-06
*RES
1 *3871:Q *928:8 43.8621 
2 *928:8 *3707:A 44.4836 
3 *928:8 *4305:A 49.3721 
*END

*D_NET *929 0.00230611
*CONN
*I *3705:A I *D sky130_fd_sc_hd__xnor2_2
*I *4313:A I *D sky130_fd_sc_hd__dlygate4sd3_1
*I *3872:Q O *D sky130_fd_sc_hd__dfrtp_2
*CAP
1 *3705:A 0.00041648
2 *4313:A 0
3 *3872:Q 0.000417329
4 *929:10 0.000833809
5 *3705:A *3706:A 0
6 *3705:A *3706:B 0.000192087
7 *929:10 *3706:A 0
8 *929:10 *4309:A 0
9 *3714:B *3705:A 6.17437e-06
10 *3872:D *929:10 5.47808e-05
11 *4311:A *3705:A 8.51432e-05
12 *281:8 *929:10 4.08641e-05
13 *604:30 *3705:A 0
14 *604:30 *929:10 0
15 *862:20 *929:10 5.20028e-05
16 *908:93 *929:10 0
17 *925:8 *3705:A 0.000207437
*RES
1 *3872:Q *929:10 45.6021 
2 *929:10 *4313:A 38 
3 *929:10 *3705:A 47.8186 
*END

*D_NET *930 0.00165442
*CONN
*I *3709:A I *D sky130_fd_sc_hd__xnor2_2
*I *4298:A I *D sky130_fd_sc_hd__dlygate4sd3_1
*I *3873:Q O *D sky130_fd_sc_hd__dfrtp_2
*CAP
1 *3709:A 0.000311981
2 *4298:A 0.000114002
3 *3873:Q 0.000149025
4 *930:10 0.000575008
5 *577:10 *3709:A 0.000152787
6 *870:16 *4298:A 0.000224345
7 *870:16 *930:10 0.000127272
*RES
1 *3873:Q *930:10 40.5271 
2 *930:10 *4298:A 40.9621 
3 *930:10 *3709:A 44.3386 
*END

*D_NET *931 0.00179421
*CONN
*I *3706:A I *D sky130_fd_sc_hd__xnor2_2
*I *4309:A I *D sky130_fd_sc_hd__dlygate4sd3_1
*I *3874:Q O *D sky130_fd_sc_hd__dfrtp_2
*CAP
1 *3706:A 0.000374619
2 *4309:A 0.000372936
3 *3874:Q 0
4 *931:6 0.000747555
5 *3705:A *3706:A 0
6 *3872:RESET_B *4309:A 6.53445e-05
7 *281:8 *4309:A 0
8 *862:20 *4309:A 0
9 *909:37 *4309:A 0
10 *916:77 *3706:A 9.60503e-05
11 *916:79 *3706:A 4.83778e-05
12 *916:81 *3706:A 6.46393e-05
13 *916:81 *4309:A 2.46933e-05
14 *925:8 *3706:A 0
15 *929:10 *3706:A 0
16 *929:10 *4309:A 0
*RES
1 *3874:Q *931:6 38 
2 *931:6 *4309:A 45.105 
3 *931:6 *3706:A 46.5136 
*END

*D_NET *932 0.00366344
*CONN
*I *4310:A I *D sky130_fd_sc_hd__dlygate4sd3_1
*I *3711:A I *D sky130_fd_sc_hd__xnor2_2
*I *3875:Q O *D sky130_fd_sc_hd__dfrtp_2
*CAP
1 *4310:A 0
2 *3711:A 7.73958e-05
3 *3875:Q 0.00038469
4 *932:34 0.000802092
5 *932:28 0.00102108
6 *932:8 0.000243095
7 *932:34 *3673:B 0.000275883
8 *932:34 *942:10 0
9 *3673:A *932:34 0
10 *3869:CLK *932:28 0.000184527
11 *3869:CLK *932:34 7.35643e-05
12 *3873:RESET_B *932:8 0
13 *4204:A *932:34 0
14 *4305:A *932:34 0
15 *278:10 *932:34 8.4047e-05
16 *623:8 *932:34 0.000180741
17 *694:14 *932:34 0
18 *811:10 *932:34 0
19 *816:10 *932:34 6.17437e-06
20 *870:16 *932:8 0.000330144
21 *870:16 *932:34 0
22 *909:72 *932:8 0
*RES
1 *3875:Q *932:8 42.3707 
2 *932:8 *3711:A 39.1186 
3 *3875:Q *932:28 41.0036 
4 *932:28 *932:34 31.1779 
5 *932:34 *4310:A 23 
*END

*D_NET *933 0.00323091
*CONN
*I *3339:A I *D sky130_fd_sc_hd__inv_2
*I *3444:B I *D sky130_fd_sc_hd__and2_2
*I *3984:Q O *D sky130_fd_sc_hd__dfrtp_2
*CAP
1 *3339:A 3.38673e-05
2 *3444:B 0
3 *3984:Q 0.000463922
4 *933:20 0.000402281
5 *933:12 0.000900071
6 *3339:A *4240:A 5.50106e-05
7 *933:12 *935:20 0
8 *933:12 *936:29 0
9 *933:20 *936:29 0
10 *933:20 *965:46 0.000133747
11 *3444:A *933:20 5.79042e-05
12 *3450:B1 *933:20 5.46706e-05
13 *3979:CLK *933:12 0
14 *3979:CLK *933:20 0
15 *109:6 *933:20 0.000568892
16 *114:10 *933:20 0.000108681
17 *372:8 *933:20 8.15327e-05
18 *617:32 *933:20 0.000269775
19 *636:109 *933:12 0.000100559
*RES
1 *3984:Q *933:12 44.96 
2 *933:12 *933:20 27.2629 
3 *933:20 *3444:B 23 
4 *933:12 *3339:A 38.6214 
*END

*D_NET *934 0.0101494
*CONN
*I *4165:A I *D sky130_fd_sc_hd__clkdlybuf4s25_1
*I *3752:S I *D sky130_fd_sc_hd__mux2_1
*I *3751:S I *D sky130_fd_sc_hd__mux2_1
*I *3985:Q O *D sky130_fd_sc_hd__dfrtp_2
*CAP
1 *4165:A 4.78374e-05
2 *3752:S 0
3 *3751:S 0
4 *3985:Q 0.00119364
5 *934:51 0.00115223
6 *934:32 0.00132594
7 *934:28 0.00143815
8 *934:16 0.00241024
9 *934:16 *3389:A2 3.22879e-05
10 *934:16 *1030:42 0.000141052
11 *934:16 *1032:6 0.000400198
12 *934:28 *1031:10 1.47955e-05
13 *934:51 *3751:A1 0.000517033
14 *3440:B1 *934:16 0.000215823
15 *3751:A0 *934:32 7.24365e-05
16 *3751:A0 *934:51 2.07355e-05
17 *3752:A0 *934:51 2.50061e-05
18 *4042:CLK *934:28 0.000144231
19 *4050:RESET_B *934:51 1.2704e-05
20 *116:10 *934:28 1.14452e-05
21 *343:10 *934:51 2.45549e-06
22 *407:10 *934:16 0.000475031
23 *425:10 *934:16 2.57373e-06
24 *624:44 *934:51 3.37685e-05
25 *641:37 *934:28 0
26 *646:61 *934:51 0
27 *646:63 *934:51 0
28 *679:8 *934:16 9.8971e-06
29 *713:20 *934:16 2.64104e-05
30 *785:8 *934:28 2.22183e-05
31 *785:25 *4165:A 2.02872e-05
32 *785:25 *934:32 4.75206e-05
33 *786:8 *934:51 8.41012e-05
34 *907:10 *4165:A 5.50106e-05
35 *907:10 *934:28 0.000194318
*RES
1 *3985:Q *934:16 45.4129 
2 *934:16 *934:28 48.8707 
3 *934:28 *934:32 3.97714 
4 *934:32 *3751:S 23 
5 *934:32 *934:51 48.7257 
6 *934:51 *3752:S 23 
7 *934:28 *4165:A 24.0979 
*END

*D_NET *935 0.00165397
*CONN
*I *3343:A I *D sky130_fd_sc_hd__inv_2
*I *4240:A I *D sky130_fd_sc_hd__dlygate4sd3_1
*I *3981:Q O *D sky130_fd_sc_hd__dfrtp_2
*CAP
1 *3343:A 0.000195199
2 *4240:A 0.000220486
3 *3981:Q 0.000441535
4 *935:20 0.000416248
5 *935:20 *936:29 0
6 *3339:A *4240:A 5.50106e-05
7 *3979:CLK *935:20 0
8 *3984:D *935:20 8.51329e-05
9 *75:10 *3343:A 1.57571e-05
10 *621:10 *3343:A 0.000224605
11 *933:12 *935:20 0
*RES
1 *3981:Q *4240:A 49.9564 
2 *3981:Q *935:20 42.3707 
3 *935:20 *3343:A 41.8529 
*END

*D_NET *936 0.01637
*CONN
*I *3661:A2 I *D sky130_fd_sc_hd__a21bo_2
*I *3683:B I *D sky130_fd_sc_hd__and3b_2
*I *3443:B I *D sky130_fd_sc_hd__nor3_2
*I *3682:A1 I *D sky130_fd_sc_hd__a21oi_2
*I *3715:B1 I *D sky130_fd_sc_hd__a21oi_2
*I *3905:Q O *D sky130_fd_sc_hd__dfrtp_2
*CAP
1 *3661:A2 3.90514e-05
2 *3683:B 0
3 *3443:B 0.000355536
4 *3682:A1 0
5 *3715:B1 0
6 *3905:Q 0
7 *936:58 0.000509355
8 *936:47 0.00106818
9 *936:41 0.00207968
10 *936:29 0.00294511
11 *936:21 0.00284669
12 *936:12 0.00067954
13 *936:4 0.00170739
14 *3443:B *3519:A 0.000123428
15 *3443:B *990:18 0.000163168
16 *3443:B *1001:21 4.08641e-05
17 *936:12 *971:59 0
18 *936:21 *3661:B1_N 0.00012009
19 *936:41 *4249:A 0.000102093
20 *936:41 *948:10 4.16775e-05
21 *936:41 *949:14 0.000105586
22 *936:47 *3682:A2 5.50049e-05
23 *936:47 *949:14 1.03955e-05
24 *936:47 *949:25 0.00036255
25 *936:58 *990:18 0.000137143
26 *936:58 *1001:21 6.77978e-05
27 *936:58 *1001:32 6.79006e-05
28 *3401:B *936:29 4.30723e-05
29 *3443:C *3443:B 0.000312348
30 *3450:A1 *936:29 2.60152e-05
31 *3525:A0 *936:41 0.000132921
32 *3679:B2 *936:41 1.84962e-05
33 *3892:CLK *936:47 3.12385e-05
34 *3905:RESET_B *936:12 0.000102093
35 *3905:RESET_B *936:21 0.000267991
36 *3972:RESET_B *936:41 0.000168821
37 *4377:A *936:41 2.20111e-05
38 *73:14 *936:29 0
39 *114:10 *936:29 0
40 *359:16 *3661:A2 0
41 *359:16 *936:29 0
42 *364:45 *936:41 0.000190816
43 *372:8 *936:29 0
44 *426:10 *3443:B 2.4754e-05
45 *549:8 *936:21 1.32939e-05
46 *581:12 *936:12 0.000534499
47 *604:101 *936:29 0
48 *617:93 *936:29 0.000194318
49 *621:87 *936:29 5.50955e-05
50 *636:14 *936:29 0
51 *636:14 *936:41 9.84851e-05
52 *636:109 *936:29 0
53 *638:76 *936:29 9.26098e-05
54 *646:53 *936:12 1.98635e-05
55 *646:53 *936:21 4.97099e-05
56 *707:10 *936:29 0.000203094
57 *738:8 *936:29 0
58 *831:10 *936:29 0
59 *871:8 *936:12 0
60 *894:32 *3661:A2 0
61 *894:32 *936:29 0
62 *905:28 *936:29 0.000120781
63 *911:72 *936:21 1.94693e-05
64 *933:12 *936:29 0
65 *933:20 *936:29 0
66 *935:20 *936:29 0
*RES
1 *3905:Q *936:4 23 
2 *936:4 *936:12 41.9729 
3 *936:12 *3715:B1 23 
4 *936:4 *936:21 29.9143 
5 *936:21 *936:29 49.7171 
6 *936:29 *936:41 49.2436 
7 *936:41 *936:47 14.355 
8 *936:47 *3682:A1 23 
9 *936:47 *936:58 19.2879 
10 *936:58 *3443:B 46.8243 
11 *936:58 *3683:B 38 
12 *936:21 *3661:A2 38.8493 
*END

*D_NET *937 0.00231652
*CONN
*I *3396:D I *D sky130_fd_sc_hd__and4_2
*I *3662:A2 I *D sky130_fd_sc_hd__a21o_2
*I *3883:Q O *D sky130_fd_sc_hd__dfstp_2
*CAP
1 *3396:D 0
2 *3662:A2 0
3 *3883:Q 0.000138751
4 *937:20 0.000549598
5 *937:12 0.000620892
6 *937:8 0.000210044
7 *937:12 *3396:B 2.18409e-05
8 *937:12 *3396:C 4.34745e-05
9 *937:20 *3396:C 0.000354122
10 *937:20 *939:12 0.000194318
11 *937:20 *1039:8 0
12 *3662:B1 *937:20 5.6572e-05
13 *359:16 *937:8 0
14 *602:8 *937:20 1.57571e-05
15 *911:72 *937:8 0.000111148
*RES
1 *3883:Q *937:8 40.9621 
2 *937:8 *937:12 16.0979 
3 *937:12 *937:20 39.5079 
4 *937:20 *3662:A2 23 
5 *937:12 *3396:D 23 
*END

*D_NET *938 0.00326489
*CONN
*I *4323:A I *D sky130_fd_sc_hd__dlygate4sd3_1
*I *3470:B1 I *D sky130_fd_sc_hd__a22o_2
*I *3957:Q O *D sky130_fd_sc_hd__dfstp_2
*CAP
1 *4323:A 0.000350191
2 *3470:B1 0.000232498
3 *3957:Q 0.000513672
4 *938:12 0.00109636
5 *938:12 *939:12 3.06338e-05
6 *938:12 *939:60 5.80683e-05
7 *3958:RESET_B *3470:B1 0.000370859
8 *3958:RESET_B *4323:A 1.01436e-05
9 *3958:RESET_B *938:12 9.282e-05
10 *604:101 *3470:B1 0.000219882
11 *621:91 *938:12 2.89917e-05
12 *636:109 *3470:B1 1.12487e-05
13 *646:43 *4323:A 0.000126548
14 *894:32 *3470:B1 3.81554e-05
15 *894:32 *4323:A 8.48131e-05
*RES
1 *3957:Q *938:12 45.9336 
2 *938:12 *3470:B1 43.6964 
3 *938:12 *4323:A 45.1464 
*END

*D_NET *939 0.0103943
*CONN
*I *3470:A2 I *D sky130_fd_sc_hd__a22o_2
*I *3677:B I *D sky130_fd_sc_hd__nand2_2
*I *3745:A1 I *D sky130_fd_sc_hd__mux2_1
*I *3958:Q O *D sky130_fd_sc_hd__dfrtp_2
*CAP
1 *3470:A2 0
2 *3677:B 0.000162377
3 *3745:A1 0.000298547
4 *3958:Q 0
5 *939:60 0.000801652
6 *939:30 0.000635675
7 *939:16 0.000838171
8 *939:12 0.00117416
9 *939:4 0.00163715
10 *939:12 *3661:B1_N 0.000343045
11 *939:12 *4228:A 0.000272321
12 *939:12 *959:8 0.000233136
13 *939:12 *1039:8 0
14 *939:16 *3748:A1 0.000182832
15 *939:16 *4228:A 4.67488e-05
16 *939:30 *947:8 3.68448e-05
17 *3402:B *939:12 0
18 *3470:A1 *939:60 7.27694e-06
19 *3662:B1 *939:12 2.60152e-05
20 *3664:A1 *3745:A1 4.95081e-05
21 *3664:S *3745:A1 9.5877e-05
22 *3745:A0 *3745:A1 5.43443e-05
23 *3748:A0 *939:16 0.000144067
24 *4016:CLK *939:16 0.00011761
25 *4049:RESET_B *939:30 3.93338e-05
26 *4053:RESET_B *3677:B 4.43717e-05
27 *4378:A *3677:B 4.60263e-05
28 *4378:A *939:30 8.98289e-05
29 *11:10 *3677:B 9.87069e-06
30 *11:10 *939:30 5.81045e-06
31 *72:10 *939:12 0.00030233
32 *340:10 *939:16 1.32939e-05
33 *359:16 *939:12 0
34 *359:31 *3745:A1 9.75779e-05
35 *359:31 *939:16 0.00112194
36 *359:31 *939:30 3.62452e-05
37 *370:14 *939:60 0
38 *557:8 *939:30 7.76364e-06
39 *621:91 *939:60 0.000161542
40 *640:8 *939:30 9.67842e-05
41 *640:14 *939:30 1.12487e-05
42 *646:43 *939:60 0.000508907
43 *741:8 *939:60 0.000212621
44 *789:8 *939:30 1.01436e-05
45 *831:10 *939:12 8.62876e-05
46 *880:38 *939:60 5.20305e-05
47 *907:36 *939:12 0
48 *937:20 *939:12 0.000194318
49 *938:12 *939:12 3.06338e-05
50 *938:12 *939:60 5.80683e-05
*RES
1 *3958:Q *939:4 23 
2 *939:4 *939:12 49.2229 
3 *939:12 *939:16 27.5321 
4 *939:16 *939:30 36.6493 
5 *939:30 *3745:A1 43.4064 
6 *939:16 *3677:B 40.61 
7 *939:4 *939:60 44.7745 
8 *939:60 *3470:A2 23 
*END

*D_NET *940 0.00585941
*CONN
*I *4276:A I *D sky130_fd_sc_hd__dlygate4sd3_1
*I *3669:B I *D sky130_fd_sc_hd__nand2_2
*I *4056:Q O *D sky130_fd_sc_hd__dfrtp_2
*CAP
1 *4276:A 0
2 *3669:B 0
3 *4056:Q 0.00214301
4 *940:28 0.000354049
5 *940:12 0.000105088
6 *940:6 0.00189405
7 o_receive_data[1] *940:12 0.000102052
8 o_receive_data[2] *940:12 7.44517e-05
9 *3668:A1 *940:6 6.71408e-06
10 *3668:S *940:6 0.000114907
11 *3885:D *940:6 4.9054e-06
12 *4055:CLK *940:6 0.000220047
13 *4055:CLK *940:28 3.71369e-05
14 *295:14 *940:6 3.82058e-06
15 *624:143 *940:6 1.92253e-05
16 *646:61 *940:28 8.20948e-05
17 *646:63 *940:28 0.000397404
18 *779:10 *940:28 0
19 *865:10 *940:6 1.04196e-05
20 *865:10 *940:12 3.47879e-05
21 *867:12 *940:12 6.38845e-05
22 *868:12 *940:12 4.76829e-05
23 *889:140 *940:28 0
24 *907:136 *940:28 0.000143684
*RES
1 *4056:Q *940:6 45.5371 
2 *940:6 *940:12 33.6664 
3 *940:12 *3669:B 23 
4 *4056:Q *940:28 46.6379 
5 *940:28 *4276:A 38 
*END

*D_NET *941 0.00204151
*CONN
*I *4281:A I *D sky130_fd_sc_hd__dlygate4sd3_1
*I *3665:B I *D sky130_fd_sc_hd__nand2_2
*I *4055:Q O *D sky130_fd_sc_hd__dfrtp_2
*CAP
1 *4281:A 0
2 *3665:B 0
3 *4055:Q 0.000855816
4 *941:26 7.84972e-05
5 *941:10 0.000777319
6 *646:61 *941:10 0.000171906
7 *785:8 *941:26 0
8 *786:8 *941:10 8.51225e-05
9 *877:14 *941:26 7.28526e-05
*RES
1 *4055:Q *941:10 48.9786 
2 *941:10 *3665:B 38 
3 *4055:Q *941:26 39.9057 
4 *941:26 *4281:A 38 
*END

*D_NET *942 0.00145186
*CONN
*I *4269:A I *D sky130_fd_sc_hd__dlygate4sd3_1
*I *3673:B I *D sky130_fd_sc_hd__nand2_2
*I *4054:Q O *D sky130_fd_sc_hd__dfrtp_2
*CAP
1 *4269:A 0.000154502
2 *3673:B 0.000168653
3 *4054:Q 0.000172121
4 *942:12 0.000323155
5 *942:10 0.000172121
6 *4305:A *942:10 2.07484e-05
7 *816:10 *3673:B 3.34129e-05
8 *869:8 *3673:B 0.000131263
9 *932:34 *3673:B 0.000275883
10 *932:34 *942:10 0
*RES
1 *4054:Q *942:10 40.5271 
2 *942:10 *942:12 15 
3 *942:12 *3673:B 28.4271 
4 *942:12 *4269:A 25.5271 
*END

*D_NET *943 0.00363818
*CONN
*I *4284:A I *D sky130_fd_sc_hd__dlygate4sd3_1
*I *3663:B I *D sky130_fd_sc_hd__nand2_2
*I *3748:A1 I *D sky130_fd_sc_hd__mux2_1
*I *4053:Q O *D sky130_fd_sc_hd__dfrtp_2
*CAP
1 *4284:A 6.22175e-05
2 *3663:B 0.000388959
3 *3748:A1 0.000367385
4 *4053:Q 0
5 *943:21 0.000521266
6 *943:6 0.000437474
7 *3748:A0 *3748:A1 5.67058e-05
8 *3749:S *3663:B 9.29826e-05
9 *4016:CLK *3748:A1 2.18506e-05
10 *11:10 *3748:A1 0.000374785
11 *11:10 *943:21 8.59774e-05
12 *116:10 *3663:B 6.73366e-05
13 *340:10 *3748:A1 1.94693e-05
14 *622:78 *3748:A1 0.000176164
15 *622:126 *3748:A1 0.000111287
16 *622:126 *943:21 5.61311e-05
17 *788:6 *3663:B 0.000341281
18 *907:16 *3663:B 0.000274078
19 *939:16 *3748:A1 0.000182832
*RES
1 *4053:Q *943:6 38 
2 *943:6 *3748:A1 49.3514 
3 *943:6 *943:21 17.2579 
4 *943:21 *3663:B 33.3157 
5 *943:21 *4284:A 24.0979 
*END

*D_NET *944 0.00288393
*CONN
*I *4228:A I *D sky130_fd_sc_hd__dlygate4sd3_1
*I *3661:B1_N I *D sky130_fd_sc_hd__a21bo_2
*I *4052:Q O *D sky130_fd_sc_hd__dfrtp_2
*CAP
1 *4228:A 0.00013782
2 *3661:B1_N 0.000236523
3 *4052:Q 0.000179054
4 *944:8 0.000553397
5 *3402:B *3661:B1_N 0
6 *3662:B1 *3661:B1_N 0.000318411
7 *3662:B1 *4228:A 0.000262178
8 *4016:CLK *4228:A 9.41704e-05
9 *549:8 *3661:B1_N 0.000223698
10 *602:8 *944:8 4.9662e-05
11 *646:53 *3661:B1_N 4.68155e-05
12 *936:21 *3661:B1_N 0.00012009
13 *939:12 *3661:B1_N 0.000343045
14 *939:12 *4228:A 0.000272321
15 *939:16 *4228:A 4.67488e-05
*RES
1 *4052:Q *944:8 40.0507 
2 *944:8 *3661:B1_N 46.208 
3 *944:8 *4228:A 42.7643 
*END

*D_NET *945 0.00219027
*CONN
*I *3752:A1 I *D sky130_fd_sc_hd__mux2_1
*I *4280:A I *D sky130_fd_sc_hd__dlygate4sd3_1
*I *3671:B I *D sky130_fd_sc_hd__nand2_2
*I *4051:Q O *D sky130_fd_sc_hd__dfrtp_2
*CAP
1 *3752:A1 7.56061e-05
2 *4280:A 0
3 *3671:B 2.71027e-05
4 *4051:Q 0.00049523
5 *945:39 0.000479018
6 *945:12 4.72959e-05
7 *945:8 0.000112012
8 *3752:A0 *3752:A1 5.72975e-05
9 *551:14 *3671:B 3.71251e-05
10 *551:14 *945:12 1.46324e-05
11 *606:56 *945:39 0.000315539
12 *624:44 *3752:A1 0.000100072
13 *780:8 *945:39 0.000140949
14 *869:10 *945:8 0.000136609
15 *889:105 *3671:B 9.84794e-05
16 *889:105 *945:12 5.3304e-05
*RES
1 *4051:Q *945:8 39.9057 
2 *945:8 *945:12 15.6214 
3 *945:12 *3671:B 24.0979 
4 *945:12 *4280:A 23 
5 *4051:Q *945:39 45.6643 
6 *945:39 *3752:A1 39.5743 
*END

*D_NET *946 0.0032482
*CONN
*I *3667:B I *D sky130_fd_sc_hd__nand2_2
*I *4287:A I *D sky130_fd_sc_hd__dlygate4sd3_1
*I *3751:A1 I *D sky130_fd_sc_hd__mux2_1
*I *4050:Q O *D sky130_fd_sc_hd__dfrtp_2
*CAP
1 *3667:B 0.000509576
2 *4287:A 2.95011e-05
3 *3751:A1 0.000172292
4 *4050:Q 5.45426e-05
5 *946:21 0.000624419
6 *946:8 0.000312177
7 *3667:B *3364:B 8.94487e-05
8 *3751:A0 *3751:A1 1.94693e-05
9 *391:10 *3667:B 2.93747e-05
10 *624:161 *4287:A 5.50106e-05
11 *641:37 *3751:A1 0.000246748
12 *641:54 *3667:B 0.000387142
13 *641:54 *3751:A1 0.000123326
14 *641:54 *946:21 6.79006e-05
15 *646:63 *3667:B 0
16 *646:63 *946:21 0
17 *786:8 *3751:A1 1.02387e-05
18 *934:51 *3751:A1 0.000517033
*RES
1 *4050:Q *946:8 38.6214 
2 *946:8 *3751:A1 45.105 
3 *946:8 *946:21 1.90571 
4 *946:21 *4287:A 38.6214 
5 *946:21 *3667:B 49.5171 
*END

*D_NET *947 0.00419991
*CONN
*I *3675:B I *D sky130_fd_sc_hd__nand2_2
*I *3750:A1 I *D sky130_fd_sc_hd__mux2_1
*I *4285:A I *D sky130_fd_sc_hd__dlygate4sd3_1
*I *4049:Q O *D sky130_fd_sc_hd__dfrtp_2
*CAP
1 *3675:B 0
2 *3750:A1 0
3 *4285:A 0.000117857
4 *4049:Q 0.000831398
5 *947:36 0.000392978
6 *947:28 0.000894336
7 *947:8 0.000447896
8 *3675:A *947:28 0.000226352
9 *3678:S *4285:A 9.84794e-05
10 *4049:RESET_B *947:8 0
11 *4390:A *947:36 6.12551e-05
12 *293:10 *947:8 3.83778e-05
13 *337:10 *947:36 4.2361e-05
14 *557:8 *947:8 0.000256696
15 *623:101 *947:36 0.000137651
16 *641:22 *947:28 0.000303782
17 *789:8 *947:8 7.28335e-05
18 *871:8 *947:8 5.80963e-05
19 *889:66 *947:28 0.000182713
20 *939:30 *947:8 3.68448e-05
*RES
1 *4049:Q *947:8 45.1879 
2 *947:8 *4285:A 40.0714 
3 *4049:Q *947:28 35.5529 
4 *947:28 *947:36 35.8621 
5 *947:36 *3750:A1 23 
6 *947:28 *3675:B 23 
*END

*D_NET *948 0.00532758
*CONN
*I *3331:A I *D sky130_fd_sc_hd__inv_2
*I *3458:A I *D sky130_fd_sc_hd__and3_2
*I *3448:B I *D sky130_fd_sc_hd__and4_2
*I *3465:A1 I *D sky130_fd_sc_hd__a21oi_2
*I *3452:B I *D sky130_fd_sc_hd__and3_2
*I *3983:Q O *D sky130_fd_sc_hd__dfrtp_2
*CAP
1 *3331:A 0
2 *3458:A 0
3 *3448:B 0.000441246
4 *3465:A1 0
5 *3452:B 0
6 *3983:Q 0.000384373
7 *948:26 0.000141075
8 *948:20 0.000418768
9 *948:14 0.000769781
10 *948:12 0.000264827
11 *948:10 0.000598358
12 *948:20 *1002:16 0
13 *948:20 *1002:45 9.41704e-05
14 *948:20 *1007:10 0.000179725
15 *948:20 *1007:43 0
16 *3453:A1 *3448:B 0.000225399
17 *3458:B *948:12 3.28772e-05
18 *3458:B *948:14 1.02387e-05
19 *3525:A0 *948:10 0
20 *3525:A0 *948:12 0
21 *3947:CLK *3448:B 4.21281e-05
22 *3972:CLK *948:12 9.22856e-05
23 *361:10 *948:14 0.000101708
24 *361:10 *948:20 0.000285197
25 *364:8 *948:12 0.000299187
26 *426:16 *948:20 1.94418e-05
27 *426:40 *3448:B 0.000221997
28 *432:10 *3448:B 1.22822e-05
29 *432:16 *948:14 4.08641e-05
30 *432:16 *948:20 3.57696e-05
31 *435:82 *948:26 3.93804e-05
32 *436:10 *948:20 4.05745e-05
33 *618:134 *948:26 0.000266399
34 *749:12 *948:10 8.4047e-05
35 *821:8 *948:12 7.461e-05
36 *905:20 *948:10 1.56662e-06
37 *905:140 *948:10 2.55806e-05
38 *924:51 *948:26 4.20429e-05
39 *936:41 *948:10 4.16775e-05
*RES
1 *3983:Q *948:10 44.6493 
2 *948:10 *948:12 6.13143 
3 *948:12 *948:14 1.55357 
4 *948:14 *948:20 21.0693 
5 *948:20 *948:26 33.6664 
6 *948:26 *3452:B 23 
7 *948:20 *3465:A1 23 
8 *948:14 *3448:B 44.3386 
9 *948:12 *3458:A 38 
10 *948:10 *3331:A 38 
*END

*D_NET *949 0.00533848
*CONN
*I *3403:A I *D sky130_fd_sc_hd__and2_2
*I *3404:A I *D sky130_fd_sc_hd__and2_2
*I *3443:A I *D sky130_fd_sc_hd__nor3_2
*I *3679:A1 I *D sky130_fd_sc_hd__a22o_2
*I *3892:Q O *D sky130_fd_sc_hd__dfrtp_2
*CAP
1 *3403:A 0.000120033
2 *3404:A 0.000209035
3 *3443:A 3.47832e-06
4 *3679:A1 0
5 *3892:Q 0
6 *949:38 0.000477392
7 *949:25 0.000728195
8 *949:14 0.000214063
9 *949:4 0.000790456
10 *3404:A *3330:A 0.000157134
11 *3404:A *3404:B 1.35999e-05
12 *3404:A *981:76 0.000198447
13 *3404:A *989:20 0.000174376
14 *949:25 *989:26 0
15 *949:38 *3330:A 3.67392e-05
16 *949:38 *989:20 0.000204919
17 *3403:B *3403:A 0.000117047
18 *3462:A2 *949:14 8.72173e-05
19 *3525:A0 *949:14 0
20 *3679:A2 *949:14 0.000155187
21 *3744:B1 *949:25 0
22 *3892:CLK *949:25 0.000368447
23 *3892:RESET_B *949:25 6.26422e-05
24 *3972:RESET_B *949:14 0.000138444
25 *3972:RESET_B *949:25 2.18409e-05
26 *363:32 *949:38 2.26406e-05
27 *615:86 *3403:A 7.0127e-05
28 *615:97 *3443:A 2.5343e-05
29 *615:97 *949:25 0.000196761
30 *615:97 *949:38 1.99391e-05
31 *615:121 *3403:A 2.193e-05
32 *691:10 *949:25 7.1357e-05
33 *691:14 *949:25 3.65467e-05
34 *691:14 *949:38 0.00010647
35 *750:10 *949:25 1.01436e-05
36 *936:41 *949:14 0.000105586
37 *936:47 *949:14 1.03955e-05
38 *936:47 *949:25 0.00036255
*RES
1 *3892:Q *949:4 23 
2 *949:4 *949:14 35.3857 
3 *949:14 *3679:A1 23 
4 *949:4 *949:25 30.7118 
5 *949:25 *3443:A 38.3211 
6 *949:25 *949:38 4.46393 
7 *949:38 *3404:A 44.3179 
8 *949:38 *3403:A 40.5479 
*END

*D_NET *950 0.000708932
*CONN
*I *4231:A I *D sky130_fd_sc_hd__dlygate4sd3_1
*I *3623:A2 I *D sky130_fd_sc_hd__a221o_2
*I *3897:Q O *D sky130_fd_sc_hd__dfrtp_2
*CAP
1 *4231:A 0.000137302
2 *3623:A2 5.31102e-05
3 *3897:Q 8.83542e-05
4 *950:10 0.000190412
5 *950:8 8.83542e-05
6 *3623:A2 *3623:A1 3.28708e-05
7 *950:8 *3623:A1 6.16439e-05
8 *950:8 *951:25 3.72639e-05
9 *541:10 *3623:A2 1.59094e-05
10 *541:10 *4231:A 3.7122e-06
11 *729:10 *950:8 0
*RES
1 *3897:Q *950:8 39.9057 
2 *950:8 *950:10 15 
3 *950:10 *3623:A2 23.8596 
4 *950:10 *4231:A 25.5271 
*END

*D_NET *951 0.00288492
*CONN
*I *3621:A2 I *D sky130_fd_sc_hd__a221o_2
*I *4244:A I *D sky130_fd_sc_hd__dlygate4sd3_1
*I *3898:Q O *D sky130_fd_sc_hd__dfrtp_2
*CAP
1 *3621:A2 0
2 *4244:A 2.00801e-05
3 *3898:Q 0.000187237
4 *951:25 0.000551334
5 *951:10 0.000758651
6 *951:25 *3621:A1 7.80519e-05
7 *951:25 *3621:B1 9.18447e-05
8 *951:25 *3623:A1 0.000121636
9 *951:25 *3623:B1 9.64022e-05
10 *951:25 *4223:A 1.50409e-05
11 *951:25 *952:8 0.000177437
12 *434:22 *4244:A 1.84917e-05
13 *435:61 *951:25 3.88629e-05
14 *537:6 *951:25 0.000119825
15 *541:10 *951:25 0.000163352
16 *562:14 *951:10 5.82853e-05
17 *563:22 *4244:A 5.58003e-05
18 *634:110 *951:25 0.000280747
19 *720:10 *951:10 2.35118e-06
20 *720:10 *951:25 1.223e-05
21 *950:8 *951:25 3.72639e-05
*RES
1 *3898:Q *951:10 40.8793 
2 *951:10 *4244:A 38.6214 
3 *951:10 *951:25 30.5668 
4 *951:25 *3621:A2 23 
*END

*D_NET *952 0.00150036
*CONN
*I *3623:B1 I *D sky130_fd_sc_hd__a221o_2
*I *4242:A I *D sky130_fd_sc_hd__dlygate4sd3_1
*I *3899:Q O *D sky130_fd_sc_hd__dfrtp_2
*CAP
1 *3623:B1 7.14596e-05
2 *4242:A 9.99036e-05
3 *3899:Q 0.000116028
4 *952:8 0.000287391
5 *3623:B1 *3621:B1 0.000184184
6 *952:8 *3621:B1 0.00019747
7 *952:8 *4223:A 0.000170917
8 *634:116 *4242:A 9.91701e-05
9 *951:25 *3623:B1 9.64022e-05
10 *951:25 *952:8 0.000177437
*RES
1 *3899:Q *952:8 42.7229 
2 *952:8 *4242:A 40.0507 
3 *952:8 *3623:B1 40.61 
*END

*D_NET *953 0.00362109
*CONN
*I *3620:A2 I *D sky130_fd_sc_hd__a22o_2
*I *4243:A I *D sky130_fd_sc_hd__dlygate4sd3_1
*I *3900:Q O *D sky130_fd_sc_hd__dfrtp_2
*CAP
1 *3620:A2 0
2 *4243:A 0.000278226
3 *3900:Q 0.000176461
4 *953:23 0.000535312
5 *953:8 0.00099
6 *953:23 *961:40 0.000208959
7 *953:23 *962:16 0.00020433
8 *4058:RESET_B *953:23 0.000283186
9 *307:10 *4243:A 0.000242052
10 *307:10 *953:23 0.000285942
11 *563:22 *953:8 0.000124242
12 *566:10 *4243:A 0
13 *914:20 *4243:A 0.000164545
14 *914:29 *4243:A 3.62854e-05
15 *914:29 *953:23 9.15503e-05
*RES
1 *3900:Q *953:8 40.5271 
2 *953:8 *4243:A 44.4836 
3 *953:8 *953:23 29.5207 
4 *953:23 *3620:A2 23 
*END

*D_NET *954 0.00295474
*CONN
*I *3620:B1 I *D sky130_fd_sc_hd__a22o_2
*I *4230:A I *D sky130_fd_sc_hd__dlygate4sd3_1
*I *3901:Q O *D sky130_fd_sc_hd__dfrtp_2
*CAP
1 *3620:B1 0.00019678
2 *4230:A 0.0001291
3 *3901:Q 0.000511995
4 *954:10 0.000837876
5 *3620:B1 *3617:A 0.000182832
6 *3620:B1 *955:21 0.000185104
7 *3620:B1 *961:40 3.34247e-05
8 *3620:B1 *967:37 9.67842e-05
9 *954:10 *955:21 0.000191068
10 *3700:A1 *954:10 3.7122e-06
11 *3700:B1 *954:10 0.000218563
12 *3700:B2 *954:10 8.06804e-06
13 *435:22 *954:10 2.03764e-06
14 *565:14 *4230:A 4.42603e-05
15 *604:48 *3620:B1 4.73689e-05
16 *632:12 *3620:B1 0.000175438
17 *632:12 *954:10 9.03237e-05
*RES
1 *3901:Q *954:10 45.9957 
2 *954:10 *4230:A 40.0714 
3 *954:10 *3620:B1 44.7736 
*END

*D_NET *955 0.00240893
*CONN
*I *3622:A2 I *D sky130_fd_sc_hd__a22o_2
*I *4225:A I *D sky130_fd_sc_hd__dlygate4sd3_1
*I *3902:Q O *D sky130_fd_sc_hd__dfrtp_2
*CAP
1 *3622:A2 0
2 *4225:A 0
3 *3902:Q 8.88447e-05
4 *955:21 0.000437746
5 *955:6 0.00052659
6 *3620:B1 *955:21 0.000185104
7 *3700:B2 *955:21 0.000160125
8 *3899:CLK *955:21 3.63676e-05
9 *563:22 *955:6 0.000184707
10 *563:22 *955:21 0.000223077
11 *604:48 *955:21 0.000225712
12 *632:12 *955:21 1.26815e-05
13 *722:8 *955:21 0.000136905
14 *954:10 *955:21 0.000191068
*RES
1 *3902:Q *955:6 25.0507 
2 *955:6 *4225:A 23 
3 *955:6 *955:21 41.2945 
4 *955:21 *3622:A2 23 
*END

*D_NET *956 0.00262278
*CONN
*I *3622:B1 I *D sky130_fd_sc_hd__a22o_2
*I *4224:A I *D sky130_fd_sc_hd__dlygate4sd3_1
*I *3903:Q O *D sky130_fd_sc_hd__dfrtp_2
*CAP
1 *3622:B1 0
2 *4224:A 0
3 *3903:Q 0.000163516
4 *956:27 0.000280368
5 *956:12 0.000432714
6 *956:6 0.000876598
7 *956:27 *964:47 5.3304e-05
8 *956:27 *969:14 1.01436e-05
9 *3702:B1 *956:12 0
10 *4057:RESET_B *956:12 0
11 *4057:RESET_B *956:27 0
12 *565:14 *956:12 0.000571174
13 *565:14 *956:27 3.44029e-05
14 *604:48 *956:12 0
15 *604:48 *956:27 0.000167443
16 *727:8 *956:12 3.31127e-05
17 *727:8 *956:27 0
18 *913:78 *956:12 0
*RES
1 *3903:Q *956:6 25.0507 
2 *956:6 *956:12 39.3007 
3 *956:12 *4224:A 23 
4 *956:6 *956:27 34.93 
5 *956:27 *3622:B1 23 
*END

*D_NET *957 0.00243113
*CONN
*I *3621:B1 I *D sky130_fd_sc_hd__a221o_2
*I *4223:A I *D sky130_fd_sc_hd__dlygate4sd3_1
*I *3904:Q O *D sky130_fd_sc_hd__dfrtp_2
*CAP
1 *3621:B1 0.00039599
2 *4223:A 0.000185716
3 *3904:Q 0
4 *957:6 0.000581706
5 *3621:B1 *3621:A1 6.91845e-05
6 *3621:B1 *3621:B2 5.90675e-06
7 *3621:B1 *3623:A1 0
8 *3621:B1 *3623:B2 0.000300117
9 *3623:B1 *3621:B1 0.000184184
10 *3623:C1 *3621:B1 6.43005e-05
11 *4058:RESET_B *3621:B1 0
12 *4058:RESET_B *4223:A 0
13 *435:14 *4223:A 6.55396e-05
14 *537:6 *3621:B1 1.57571e-05
15 *634:116 *3621:B1 6.7177e-06
16 *744:8 *4223:A 8.07381e-05
17 *951:25 *3621:B1 9.18447e-05
18 *951:25 *4223:A 1.50409e-05
19 *952:8 *3621:B1 0.00019747
20 *952:8 *4223:A 0.000170917
*RES
1 *3904:Q *957:6 38 
2 *957:6 *4223:A 43.0129 
3 *957:6 *3621:B1 48.8957 
*END

*D_NET *958 0.00507449
*CONN
*I *4264:A I *D sky130_fd_sc_hd__dlygate4sd3_1
*I *3337:A I *D sky130_fd_sc_hd__inv_2
*I *3974:Q O *D sky130_fd_sc_hd__dfrtp_2
*CAP
1 *4264:A 7.41666e-05
2 *3337:A 0
3 *3974:Q 0.000283199
4 *958:28 0.000669376
5 *958:18 0.00130633
6 *958:12 0.000845981
7 *4264:A *979:10 5.41385e-05
8 *958:12 *993:6 3.82058e-06
9 *958:12 *993:14 2.24608e-05
10 *958:12 *993:89 5.27215e-06
11 *958:18 *993:14 0.00106091
12 *958:28 *1067:28 0
13 *958:28 *1067:42 0
14 *3927:D *958:28 5.47808e-05
15 *3998:RESET_B *958:28 0.000137788
16 *78:14 *958:12 3.35885e-06
17 *78:14 *958:18 8.55061e-05
18 *365:16 *958:18 6.97747e-05
19 *766:14 *4264:A 9.84851e-05
20 *766:14 *958:18 0.000299146
21 *911:110 *958:28 0
*RES
1 *3974:Q *958:12 41.4696 
2 *958:12 *958:18 31.4368 
3 *958:18 *958:28 39.4457 
4 *958:28 *3337:A 23 
5 *958:18 *4264:A 25.0507 
*END

*D_NET *959 0.00175683
*CONN
*I *3396:C I *D sky130_fd_sc_hd__and4_2
*I *3982:Q O *D sky130_fd_sc_hd__dfstp_2
*CAP
1 *3396:C 8.4622e-05
2 *3982:Q 0.000301876
3 *959:8 0.000386498
4 *3396:C *3396:B 0.000269775
5 *959:8 *1039:8 1.19692e-05
6 *359:16 *959:8 0
7 *602:8 *3396:C 7.13587e-05
8 *937:12 *3396:C 4.34745e-05
9 *937:20 *3396:C 0.000354122
10 *939:12 *959:8 0.000233136
*RES
1 *3982:Q *959:8 44.4836 
2 *959:8 *3396:C 42.4329 
*END

*D_NET *960 0.00272631
*CONN
*I *4301:A I *D sky130_fd_sc_hd__dlygate4sd3_1
*I *3469:A2 I *D sky130_fd_sc_hd__a21o_2
*I *3955:Q O *D sky130_fd_sc_hd__dfstp_2
*CAP
1 *4301:A 0
2 *3469:A2 0
3 *3955:Q 0
4 *960:27 0.000506863
5 *960:12 0.000207315
6 *960:4 0.000714177
7 *960:27 *1067:42 6.48096e-05
8 *78:8 *960:27 9.58714e-05
9 *362:25 *960:12 0.000167443
10 *362:25 *960:27 6.69016e-05
11 *370:14 *960:12 0.000131304
12 *617:107 *960:27 9.41704e-05
13 *637:6 *960:27 5.14746e-06
14 *646:43 *960:12 0
15 *807:10 *960:27 0.000165634
16 *907:65 *960:27 0.000506676
*RES
1 *3955:Q *960:4 23 
2 *960:4 *960:12 35.2614 
3 *960:12 *3469:A2 23 
4 *960:4 *960:27 40.9371 
5 *960:27 *4301:A 23 
*END

*D_NET *961 0.0129827
*CONN
*I *3468:A2 I *D sky130_fd_sc_hd__a22o_2
*I *3618:A I *D sky130_fd_sc_hd__or4_2
*I *3621:B2 I *D sky130_fd_sc_hd__a221o_2
*I *3753:A1 I *D sky130_fd_sc_hd__mux2_1
*I *3956:Q O *D sky130_fd_sc_hd__dfrtp_2
*CAP
1 *3468:A2 0.000237176
2 *3618:A 0
3 *3621:B2 0.000114257
4 *3753:A1 0
5 *3956:Q 0.000767882
6 *961:72 0.000743862
7 *961:40 0.000829491
8 *961:26 0.0012422
9 *961:22 0.00126694
10 *961:10 0.00122969
11 *961:22 *3618:B 0.000267173
12 *961:22 *3618:C 0.000399815
13 *961:22 *4267:A 6.51763e-05
14 *961:40 *3617:A 6.3008e-05
15 *961:40 *962:16 2.76351e-05
16 *961:40 *964:37 0.000119125
17 *961:40 *967:37 0.000158448
18 *3620:B1 *961:40 3.34247e-05
19 *3621:B1 *3621:B2 5.90675e-06
20 *3753:S *961:40 9.58714e-05
21 *3754:S *961:26 0
22 *3756:A0 *961:10 2.18506e-05
23 *3983:CLK *961:22 9.91798e-05
24 *4058:RESET_B *961:26 0.00039049
25 *4058:RESET_B *961:40 0.000218952
26 *73:27 *961:72 5.3304e-05
27 *112:8 *3468:A2 0.000324751
28 *114:10 *961:10 2.96369e-05
29 *362:25 *3468:A2 7.1072e-05
30 *535:10 *961:40 0.000228001
31 *536:8 *961:26 6.67764e-05
32 *537:6 *3621:B2 5.87137e-05
33 *538:10 *961:40 0.000526198
34 *617:40 *961:22 0.000247704
35 *634:116 *961:26 0
36 *634:116 *961:40 0
37 *637:6 *3468:A2 3.52821e-05
38 *749:12 *961:10 0.000648016
39 *749:12 *961:72 0.000174313
40 *755:22 *961:10 3.21327e-05
41 *875:58 *961:26 0.000183572
42 *905:16 *3468:A2 0.000182642
43 *905:54 *961:40 0.000254735
44 *907:46 *961:10 0.000689796
45 *907:46 *961:72 7.30979e-06
46 *907:65 *3468:A2 0.000562276
47 *953:23 *961:40 0.000208959
*RES
1 *3956:Q *961:10 47.3214 
2 *961:10 *961:22 32.0271 
3 *961:22 *961:26 22.8921 
4 *961:26 *961:40 36.895 
5 *961:40 *3753:A1 23 
6 *961:26 *3621:B2 40.2216 
7 *961:22 *3618:A 23 
8 *3956:Q *961:72 44.815 
9 *961:72 *3468:A2 46.3686 
*END

*D_NET *962 0.00337534
*CONN
*I *3754:A1 I *D sky130_fd_sc_hd__mux2_1
*I *4273:A I *D sky130_fd_sc_hd__dlygate4sd3_1
*I *3620:A1 I *D sky130_fd_sc_hd__a22o_2
*I *3617:A I *D sky130_fd_sc_hd__or4_2
*I *4064:Q O *D sky130_fd_sc_hd__dfrtp_2
*CAP
1 *3754:A1 0.000106326
2 *4273:A 0
3 *3620:A1 0
4 *3617:A 0.0002692
5 *4064:Q 0.000233999
6 *962:16 0.000597921
7 *962:10 0.000503382
8 *962:8 0.000514986
9 *3617:A *967:37 2.32004e-05
10 *3620:B1 *3617:A 0.000182832
11 *3754:S *962:10 4.98718e-06
12 *3759:A1 *3754:A1 0.000289044
13 *3759:A1 *962:8 2.64616e-05
14 *3759:A1 *962:10 6.25829e-05
15 *4058:RESET_B *962:16 0
16 *351:8 *3754:A1 0.000151909
17 *351:8 *962:10 4.6318e-06
18 *535:10 *962:10 0
19 *535:10 *962:16 0
20 *632:12 *962:10 0
21 *632:12 *962:16 0
22 *774:10 *3754:A1 1.14452e-05
23 *905:42 *962:10 8.54757e-05
24 *905:42 *962:16 1.19796e-05
25 *953:23 *962:16 0.00020433
26 *961:40 *3617:A 6.3008e-05
27 *961:40 *962:16 2.76351e-05
*RES
1 *4064:Q *962:8 41.0036 
2 *962:8 *962:10 4.01857 
3 *962:10 *962:16 21.3179 
4 *962:16 *3617:A 27.8264 
5 *962:16 *3620:A1 23 
6 *962:10 *4273:A 38 
7 *962:8 *3754:A1 42.0186 
*END

*D_NET *963 0.0037085
*CONN
*I *3618:B I *D sky130_fd_sc_hd__or4_2
*I *4267:A I *D sky130_fd_sc_hd__dlygate4sd3_1
*I *3621:A1 I *D sky130_fd_sc_hd__a221o_2
*I *4063:Q O *D sky130_fd_sc_hd__dfrtp_2
*CAP
1 *3618:B 0.000199735
2 *4267:A 0.000166055
3 *3621:A1 0.000377861
4 *4063:Q 0.000322052
5 *963:16 0.000622752
6 *963:14 0.000600622
7 *3621:A1 *3623:A1 4.66024e-05
8 *3621:A1 *3623:B2 4.95081e-05
9 *3621:A1 *4271:A 1.19796e-05
10 *3621:A1 *965:27 1.7992e-05
11 *3621:A1 *968:21 5.86432e-05
12 *4267:A *3618:C 0.000140259
13 *963:14 *4271:A 1.75295e-05
14 *963:14 *965:46 2.70504e-05
15 *963:16 *4271:A 2.11887e-05
16 *963:16 *965:27 9.48381e-06
17 *963:16 *965:46 1.34354e-05
18 *3621:B1 *3621:A1 6.91845e-05
19 *349:10 *3621:A1 0.000141879
20 *537:6 *3621:A1 3.04308e-05
21 *769:8 *3621:A1 0.000353858
22 *951:25 *3621:A1 7.80519e-05
23 *961:22 *3618:B 0.000267173
24 *961:22 *4267:A 6.51763e-05
*RES
1 *4063:Q *963:14 42.495 
2 *963:14 *963:16 1.20143 
3 *963:16 *3621:A1 47.4664 
4 *963:16 *4267:A 41.48 
5 *963:14 *3618:B 41.0036 
*END

*D_NET *964 0.00466388
*CONN
*I *3617:C I *D sky130_fd_sc_hd__or4_2
*I *3622:A1 I *D sky130_fd_sc_hd__a22o_2
*I *4288:A I *D sky130_fd_sc_hd__dlygate4sd3_1
*I *4062:Q O *D sky130_fd_sc_hd__dfrtp_2
*CAP
1 *3617:C 0
2 *3622:A1 0
3 *4288:A 0.000491073
4 *4062:Q 0.000172977
5 *964:47 0.000162508
6 *964:37 0.000792741
7 *964:12 0.00129428
8 *964:37 *967:37 6.17437e-06
9 *964:47 *969:10 3.70094e-05
10 *964:47 *969:14 0.000140958
11 *3644:A0 *4288:A 3.19414e-05
12 *3753:S *964:37 2.32004e-05
13 *3755:A1 *964:37 0.000267178
14 *4057:D *964:12 2.64616e-05
15 *4062:RESET_B *964:12 7.51453e-06
16 *604:30 *4288:A 0.000397491
17 *604:48 *964:47 0.000166522
18 *608:27 *964:12 6.66937e-05
19 *608:77 *4288:A 3.47781e-05
20 *608:77 *964:12 0.000129736
21 *608:77 *964:37 3.51081e-05
22 *608:128 *4288:A 0
23 *760:16 *964:37 3.12831e-05
24 *761:10 *964:37 0.000139647
25 *792:10 *4288:A 0
26 *905:54 *964:37 3.61695e-05
27 *913:114 *4288:A 0
28 *956:27 *964:47 5.3304e-05
29 *961:40 *964:37 0.000119125
*RES
1 *4062:Q *964:12 41.9979 
2 *964:12 *4288:A 46.6586 
3 *964:12 *964:37 27.9464 
4 *964:37 *964:47 33.8529 
5 *964:47 *3622:A1 23 
6 *964:37 *3617:C 23 
*END

*D_NET *965 0.00557431
*CONN
*I *4254:A I *D sky130_fd_sc_hd__dlygate4sd3_1
*I *3618:C I *D sky130_fd_sc_hd__or4_2
*I *3623:A1 I *D sky130_fd_sc_hd__a221o_2
*I *4061:Q O *D sky130_fd_sc_hd__dfrtp_2
*CAP
1 *4254:A 0
2 *3618:C 0.000146792
3 *3623:A1 0.000584835
4 *4061:Q 0.000268983
5 *965:46 0.000756019
6 *965:27 0.00109332
7 *965:8 0.00104433
8 *3618:C *3618:D 7.44257e-05
9 *965:46 *4271:A 0
10 *3444:A *965:46 4.07999e-05
11 *3621:A1 *3623:A1 4.66024e-05
12 *3621:A1 *965:27 1.7992e-05
13 *3621:B1 *3623:A1 0
14 *3623:A2 *3623:A1 3.28708e-05
15 *3718:B *965:46 0
16 *4061:RESET_B *965:8 7.80291e-05
17 *4267:A *3618:C 0.000140259
18 *109:6 *965:46 3.53115e-05
19 *353:10 *3623:A1 0
20 *353:10 *965:27 0
21 *353:10 *965:46 0
22 *541:10 *3623:A1 0.000163361
23 *604:12 *3623:A1 4.36401e-06
24 *617:54 *965:8 0.000104775
25 *769:8 *3623:A1 9.63918e-05
26 *769:8 *965:27 7.80354e-05
27 *933:20 *965:46 0.000133747
28 *950:8 *3623:A1 6.16439e-05
29 *951:25 *3623:A1 0.000121636
30 *961:22 *3618:C 0.000399815
31 *963:14 *965:46 2.70504e-05
32 *963:16 *965:27 9.48381e-06
33 *963:16 *965:46 1.34354e-05
*RES
1 *4061:Q *965:8 43.8621 
2 *965:8 *3623:A1 49.6621 
3 *965:8 *965:27 3.31429 
4 *965:27 *3618:C 42.9093 
5 *965:27 *965:46 29.7486 
6 *965:46 *4254:A 23 
*END

*D_NET *966 0.00173485
*CONN
*I *4249:A I *D sky130_fd_sc_hd__dlygate4sd3_1
*I *4060:Q O *D sky130_fd_sc_hd__dfrtp_2
*CAP
1 *4249:A 8.88235e-05
2 *4060:Q 0.000510973
3 *966:10 0.000599797
4 *3983:CLK *966:10 3.71251e-05
5 *73:14 *966:10 2.30292e-05
6 *604:89 *966:10 0.000169665
7 *646:43 *966:10 0.000167443
8 *905:20 *966:10 3.58968e-05
9 *936:41 *4249:A 0.000102093
*RES
1 *4060:Q *966:10 46.12 
2 *966:10 *4249:A 40.0507 
*END

*D_NET *967 0.0039067
*CONN
*I *4290:A I *D sky130_fd_sc_hd__dlygate4sd3_1
*I *3760:A1 I *D sky130_fd_sc_hd__mux2_1
*I *3620:B2 I *D sky130_fd_sc_hd__a22o_2
*I *3617:B I *D sky130_fd_sc_hd__or4_2
*I *4059:Q O *D sky130_fd_sc_hd__dfrtp_2
*CAP
1 *4290:A 0.000483066
2 *3760:A1 7.39911e-05
3 *3620:B2 0
4 *3617:B 0
5 *4059:Q 0.000100872
6 *967:37 0.000225856
7 *967:22 0.000315993
8 *967:16 0.000419593
9 *967:10 0.000839403
10 *967:22 *969:10 8.62783e-05
11 *3617:A *967:37 2.32004e-05
12 *3620:B1 *967:37 9.67842e-05
13 *3760:A0 *3760:A1 5.67058e-05
14 *4058:CLK *967:10 2.93845e-05
15 *4064:CLK *4290:A 4.67488e-05
16 *4064:RESET_B *967:10 2.29192e-05
17 *4064:RESET_B *967:16 3.66529e-05
18 *347:8 *967:16 0
19 *352:10 *3760:A1 9.5877e-05
20 *352:10 *967:16 5.50049e-05
21 *604:24 *4290:A 2.13733e-05
22 *604:24 *967:16 4.36401e-06
23 *604:48 *967:16 0
24 *604:48 *967:22 0.000192087
25 *604:48 *967:37 4.43717e-05
26 *608:122 *4290:A 9.13824e-05
27 *632:12 *967:37 2.64506e-05
28 *777:10 *967:10 3.62323e-05
29 *777:10 *967:16 3.31127e-05
30 *794:10 *4290:A 8.84817e-06
31 *794:10 *967:16 0.000114074
32 *794:10 *967:22 0
33 *905:50 *3760:A1 6.07175e-05
34 *905:50 *967:16 0.000100733
35 *905:50 *967:22 0
36 *961:40 *967:37 0.000158448
37 *964:37 *967:37 6.17437e-06
*RES
1 *4059:Q *967:10 39.8229 
2 *967:10 *967:16 20.8414 
3 *967:16 *967:22 32.61 
4 *967:22 *3617:B 23 
5 *967:22 *967:37 34.35 
6 *967:37 *3620:B2 23 
7 *967:16 *3760:A1 25.0507 
8 *967:10 *4290:A 44.7114 
*END

*D_NET *968 0.0032026
*CONN
*I *4271:A I *D sky130_fd_sc_hd__dlygate4sd3_1
*I *3618:D I *D sky130_fd_sc_hd__or4_2
*I *3623:B2 I *D sky130_fd_sc_hd__a221o_2
*I *4058:Q O *D sky130_fd_sc_hd__dfrtp_2
*CAP
1 *4271:A 0.000366181
2 *3618:D 9.06115e-05
3 *3623:B2 0.000306889
4 *4058:Q 0.000132113
5 *968:21 0.000574938
6 *968:8 0.000557147
7 *3618:C *3618:D 7.44257e-05
8 *3621:A1 *3623:B2 4.95081e-05
9 *3621:A1 *4271:A 1.19796e-05
10 *3621:A1 *968:21 5.86432e-05
11 *3621:B1 *3623:B2 0.000300117
12 *3623:C1 *3623:B2 1.14452e-05
13 *349:10 *3623:B2 3.83778e-05
14 *349:10 *968:21 3.3123e-05
15 *617:54 *968:8 1.39317e-05
16 *634:116 *3623:B2 0.000278373
17 *634:116 *4271:A 0.00014377
18 *634:116 *968:21 0.000122304
19 *875:58 *4271:A 0
20 *963:14 *4271:A 1.75295e-05
21 *963:16 *4271:A 2.11887e-05
22 *965:46 *4271:A 0
*RES
1 *4058:Q *968:8 39.5743 
2 *968:8 *3623:B2 46.0423 
3 *968:8 *968:21 3.31429 
4 *968:21 *3618:D 39.5743 
5 *968:21 *4271:A 45.7057 
*END

*D_NET *969 0.00116659
*CONN
*I *3617:D I *D sky130_fd_sc_hd__or4_2
*I *3622:B2 I *D sky130_fd_sc_hd__a22o_2
*I *4259:A I *D sky130_fd_sc_hd__dlygate4sd3_1
*I *4057:Q O *D sky130_fd_sc_hd__dfrtp_2
*CAP
1 *3617:D 0
2 *3622:B2 0
3 *4259:A 6.34506e-05
4 *4057:Q 0.000191674
5 *969:14 0.000172837
6 *969:10 0.00030106
7 *4057:RESET_B *969:14 0
8 *604:48 *969:10 2.24151e-05
9 *604:48 *969:14 2.24151e-05
10 *794:10 *969:14 0
11 *905:50 *969:10 0.000118351
12 *956:27 *969:14 1.01436e-05
13 *964:47 *969:10 3.70094e-05
14 *964:47 *969:14 0.000140958
15 *967:22 *969:10 8.62783e-05
*RES
1 *4057:Q *969:10 41.8321 
2 *969:10 *969:14 17.61 
3 *969:14 *4259:A 24.0979 
4 *969:14 *3622:B2 23 
5 *969:10 *3617:D 38 
*END

*D_NET *970 0.00685876
*CONN
*I *3722:A1 I *D sky130_fd_sc_hd__a21o_2
*I *3725:B1 I *D sky130_fd_sc_hd__o2111a_2
*I *3720:A I *D sky130_fd_sc_hd__nand2_2
*I *3723:A I *D sky130_fd_sc_hd__and3_2
*I *3710:B I *D sky130_fd_sc_hd__xnor2_2
*I *3719:A I *D sky130_fd_sc_hd__or2_2
*I *3906:Q O *D sky130_fd_sc_hd__dfrtp_2
*CAP
1 *3722:A1 0
2 *3725:B1 0.000124251
3 *3720:A 0
4 *3723:A 2.7243e-05
5 *3710:B 0.000448545
6 *3719:A 0.000254809
7 *3906:Q 0
8 *970:77 0.000332457
9 *970:53 0.00010121
10 *970:47 0.00029597
11 *970:36 0.000148531
12 *970:23 0.00078869
13 *970:4 0.000876631
14 *3719:A *971:20 2.64616e-05
15 *3725:B1 *972:12 9.41704e-05
16 *3725:B1 *972:26 4.08664e-05
17 *970:23 *971:20 6.25829e-05
18 *970:36 *3723:B 3.75388e-05
19 *970:47 *3723:B 8.48502e-06
20 *970:47 *972:26 9.41704e-05
21 *970:53 *971:20 8.72173e-05
22 *970:53 *972:26 6.32688e-05
23 *970:77 *3722:B1 6.17437e-06
24 *970:77 *3726:A 1.21972e-05
25 *970:77 *971:20 0.000123657
26 *970:77 *971:44 4.96264e-05
27 *970:77 *972:47 0.000398655
28 *3719:B *3719:A 0.000428937
29 *3719:B *970:23 0.00013463
30 *3719:B *970:77 8.80821e-05
31 *3720:B *970:23 3.35885e-06
32 *3720:B *970:53 9.20311e-06
33 *3721:A *970:77 0.000151657
34 *3723:C *970:23 2.24608e-05
35 *576:10 *3710:B 5.70419e-05
36 *582:29 *3719:A 2.93747e-05
37 *582:31 *3719:A 0.000139774
38 *582:33 *3719:A 6.17437e-06
39 *583:16 *970:23 7.48025e-05
40 *584:12 *3719:A 4.5051e-05
41 *584:12 *970:77 1.21972e-05
42 *585:14 *970:53 0.000218943
43 *587:8 *970:23 0.000231584
44 *588:12 *3710:B 0.000571494
45 *588:12 *3723:A 4.00259e-06
46 *588:12 *970:36 7.53542e-05
47 *588:12 *970:47 5.12254e-05
48 *632:12 *970:23 0
49 *875:58 *970:53 0
*RES
1 *3906:Q *970:4 23 
2 *970:4 *3719:A 29.3593 
3 *970:4 *970:23 37.1464 
4 *970:23 *3710:B 33.6264 
5 *970:23 *970:36 1.87464 
6 *970:36 *3723:A 23.5075 
7 *970:36 *970:47 1.57429 
8 *970:47 *970:53 33.3143 
9 *970:53 *3720:A 23 
10 *970:47 *3725:B1 25.0507 
11 *970:4 *970:77 38.4721 
12 *970:77 *3722:A1 23 
*END

*D_NET *971 0.00743341
*CONN
*I *3712:B I *D sky130_fd_sc_hd__xnor2_2
*I *3722:B1 I *D sky130_fd_sc_hd__a21o_2
*I *3725:C1 I *D sky130_fd_sc_hd__o2111a_2
*I *3723:B I *D sky130_fd_sc_hd__and3_2
*I *3907:Q O *D sky130_fd_sc_hd__dfrtp_2
*CAP
1 *3712:B 0
2 *3722:B1 3.09128e-05
3 *3725:C1 0
4 *3723:B 0.000157596
5 *3907:Q 0.000406694
6 *971:59 0.000965215
7 *971:44 0.00111423
8 *971:37 0.000178395
9 *971:22 0.000335991
10 *971:20 0.000526072
11 *971:8 0.00105087
12 *3722:B1 *3726:A 9.84851e-05
13 *3723:B *972:26 2.64616e-05
14 *971:20 *972:26 6.25829e-05
15 *971:20 *972:47 0.000114074
16 *971:37 *972:8 6.16531e-05
17 *971:37 *972:12 2.02872e-05
18 *971:37 *972:26 4.67488e-05
19 *971:44 *972:47 1.69668e-05
20 *971:59 *972:47 9.48381e-06
21 *3678:A1 *971:59 3.7122e-06
22 *3715:A1 *971:59 0.000111158
23 *3718:B *971:37 0
24 *3719:A *971:20 2.64616e-05
25 *3719:B *971:20 0.000138579
26 *3720:B *971:20 1.86371e-05
27 *3721:A *3722:B1 3.97681e-05
28 *3726:B *971:20 7.98155e-05
29 *3726:B *971:44 0
30 *3906:RESET_B *971:8 3.7122e-06
31 *3907:RESET_B *971:8 3.34395e-05
32 *300:10 *971:59 5.41288e-05
33 *314:10 *971:59 4.07715e-05
34 *359:125 *971:59 3.70094e-05
35 *579:10 *971:59 0.000189184
36 *582:23 *971:59 0
37 *583:12 *971:20 2.31209e-05
38 *583:16 *971:20 9.94477e-05
39 *585:14 *971:20 0.000111699
40 *585:14 *971:37 0.000114092
41 *585:14 *971:59 0
42 *587:8 *971:20 3.56433e-05
43 *623:115 *971:59 0
44 *632:32 *971:59 0
45 *641:10 *971:59 0
46 *705:10 *971:59 0.000512078
47 *871:8 *971:59 0
48 *916:32 *971:8 0.000162955
49 *936:12 *971:59 0
50 *970:23 *971:20 6.25829e-05
51 *970:36 *3723:B 3.75388e-05
52 *970:47 *3723:B 8.48502e-06
53 *970:53 *971:20 8.72173e-05
54 *970:77 *3722:B1 6.17437e-06
55 *970:77 *971:20 0.000123657
56 *970:77 *971:44 4.96264e-05
*RES
1 *3907:Q *971:8 43.3857 
2 *971:8 *971:20 42.6979 
3 *971:20 *971:22 15 
4 *971:22 *3723:B 25.0507 
5 *971:22 *971:37 33.1279 
6 *971:37 *3725:C1 23 
7 *971:8 *971:44 2.25786 
8 *971:44 *3722:B1 39.0979 
9 *971:44 *971:59 35.5693 
10 *971:59 *3712:B 23 
*END

*D_NET *972 0.00565011
*CONN
*I *3726:A I *D sky130_fd_sc_hd__or2_2
*I *3725:D1 I *D sky130_fd_sc_hd__o2111a_2
*I *3708:B I *D sky130_fd_sc_hd__xnor2_2
*I *3908:Q O *D sky130_fd_sc_hd__dfrtp_2
*CAP
1 *3726:A 0.000249233
2 *3725:D1 0
3 *3708:B 0
4 *3908:Q 0.000434627
5 *972:47 0.000580071
6 *972:26 0.00094117
7 *972:12 0.000987608
8 *972:8 0.000150227
9 *972:8 *999:14 0
10 *3719:B *972:47 2.13834e-05
11 *3720:B *972:26 0.000194318
12 *3721:A *3726:A 7.73735e-05
13 *3722:B1 *3726:A 9.84851e-05
14 *3723:B *972:26 2.64616e-05
15 *3725:B1 *972:12 9.41704e-05
16 *3725:B1 *972:26 4.08664e-05
17 *583:6 *972:47 5.50106e-05
18 *583:12 *972:47 9.58714e-05
19 *585:14 *972:8 5.20202e-05
20 *585:14 *972:47 0.00063935
21 *586:10 *3726:A 8.06804e-06
22 *774:10 *972:26 3.7122e-06
23 *970:47 *972:26 9.41704e-05
24 *970:53 *972:26 6.32688e-05
25 *970:77 *3726:A 1.21972e-05
26 *970:77 *972:47 0.000398655
27 *971:20 *972:26 6.25829e-05
28 *971:20 *972:47 0.000114074
29 *971:37 *972:8 6.16531e-05
30 *971:37 *972:12 2.02872e-05
31 *971:37 *972:26 4.67488e-05
32 *971:44 *972:47 1.69668e-05
33 *971:59 *972:47 9.48381e-06
*RES
1 *3908:Q *972:8 40.2579 
2 *972:8 *972:12 16.0979 
3 *972:12 *972:26 48.3114 
4 *972:26 *3708:B 23 
5 *972:12 *3725:D1 23 
6 *3908:Q *972:47 48.1707 
7 *972:47 *3726:A 42.4329 
*END

*D_NET *973 0.00707803
*CONN
*I *3728:A I *D sky130_fd_sc_hd__nand2_2
*I *3729:A I *D sky130_fd_sc_hd__or2_2
*I *3707:B I *D sky130_fd_sc_hd__xnor2_2
*I *3732:A I *D sky130_fd_sc_hd__and3_2
*I *3731:A1 I *D sky130_fd_sc_hd__a21o_2
*I *3735:A I *D sky130_fd_sc_hd__and4_2
*I *3909:Q O *D sky130_fd_sc_hd__dfrtp_2
*CAP
1 *3728:A 7.96871e-05
2 *3729:A 0
3 *3707:B 0.000632654
4 *3732:A 0.000331713
5 *3731:A1 0.000156426
6 *3735:A 2.9163e-05
7 *3909:Q 4.5609e-05
8 *973:66 0.000279919
9 *973:25 0.000943486
10 *973:12 0.000590338
11 *973:10 0.00119252
12 *973:6 0.000699876
13 *3707:B *3709:B 0
14 *3707:B *975:21 0
15 *3732:A *3732:B 6.72872e-05
16 *3712:A *3707:B 0
17 *3715:A2 *3728:A 9.67842e-05
18 *3717:A2 *973:66 0.000199169
19 *3728:B *3728:A 9.62764e-05
20 *3732:C *3732:A 0.000173274
21 *3735:D *3735:A 0.000142577
22 *3735:D *973:25 0
23 *3735:D *973:66 0.000123439
24 *3907:CLK *3732:A 1.24376e-05
25 *3909:RESET_B *973:66 0
26 *573:8 *3707:B 8.62876e-05
27 *578:10 *3707:B 3.7122e-06
28 *588:29 *3731:A1 0
29 *588:49 *3731:A1 0
30 *588:49 *973:25 0
31 *588:49 *973:66 6.07611e-06
32 *588:58 *973:25 0
33 *588:58 *973:66 3.31127e-05
34 *591:10 *973:66 2.95125e-05
35 *593:6 *3732:A 2.93335e-05
36 *593:27 *3732:A 4.79008e-05
37 *619:6 *3732:A 5.50049e-05
38 *619:14 *3731:A1 0.000166513
39 *619:34 *3731:A1 3.47781e-05
40 *619:34 *973:25 0.000206568
41 *619:51 *973:25 0.000195248
42 *619:87 *3732:A 5.3304e-05
43 *646:61 *3707:B 0
44 *739:18 *3707:B 0
45 *871:22 *3735:A 5.72041e-05
46 *916:32 *3732:A 0.000180841
*RES
1 *3909:Q *973:6 23.6214 
2 *973:6 *973:10 20.8621 
3 *973:10 *973:12 1.55357 
4 *973:12 *3735:A 39.5743 
5 *973:12 *973:25 9.21786 
6 *973:25 *3731:A1 40.61 
7 *973:25 *3732:A 46.3064 
8 *973:10 *3707:B 48.3157 
9 *973:6 *973:66 35.075 
10 *973:66 *3729:A 23 
11 *973:66 *3728:A 25.0507 
*END

*D_NET *974 0.00462818
*CONN
*I *3735:B I *D sky130_fd_sc_hd__and4_2
*I *3732:B I *D sky130_fd_sc_hd__and3_2
*I *3731:B1 I *D sky130_fd_sc_hd__a21o_2
*I *3705:B I *D sky130_fd_sc_hd__xnor2_2
*I *3910:Q O *D sky130_fd_sc_hd__dfrtp_2
*CAP
1 *3735:B 0.000394488
2 *3732:B 0.000231015
3 *3731:B1 0.000103359
4 *3705:B 0.000190875
5 *3910:Q 0.000185166
6 *974:12 0.000515166
7 *974:10 0.000580793
8 *974:8 0.000708499
9 *3735:B *975:10 0.000179062
10 *3735:B *975:21 4.6318e-06
11 *3714:B *3705:B 3.22465e-05
12 *3732:A *3732:B 6.72872e-05
13 *3733:C *3731:B1 6.10662e-05
14 *3912:RESET_B *974:8 0.000138275
15 *319:10 *3731:B1 0.000146195
16 *320:10 *3735:B 0.000240721
17 *582:33 *3731:B1 0.000171417
18 *582:44 *3731:B1 1.24376e-05
19 *593:6 *3732:B 0.000144494
20 *593:27 *3732:B 9.77405e-05
21 *593:27 *3735:B 9.69326e-05
22 *593:27 *974:10 0.00010403
23 *593:27 *974:12 1.58805e-05
24 *604:30 *3705:B 0.000113624
25 *604:30 *974:12 9.27814e-05
*RES
1 *3910:Q *974:8 40.5271 
2 *974:8 *974:10 2.96214 
3 *974:10 *974:12 4.01857 
4 *974:12 *3705:B 41.5836 
5 *974:12 *3731:B1 41.9771 
6 *974:10 *3732:B 41.48 
7 *974:8 *3735:B 45.2914 
*END

*D_NET *975 0.00253765
*CONN
*I *3709:B I *D sky130_fd_sc_hd__xnor2_2
*I *3734:A I *D sky130_fd_sc_hd__or2_2
*I *3735:C I *D sky130_fd_sc_hd__and4_2
*I *3911:Q O *D sky130_fd_sc_hd__dfrtp_2
*CAP
1 *3709:B 0.000125419
2 *3734:A 0
3 *3735:C 5.48126e-05
4 *3911:Q 0.000388389
5 *975:21 0.000200666
6 *975:10 0.000518449
7 *3707:B *3709:B 0
8 *3707:B *975:21 0
9 *3735:B *975:10 0.000179062
10 *3735:B *975:21 4.6318e-06
11 *3735:D *3735:C 5.56356e-05
12 *3736:C *3735:C 5.3304e-05
13 *593:27 *975:10 0.000190227
14 *593:27 *975:21 0.000127272
15 *594:10 *975:21 0.000114083
16 *619:51 *975:10 0.00021823
17 *739:18 *3709:B 0.000166532
18 *871:22 *3735:C 0.000140935
*RES
1 *3911:Q *975:10 45.0429 
2 *975:10 *3735:C 39.5743 
3 *975:10 *975:21 2.25786 
4 *975:21 *3734:A 38 
5 *975:21 *3709:B 40.9621 
*END

*D_NET *976 0.00440969
*CONN
*I *3741:A I *D sky130_fd_sc_hd__nand3_2
*I *3740:A1 I *D sky130_fd_sc_hd__a21o_2
*I *3737:A I *D sky130_fd_sc_hd__or2_2
*I *3706:B I *D sky130_fd_sc_hd__xnor2_2
*I *3738:A I *D sky130_fd_sc_hd__nand2_2
*I *3912:Q O *D sky130_fd_sc_hd__dfrtp_2
*CAP
1 *3741:A 0
2 *3740:A1 0.000402433
3 *3737:A 3.30031e-05
4 *3706:B 0.000309887
5 *3738:A 2.34823e-05
6 *3912:Q 0.000341354
7 *976:61 0.000204847
8 *976:23 0.000438157
9 *976:21 0.000716591
10 *976:8 0.00037888
11 *976:61 *3711:B 4.21594e-06
12 *976:61 *977:25 2.72055e-05
13 *3705:A *3706:B 0.000192087
14 *3710:A *3706:B 9.58714e-05
15 *3740:A2 *3740:A1 0.0001396
16 *3912:RESET_B *976:8 6.32777e-05
17 *3912:RESET_B *976:21 2.02872e-05
18 *4311:A *3706:B 6.78359e-05
19 *572:8 *3706:B 3.98887e-05
20 *582:44 *3737:A 2.93431e-05
21 *582:59 *3740:A1 5.50106e-05
22 *582:74 *3740:A1 0.000127821
23 *582:74 *976:21 1.12487e-05
24 *582:74 *976:61 0
25 *595:24 *976:21 5.3304e-05
26 *595:24 *976:61 0
27 *595:30 *976:21 0.000219891
28 *595:47 *3740:A1 2.18409e-05
29 *595:47 *976:21 2.8183e-05
30 *595:47 *976:23 5.12512e-05
31 *595:63 *976:61 0
32 *597:8 *3706:B 0
33 *597:8 *976:23 0
34 *598:8 *3740:A1 1.14762e-05
35 *599:8 *976:61 0.000301419
*RES
1 *3912:Q *976:8 25.5479 
2 *976:8 *3738:A 23.4971 
3 *976:8 *976:21 19.7643 
4 *976:21 *976:23 1.90571 
5 *976:23 *3706:B 44.8771 
6 *976:23 *3737:A 38.6214 
7 *976:21 *3740:A1 43.8621 
8 *3912:Q *976:61 43.075 
9 *976:61 *3741:A 38 
*END

*D_NET *977 0.00341976
*CONN
*I *3711:B I *D sky130_fd_sc_hd__xnor2_2
*I *3741:B I *D sky130_fd_sc_hd__nand3_2
*I *3740:B1 I *D sky130_fd_sc_hd__a21o_2
*I *3913:Q O *D sky130_fd_sc_hd__dfrtp_2
*CAP
1 *3711:B 0.000243989
2 *3741:B 0
3 *3740:B1 0
4 *3913:Q 0.00038784
5 *977:25 0.000477181
6 *977:14 0.000273132
7 *977:6 0.000894164
8 *3913:RESET_B *977:14 0.00014411
9 *322:8 *977:14 0
10 *598:8 *977:14 2.93747e-05
11 *599:8 *977:14 0
12 *599:8 *977:25 4.08641e-05
13 *619:59 *977:6 0.000289852
14 *619:59 *977:25 9.74722e-05
15 *803:8 *3711:B 0
16 *870:16 *3711:B 0.000249918
17 *909:63 *3711:B 0
18 *909:63 *977:14 0.000123282
19 *909:63 *977:25 0
20 *916:77 *977:14 0.000137163
21 *976:61 *3711:B 4.21594e-06
22 *976:61 *977:25 2.72055e-05
*RES
1 *3913:Q *977:6 28.8621 
2 *977:6 *977:14 37.4571 
3 *977:14 *3740:B1 23 
4 *977:6 *977:25 19.3086 
5 *977:25 *3741:B 38 
6 *977:25 *3711:B 43.4271 
*END

*D_NET *978 0.00458398
*CONN
*I *3686:A2 I *D sky130_fd_sc_hd__a21o_2
*I *4275:A I *D sky130_fd_sc_hd__dlygate4sd3_1
*I *3342:A I *D sky130_fd_sc_hd__inv_2
*I *3896:Q O *D sky130_fd_sc_hd__dfrtp_2
*CAP
1 *3686:A2 0
2 *4275:A 0
3 *3342:A 0
4 *3896:Q 0.000181718
5 *978:26 0.000158229
6 *978:18 0.00110888
7 *978:10 0.00113236
8 *978:10 *1067:42 0.000309503
9 *978:18 *3451:A2 1.76557e-05
10 *978:18 *1003:76 9.32157e-05
11 *978:18 *1067:42 0.000191157
12 *978:26 *1003:76 9.84851e-05
13 *3451:A1 *978:18 1.48719e-05
14 *3468:B2 *978:18 1.21972e-05
15 *4256:A *978:18 0.00031495
16 *78:8 *978:18 0.000262864
17 *616:29 *978:26 0
18 *616:46 *978:26 0
19 *617:124 *978:10 0.000320519
20 *617:124 *978:18 0.000191157
21 *638:59 *978:18 1.59094e-05
22 *756:8 *978:26 1.62015e-05
23 *757:8 *978:26 0.00014411
*RES
1 *3896:Q *978:10 42.9921 
2 *978:10 *978:18 30.9914 
3 *978:18 *978:26 34.06 
4 *978:26 *3342:A 23 
5 *978:18 *4275:A 23 
6 *978:10 *3686:A2 38 
*END

*D_NET *979 0.000741424
*CONN
*I *4201:A I *D sky130_fd_sc_hd__dlygate4sd3_1
*I *3927:Q O *D sky130_fd_sc_hd__dfrtp_2
*CAP
1 *4201:A 0
2 *3927:Q 0.000310111
3 *979:10 0.000310111
4 *4264:A *979:10 5.41385e-05
5 *603:13 *979:10 0
6 *766:6 *979:10 1.40958e-05
7 *766:14 *979:10 5.29672e-05
*RES
1 *3927:Q *979:10 42.9093 
2 *979:10 *4201:A 38 
*END

*D_NET *980 0.00362285
*CONN
*I *4263:A I *D sky130_fd_sc_hd__dlygate4sd3_1
*I *3332:A I *D sky130_fd_sc_hd__inv_2
*I *3680:B2 I *D sky130_fd_sc_hd__a2bb2o_2
*I *4020:Q O *D sky130_fd_sc_hd__dfrtp_2
*CAP
1 *4263:A 0.000288002
2 *3332:A 0.000101811
3 *3680:B2 0.000390896
4 *4020:Q 0.000389844
5 *980:25 0.000389813
6 *980:12 0.00078074
7 *3332:A *1006:14 5.3304e-05
8 *3680:B2 *3456:A1 0
9 *3680:B2 *1003:61 0.000139357
10 *3680:B2 *1006:10 0.000111852
11 *3680:B2 *1006:22 0.000144211
12 *4263:A *1006:14 0.000137651
13 *980:12 *1006:10 1.12487e-05
14 *980:12 *1006:22 1.58805e-05
15 *3455:A2 *3332:A 6.75128e-05
16 *3781:B1 *980:12 0
17 *3828:B1 *4263:A 4.79641e-05
18 *4020:RESET_B *980:12 4.19048e-05
19 *79:10 *3680:B2 7.8128e-05
20 *374:32 *3680:B2 0
21 *651:34 *3332:A 0.000116864
22 *651:34 *4263:A 0.000144067
23 *736:23 *3332:A 2.69857e-05
24 *736:23 *3680:B2 0.000144812
25 *837:10 *3680:B2 0
*RES
1 *4020:Q *980:12 43.7586 
2 *980:12 *3680:B2 47.8186 
3 *980:12 *980:25 15 
4 *980:25 *3332:A 25.6929 
5 *980:25 *4263:A 28.8829 
*END

*D_NET *981 0.0160921
*CONN
*I *3330:A I *D sky130_fd_sc_hd__inv_2
*I *3685:B2 I *D sky130_fd_sc_hd__a22o_2
*I *3404:B I *D sky130_fd_sc_hd__and2_2
*I *3448:A I *D sky130_fd_sc_hd__and4_2
*I *3687:A2 I *D sky130_fd_sc_hd__a221o_2
*I *3639:A0 I *D sky130_fd_sc_hd__mux2_1
*I *3867:Q O *D sky130_fd_sc_hd__dfrtp_2
*CAP
1 *3330:A 6.42123e-05
2 *3685:B2 0.000127007
3 *3404:B 3.91155e-05
4 *3448:A 0.00032017
5 *3687:A2 4.65678e-06
6 *3639:A0 0
7 *3867:Q 0
8 *981:84 0.000740987
9 *981:76 0.000763664
10 *981:65 0.000714101
11 *981:39 0.000368915
12 *981:27 0.000775364
13 *981:23 0.00122238
14 *981:10 0.00156511
15 *981:4 0.00102319
16 *3687:A2 *3690:A1 1.46586e-05
17 *981:23 *3445:A 0.000312454
18 *981:39 *3464:A 0.000121387
19 *981:39 *3689:A1 1.0092e-05
20 *981:39 *1002:51 0.000174542
21 *981:65 *989:20 5.60843e-05
22 *981:65 *1015:20 0.000106005
23 *981:76 *989:20 1.06805e-05
24 *981:84 *4325:A 0.000147656
25 *3404:A *3330:A 0.000157134
26 *3404:A *3404:B 1.35999e-05
27 *3404:A *981:76 0.000198447
28 *3464:B *981:39 9.86777e-06
29 *3639:S *981:23 0.000454246
30 *3685:A2 *981:84 3.70094e-05
31 *3867:RESET_B *981:10 0.000116314
32 *3867:RESET_B *981:23 0.000481112
33 *3946:RESET_B *3685:B2 4.2062e-05
34 *3946:RESET_B *981:84 0.000560905
35 *3962:CLK *981:10 0
36 *3962:RESET_B *981:10 0
37 *86:8 *3448:A 0
38 *109:28 *3448:A 5.01534e-05
39 *109:34 *3448:A 0.000208304
40 *109:34 *981:27 0.000135616
41 *276:8 *981:10 0
42 *303:8 *981:84 3.95159e-06
43 *363:49 *981:84 8.56839e-05
44 *428:12 *981:39 4.69418e-05
45 *431:10 *3448:A 0.000310099
46 *432:10 *3448:A 9.58714e-05
47 *434:10 *981:39 0.000141355
48 *435:8 *981:39 0.000541838
49 *560:16 *981:84 3.70094e-05
50 *561:8 *981:39 5.18573e-05
51 *605:20 *981:84 0.000191227
52 *615:8 *981:84 5.5792e-05
53 *615:20 *981:65 0.000194198
54 *615:22 *981:65 0.000246748
55 *615:33 *981:65 0.000194318
56 *615:41 *981:65 0.000186912
57 *618:109 *981:10 0
58 *618:109 *981:23 0
59 *618:134 *3448:A 0
60 *633:10 *981:23 0.000373567
61 *634:42 *3448:A 2.86967e-05
62 *634:42 *981:27 1.51481e-05
63 *634:42 *981:39 9.79925e-05
64 *638:26 *981:23 1.70419e-05
65 *638:37 *981:23 2.35536e-05
66 *649:46 *981:65 0
67 *671:10 *981:65 2.8241e-05
68 *676:24 *3685:B2 6.17437e-06
69 *676:24 *981:84 1.22906e-05
70 *691:14 *3330:A 0.00019288
71 *691:14 *981:65 0.000638348
72 *691:14 *981:76 0.000249153
73 *802:10 *981:84 0.000405796
74 *847:20 *3687:A2 8.97163e-06
75 *859:10 *981:65 0.000102696
76 *909:8 *981:23 0.000113414
77 *922:14 *981:84 0.000138859
78 *924:65 *981:39 7.15579e-05
79 *949:38 *3330:A 3.67392e-05
*RES
1 *3867:Q *981:4 23 
2 *981:4 *981:10 23.12 
3 *981:10 *3639:A0 38 
4 *981:10 *981:23 37.8479 
5 *981:23 *981:27 16.9057 
6 *981:27 *981:39 40.5436 
7 *981:39 *3687:A2 38.1709 
8 *981:27 *3448:A 44.525 
9 *981:4 *981:65 32.7107 
10 *981:65 *3404:B 38.6214 
11 *981:65 *981:76 3.31429 
12 *981:76 *981:84 46.8407 
13 *981:84 *3685:B2 40.0714 
14 *981:76 *3330:A 40.61 
*END

*D_NET *982 0.00698134
*CONN
*I *4307:A I *D sky130_fd_sc_hd__dlygate4sd3_1
*I *3477:B I *D sky130_fd_sc_hd__or2_2
*I *3478:B I *D sky130_fd_sc_hd__nand2_2
*I *3691:A0 I *D sky130_fd_sc_hd__mux2_1
*I *3856:Q O *D sky130_fd_sc_hd__dfrtp_2
*CAP
1 *4307:A 0
2 *3477:B 0
3 *3478:B 0
4 *3691:A0 0.000311576
5 *3856:Q 0.000273151
6 *982:58 0.000332133
7 *982:48 0.000613738
8 *982:33 0.000425274
9 *982:21 0.000886848
10 *982:10 0.000764697
11 *982:10 *983:14 0.000187734
12 *982:21 *983:14 0.0003668
13 *982:33 *983:24 0.000179473
14 *982:58 *983:24 6.41036e-05
15 *3478:A *982:33 0.000137525
16 *3484:B2 *982:10 0.000189965
17 *3484:B2 *982:21 0.00033009
18 *3630:A0 *982:33 0.000274077
19 *3630:A1 *982:33 0.000118737
20 *3691:S *3691:A0 9.67842e-05
21 *3902:RESET_B *982:48 6.52749e-05
22 *3902:RESET_B *982:58 7.64944e-05
23 *47:21 *982:48 2.11066e-05
24 *435:32 *982:48 0
25 *437:16 *982:10 0.000117818
26 *437:16 *982:58 0.00016461
27 *442:14 *982:48 5.03487e-05
28 *443:8 *982:33 0.000218115
29 *839:36 *982:58 5.5792e-05
30 *841:14 *982:58 2.55628e-05
31 *841:38 *982:21 2.14599e-05
32 *841:38 *982:33 9.77405e-05
33 *841:38 *982:48 1.07299e-05
34 *908:59 *3691:A0 4.67488e-05
35 *909:33 *982:33 0.000456829
*RES
1 *3856:Q *982:10 43.1371 
2 *982:10 *3691:A0 42.4329 
3 *982:10 *982:21 5.42714 
4 *982:21 *982:33 27.3871 
5 *982:33 *3478:B 23 
6 *982:21 *982:48 19.9507 
7 *982:48 *982:58 37.6229 
8 *982:58 *3477:B 23 
9 *982:48 *4307:A 23 
*END

*D_NET *983 0.00804241
*CONN
*I *3693:A0 I *D sky130_fd_sc_hd__mux2_1
*I *3473:B I *D sky130_fd_sc_hd__or2_2
*I *4308:A I *D sky130_fd_sc_hd__dlygate4sd3_1
*I *3472:B I *D sky130_fd_sc_hd__nand2_2
*I *3857:Q O *D sky130_fd_sc_hd__dfrtp_2
*CAP
1 *3693:A0 0.000712382
2 *3473:B 0
3 *4308:A 0
4 *3472:B 0
5 *3857:Q 0
6 *983:52 3.04322e-05
7 *983:46 0.000663006
8 *983:31 0.000765439
9 *983:24 0.000461696
10 *983:14 0.0011577
11 *983:4 0.00127552
12 *3693:A0 *986:27 1.76557e-05
13 *983:24 *4318:A 5.75756e-06
14 *3484:A2 *983:14 0
15 *3484:B2 *983:14 3.72639e-05
16 *3902:RESET_B *983:24 3.78727e-05
17 *312:10 *983:46 4.2812e-06
18 *427:67 *3693:A0 1.21972e-05
19 *435:32 *983:31 6.17437e-06
20 *435:32 *983:46 1.41129e-05
21 *437:8 *983:24 3.7122e-06
22 *438:8 *983:46 0.000185368
23 *442:14 *983:24 0.000444073
24 *443:8 *983:24 0.000137525
25 *565:14 *983:52 2.8133e-05
26 *567:16 *983:46 2.04346e-05
27 *814:10 *983:24 2.02872e-05
28 *841:38 *983:24 2.02872e-05
29 *841:38 *983:31 0.000125234
30 *841:38 *983:46 0.000784289
31 *849:14 *3693:A0 9.5877e-05
32 *853:10 *983:24 4.82016e-05
33 *853:22 *983:52 6.12392e-05
34 *908:59 *983:14 4.82586e-05
35 *908:122 *983:14 0
36 *909:33 *983:46 1.98991e-05
37 *982:10 *983:14 0.000187734
38 *982:21 *983:14 0.0003668
39 *982:33 *983:24 0.000179473
40 *982:58 *983:24 6.41036e-05
*RES
1 *3857:Q *983:4 23 
2 *983:4 *983:14 41.1236 
3 *983:14 *983:24 40.7093 
4 *983:24 *3472:B 23 
5 *983:14 *983:31 2.52714 
6 *983:31 *4308:A 23 
7 *983:31 *983:46 41.02 
8 *983:46 *983:52 30.8493 
9 *983:52 *3473:B 23 
10 *983:4 *3693:A0 31.7207 
*END

*D_NET *984 0.00163399
*CONN
*I *4317:A I *D sky130_fd_sc_hd__dlygate4sd3_1
*I *3695:A0 I *D sky130_fd_sc_hd__mux2_1
*I *3476:B I *D sky130_fd_sc_hd__xor2_2
*I *3858:Q O *D sky130_fd_sc_hd__dfrtp_2
*CAP
1 *4317:A 0.000249044
2 *3695:A0 0.000301079
3 *3476:B 0.00032079
4 *3858:Q 0
5 *984:6 0.000372825
6 *3476:A *4317:A 4.70852e-05
7 *37:9 *3695:A0 1.12487e-05
8 *37:17 *3695:A0 0
9 *427:55 *4317:A 5.50049e-05
10 *447:14 *3695:A0 5.56279e-05
11 *850:26 *3695:A0 5.16099e-05
12 *854:26 *3476:B 0
13 *854:26 *3695:A0 0
14 *912:10 *3476:B 0.00014411
15 *912:10 *3695:A0 2.55642e-05
16 *912:35 *3695:A0 0
*RES
1 *3858:Q *984:6 38 
2 *984:6 *3476:B 16.9057 
3 *984:6 *3695:A0 42.9921 
4 *3476:B *4317:A 27.3604 
*END

*D_NET *985 0.00394642
*CONN
*I *3697:A0 I *D sky130_fd_sc_hd__mux2_1
*I *4318:A I *D sky130_fd_sc_hd__dlygate4sd3_1
*I *3479:B I *D sky130_fd_sc_hd__xor2_2
*I *3859:Q O *D sky130_fd_sc_hd__dfrtp_2
*CAP
1 *3697:A0 0.000640869
2 *4318:A 0.000116029
3 *3479:B 0.0001788
4 *3859:Q 9.33994e-05
5 *985:8 0.000294829
6 *985:6 0.000734269
7 *3697:A1 *3697:A0 0.00077967
8 *3859:RESET_B *985:6 5.3304e-05
9 *3902:RESET_B *4318:A 0.000242595
10 *442:14 *3479:B 1.69668e-05
11 *442:14 *4318:A 1.06805e-05
12 *444:10 *3479:B 0.000138444
13 *620:21 *3697:A0 1.21972e-05
14 *620:21 *985:6 1.21972e-05
15 *814:10 *4318:A 8.71399e-05
16 *852:20 *3479:B 0.000242565
17 *852:20 *4318:A 3.70187e-05
18 *908:73 *3479:B 8.85685e-05
19 *913:44 *3479:B 0.000136486
20 *913:44 *4318:A 2.46345e-05
21 *983:24 *4318:A 5.75756e-06
*RES
1 *3859:Q *985:6 24.0979 
2 *985:6 *985:8 15 
3 *985:8 *3479:B 20.3132 
4 *985:8 *4318:A 41.6664 
5 *985:6 *3697:A0 32.1971 
*END

*D_NET *986 0.00403543
*CONN
*I *3482:B I *D sky130_fd_sc_hd__xor2_2
*I *3699:A0 I *D sky130_fd_sc_hd__mux2_1
*I *4321:A I *D sky130_fd_sc_hd__dlygate4sd3_1
*I *3860:Q O *D sky130_fd_sc_hd__dfrtp_2
*CAP
1 *3482:B 0.000297748
2 *3699:A0 0
3 *4321:A 0.000152258
4 *3860:Q 0.000360309
5 *986:27 0.000497338
6 *986:10 0.000712157
7 *3631:A0 *3482:B 0.00010404
8 *3693:A0 *986:27 1.76557e-05
9 *46:15 *4321:A 0.000168717
10 *427:55 *3482:B 4.34745e-05
11 *427:55 *986:27 0.00010018
12 *427:61 *986:27 0.000305096
13 *427:67 *986:10 4.60263e-05
14 *564:8 *3482:B 0.00017761
15 *568:12 *3482:B 0.000376093
16 *568:12 *986:27 7.53384e-06
17 *620:58 *3482:B 0.000184168
18 *849:14 *4321:A 0.000153121
19 *849:14 *986:10 5.18291e-05
20 *849:14 *986:27 2.93845e-05
21 *853:22 *986:27 5.70419e-05
22 *912:35 *3482:B 5.60728e-05
23 *913:27 *986:10 0.000137572
*RES
1 *3860:Q *986:10 43.2614 
2 *986:10 *4321:A 40.61 
3 *986:10 *986:27 21.5043 
4 *986:27 *3699:A0 23 
5 *986:27 *3482:B 38.5239 
*END

*D_NET *987 0.00334909
*CONN
*I *4295:A I *D sky130_fd_sc_hd__dlygate4sd3_1
*I *3481:B I *D sky130_fd_sc_hd__nand2_2
*I *3480:B I *D sky130_fd_sc_hd__or2_2
*I *3701:A0 I *D sky130_fd_sc_hd__mux2_1
*I *3861:Q O *D sky130_fd_sc_hd__dfrtp_2
*CAP
1 *4295:A 0.000124452
2 *3481:B 0
3 *3480:B 0
4 *3701:A0 0
5 *3861:Q 0.000467444
6 *987:38 0.000150276
7 *987:32 0.000317201
8 *987:23 0.000257607
9 *987:10 0.000682578
10 *3481:A *987:38 0.000239188
11 *3704:B2 *987:10 2.71291e-05
12 *3704:B2 *987:23 8.05114e-05
13 *3704:B2 *987:38 0
14 *3861:RESET_B *987:10 3.5895e-05
15 *4113:A *4295:A 0.000438468
16 *4113:A *987:23 4.95081e-05
17 *4113:A *987:32 6.09117e-05
18 *445:10 *4295:A 0.000312348
19 *632:65 *987:10 3.39231e-05
20 *845:10 *987:10 0
21 *845:10 *987:23 0
22 *855:10 *987:10 3.98859e-05
23 *909:25 *987:23 3.17634e-05
*RES
1 *3861:Q *987:10 44.6907 
2 *987:10 *3701:A0 38 
3 *987:10 *987:23 19.3086 
4 *987:23 *3480:B 23 
5 *987:23 *987:32 1.11857 
6 *987:32 *987:38 33.3143 
7 *987:38 *3481:B 23 
8 *987:32 *4295:A 27.9093 
*END

*D_NET *988 0.00428509
*CONN
*I *4296:A I *D sky130_fd_sc_hd__dlygate4sd3_1
*I *3474:B I *D sky130_fd_sc_hd__or2_2
*I *3703:A0 I *D sky130_fd_sc_hd__mux2_1
*I *3475:B I *D sky130_fd_sc_hd__nand2_2
*I *3862:Q O *D sky130_fd_sc_hd__dfrtp_2
*CAP
1 *4296:A 0
2 *3474:B 6.08753e-05
3 *3703:A0 0.000425209
4 *3475:B 0.000176325
5 *3862:Q 0.000232368
6 *988:57 0.000267854
7 *988:29 0.000536364
8 *988:12 0.000491808
9 *988:6 0.000765426
10 *3483:A2 *3475:B 9.67842e-05
11 *3483:A2 *3703:A0 4.01374e-05
12 *3483:B1 *3703:A0 2.64616e-05
13 *3483:B2 *3703:A0 2.93845e-05
14 *3633:A0 *988:57 0.000143655
15 *3862:CLK *988:6 3.16784e-05
16 *3862:CLK *988:12 3.3577e-05
17 *3862:RESET_B *988:6 0.000137039
18 *3977:CLK *3475:B 2.53879e-05
19 *427:20 *3474:B 5.56203e-05
20 *427:20 *3475:B 9.67842e-05
21 *427:20 *3703:A0 6.00393e-05
22 *427:20 *988:12 1.58805e-05
23 *427:20 *988:29 4.18957e-05
24 *427:29 *3703:A0 7.44257e-05
25 *439:10 *3474:B 3.04021e-05
26 *439:10 *988:29 1.19692e-05
27 *846:10 *988:57 1.83564e-05
28 *846:23 *988:12 7.17979e-05
29 *846:23 *988:57 0.000139058
30 *847:20 *988:12 0
31 *847:20 *988:29 0
32 *847:20 *988:57 0
33 *908:16 *988:57 0.000148524
*RES
1 *3862:Q *988:6 26.48 
2 *988:6 *988:12 19.7643 
3 *988:12 *3475:B 42.0186 
4 *988:12 *988:29 1.20143 
5 *988:29 *3703:A0 43.8621 
6 *988:29 *3474:B 39.5536 
7 *988:6 *988:57 36.4836 
8 *988:57 *4296:A 23 
*END

*D_NET *989 0.00501806
*CONN
*I *4279:A I *D sky130_fd_sc_hd__dlygate4sd3_1
*I *3460:A_N I *D sky130_fd_sc_hd__and3b_2
*I *3965:Q O *D sky130_fd_sc_hd__dfrtp_2
*CAP
1 *4279:A 0
2 *3460:A_N 0
3 *3965:Q 2.32289e-05
4 *989:26 0.000654988
5 *989:20 0.00158435
6 *989:8 0.000952591
7 *989:26 *3519:A 0.000150878
8 *989:26 *1001:21 0.000107548
9 *989:26 *1001:32 7.80354e-05
10 *989:26 *1001:43 9.27814e-05
11 *989:26 *1001:54 7.55491e-05
12 *989:26 *1001:62 1.83667e-05
13 *3404:A *989:20 0.000174376
14 *3443:C *989:20 2.4754e-05
15 *3454:A1 *989:26 0
16 *3965:RESET_B *989:8 5.41288e-05
17 *426:10 *989:20 0.000310647
18 *615:20 *989:20 9.12802e-05
19 *615:22 *989:20 0.000115299
20 *615:33 *989:20 4.6318e-06
21 *615:97 *989:20 0.00016534
22 *646:8 *989:20 0
23 *691:10 *989:26 0
24 *691:14 *989:26 0
25 *750:10 *989:26 0
26 *828:26 *989:20 1.05658e-05
27 *872:6 *989:8 5.70419e-05
28 *949:25 *989:26 0
29 *949:38 *989:20 0.000204919
30 *981:65 *989:20 5.60843e-05
31 *981:76 *989:20 1.06805e-05
*RES
1 *3965:Q *989:8 39.0979 
2 *989:8 *989:20 36.9157 
3 *989:20 *989:26 43.8786 
4 *989:26 *3460:A_N 23 
5 *989:20 *4279:A 23 
*END

*D_NET *990 0.00991539
*CONN
*I *4325:A I *D sky130_fd_sc_hd__dlygate4sd3_1
*I *4330:A I *D sky130_fd_sc_hd__dlygate4sd3_1
*I *3341:A I *D sky130_fd_sc_hd__inv_2
*I *3460:B I *D sky130_fd_sc_hd__and3b_2
*I *3971:Q O *D sky130_fd_sc_hd__dfrtp_2
*CAP
1 *4325:A 0.000281339
2 *4330:A 0.000112137
3 *3341:A 0
4 *3460:B 9.07745e-05
5 *3971:Q 0.000171142
6 *990:35 0.000534485
7 *990:18 0.00126551
8 *990:12 0.000861423
9 *990:10 0.00102556
10 *990:8 0.000806332
11 *990:10 *3653:B 0.00039859
12 *990:10 *1023:10 0.000193873
13 *990:12 *1023:10 0.000150033
14 *990:18 *1001:43 0
15 *990:18 *1003:18 4.58635e-05
16 *3443:B *990:18 0.000163168
17 *3454:A1 *990:18 0.000302348
18 *3945:CLK *990:35 9.67842e-05
19 *4088:A *990:18 0.000106527
20 *4380:A *990:10 3.5717e-05
21 *111:10 *990:35 0.000348456
22 *374:12 *990:35 5.50106e-05
23 *433:10 *3460:B 3.16665e-05
24 *433:10 *990:35 1.5769e-05
25 *433:38 *990:35 5.78606e-05
26 *605:20 *990:12 0.000166233
27 *605:20 *990:18 0.000135003
28 *615:41 *990:8 8.1947e-05
29 *615:84 *990:18 0
30 *615:121 *4330:A 0.000179725
31 *616:10 *990:35 0.000123944
32 *616:72 *990:35 7.53384e-06
33 *649:10 *990:10 2.22183e-05
34 *649:36 *990:8 7.80291e-05
35 *650:10 *990:10 0
36 *650:17 *990:10 0
37 *695:10 *990:10 0.000612482
38 *782:8 *990:18 0.000749593
39 *802:10 *4325:A 4.44894e-05
40 *838:12 *990:35 0.000168423
41 *872:14 *990:10 8.51225e-05
42 *922:14 *990:10 2.54749e-05
43 *936:58 *990:18 0.000137143
44 *981:84 *4325:A 0.000147656
*RES
1 *3971:Q *990:8 41.9564 
2 *990:8 *990:10 17.0479 
3 *990:10 *990:12 2.96214 
4 *990:12 *990:18 33.7257 
5 *990:18 *3460:B 24.0979 
6 *990:18 *990:35 40.73 
7 *990:35 *3341:A 23 
8 *990:12 *4330:A 40.0507 
9 *990:10 *4325:A 44.0071 
*END

*D_NET *991 0.00190282
*CONN
*I *4255:A I *D sky130_fd_sc_hd__dlygate4sd3_1
*I *3340:A I *D sky130_fd_sc_hd__inv_2
*I *4017:Q O *D sky130_fd_sc_hd__dfrtp_2
*CAP
1 *4255:A 0
2 *3340:A 0.000156957
3 *4017:Q 0.000366422
4 *991:10 0.000523379
5 *3340:A *1003:76 5.67058e-05
6 *991:10 *1095:10 0.000132142
7 *110:12 *3340:A 0.000129412
8 *110:12 *991:10 0.000200013
9 *236:10 *991:10 0.00033779
10 *238:10 *991:10 0
11 *756:8 *3340:A 0
*RES
1 *4017:Q *991:10 46.1614 
2 *991:10 *3340:A 41.9357 
3 *991:10 *4255:A 38 
*END

*D_NET *992 0.00762121
*CONN
*I *4168:A I *D sky130_fd_sc_hd__clkdlybuf4s25_1
*I *3976:Q O *D sky130_fd_sc_hd__dfrtp_2
*CAP
1 *4168:A 0.000331248
2 *3976:Q 0.000395382
3 *992:10 0.00195258
4 *992:8 0.00201671
5 *992:10 *1019:10 0
6 o_cmd_status_reg[6] *992:10 2.76611e-06
7 *3880:RESET_B *992:10 0.000215382
8 *4385:A *4168:A 0.000274078
9 *55:18 *992:10 3.49691e-05
10 *290:10 *992:10 0.000318008
11 *291:10 *992:10 0
12 *605:50 *992:10 0.000783406
13 *648:16 *992:10 0.000187595
14 *654:72 *992:10 0.000842453
15 *717:8 *992:10 0
16 *718:10 *992:10 0.000134385
17 *857:14 *992:10 0
18 *860:16 *4168:A 0.000132251
*RES
1 *3976:Q *992:8 42.9093 
2 *992:8 *992:10 39.2329 
3 *992:10 *4168:A 45.3121 
*END

*D_NET *993 0.0172237
*CONN
*I *3744:A1 I *D sky130_fd_sc_hd__a21o_2
*I *3319:A I *D sky130_fd_sc_hd__inv_2
*I *3528:A1 I *D sky130_fd_sc_hd__a21o_2
*I *3436:A1 I *D sky130_fd_sc_hd__a22o_2
*I *4261:A I *D sky130_fd_sc_hd__dlygate4sd3_1
*I *4252:A I *D sky130_fd_sc_hd__dlygate4sd3_1
*I *3914:Q O *D sky130_fd_sc_hd__dfrtp_2
*CAP
1 *3744:A1 0
2 *3319:A 0
3 *3528:A1 0
4 *3436:A1 0.000378693
5 *4261:A 5.85113e-05
6 *4252:A 0
7 *3914:Q 5.76812e-05
8 *993:89 0.000533407
9 *993:58 0.00121429
10 *993:46 0.00108299
11 *993:38 0.00162546
12 *993:23 0.0015296
13 *993:14 0.00127811
14 *993:6 0.00177617
15 *3436:A1 *3436:A2 7.93118e-05
16 *3436:A1 *3528:A2 0.000271476
17 *3436:A1 *1051:39 7.43025e-06
18 *3436:A1 *1051:56 1.21972e-05
19 *993:14 *1067:28 0
20 *993:14 *1093:12 1.02561e-05
21 *993:14 *1093:18 3.7282e-05
22 *993:14 *1093:32 0.000104123
23 *993:14 *1093:46 1.62615e-05
24 *993:23 *1093:46 1.69668e-05
25 *993:38 *3625:A 1.86973e-05
26 *993:38 *1093:46 4.48628e-05
27 *993:46 *4262:A 1.14452e-05
28 *993:46 *1030:42 3.71198e-05
29 *993:58 *4262:A 0.000109223
30 *993:58 *1065:10 0.000138718
31 *993:89 *1008:10 4.31263e-05
32 *3363:B1 *3436:A1 2.18506e-05
33 *3363:B1 *993:58 9.50411e-05
34 *3436:B2 *3436:A1 9.75779e-05
35 *3528:B1 *993:58 0
36 *3792:A2 *993:38 4.96264e-05
37 *3914:RESET_B *993:89 8.26569e-05
38 *3936:CLK *993:14 4.83778e-05
39 *3936:CLK *993:23 1.44546e-05
40 *3941:CLK *993:58 0.000188926
41 *3942:SET_B *993:38 0.000672538
42 *4040:CLK *993:38 0.000168975
43 *78:14 *993:14 0
44 *89:12 *993:38 0
45 *118:8 *993:58 1.83564e-05
46 *120:10 *993:14 2.19539e-05
47 *120:27 *993:14 0.000408129
48 *203:8 *993:38 0
49 *204:10 *993:38 2.70469e-05
50 *323:10 *993:89 0.00030233
51 *354:10 *993:46 5.95625e-06
52 *354:54 *993:46 2.70469e-05
53 *617:124 *993:14 0.000484255
54 *626:21 *993:58 0.000276765
55 *626:23 *993:58 0.000243587
56 *627:10 *993:23 5.86328e-05
57 *627:10 *993:38 7.38195e-05
58 *627:40 *993:38 5.48415e-05
59 *627:42 *993:38 0.000186359
60 *627:44 *993:38 0.000112087
61 *645:59 *993:38 0
62 *645:78 *993:46 7.24591e-05
63 *645:78 *993:58 1.01436e-05
64 *645:101 *993:58 0.000150613
65 *645:114 *993:58 0
66 *686:10 *993:14 0
67 *689:12 *993:46 0.000114083
68 *719:8 *993:14 0.000568708
69 *734:8 *993:14 0.000113624
70 *734:8 *993:23 8.15327e-05
71 *753:12 *993:38 0
72 *766:14 *993:14 0
73 *766:27 *993:14 0
74 *767:10 *993:14 0
75 *826:10 *993:58 0.000164291
76 *880:91 *4261:A 0.000123944
77 *892:23 *993:38 7.14186e-05
78 *892:58 *993:46 4.49769e-05
79 *892:117 *993:58 0.000154531
80 *894:72 *4261:A 0.000226306
81 *911:110 *993:14 0
82 *958:12 *993:6 3.82058e-06
83 *958:12 *993:14 2.24608e-05
84 *958:12 *993:89 5.27215e-06
85 *958:18 *993:14 0.00106091
*RES
1 *3914:Q *993:6 23.6214 
2 *993:6 *993:14 47.6043 
3 *993:14 *4252:A 38 
4 *993:14 *993:23 2.96214 
5 *993:23 *4261:A 40.5271 
6 *993:23 *993:38 39.9607 
7 *993:38 *993:46 20.4893 
8 *993:46 *993:58 34.6786 
9 *993:58 *3436:A1 30.8093 
10 *993:58 *3528:A1 23 
11 *993:46 *3319:A 38 
12 *993:6 *993:89 38.9279 
13 *993:89 *3744:A1 23 
*END

*D_NET *994 0.0113978
*CONN
*I *3680:A1_N I *D sky130_fd_sc_hd__a2bb2o_2
*I *4070:A I *D sky130_fd_sc_hd__buf_2
*I *3393:B1_N I *D sky130_fd_sc_hd__o21ba_2
*I *3893:Q O *D sky130_fd_sc_hd__dfrtp_2
*CAP
1 *3680:A1_N 0
2 *4070:A 0.000192509
3 *3393:B1_N 0
4 *3893:Q 7.08253e-05
5 *994:48 0.000728682
6 *994:26 0.00164976
7 *994:18 0.00259697
8 *994:8 0.00155421
9 *994:18 *3655:B 0.000614334
10 *994:18 *4183:A 0.000384301
11 *994:18 *1014:10 9.6289e-05
12 *994:26 *3393:A1 0.000140259
13 *994:26 *1015:41 5.17154e-05
14 *994:26 *1022:19 0.000689796
15 *994:26 *1025:40 7.03821e-05
16 *994:48 *1000:51 0.000139647
17 *3652:B1 *4070:A 5.51442e-05
18 *3656:A1 *4070:A 5.3304e-05
19 *3656:B1 *4070:A 9.79925e-05
20 *3880:CLK *994:26 5.41288e-05
21 *3893:RESET_B *994:48 5.93507e-05
22 *3945:SET_B *994:48 3.81391e-05
23 *3951:RESET_B *994:48 0
24 *3973:CLK *994:18 0.000185095
25 *4167:A *4070:A 0.000186032
26 *288:10 *4070:A 9.86777e-06
27 *288:10 *994:18 0.000139581
28 *288:10 *994:26 8.02685e-05
29 *289:10 *994:18 0.000100522
30 *289:10 *994:26 0.000183412
31 *547:8 *994:18 7.73061e-05
32 *558:10 *994:48 2.93845e-05
33 *605:46 *994:8 5.47927e-05
34 *605:50 *994:18 0
35 *605:50 *994:48 0
36 *614:10 *994:26 4.60997e-05
37 *614:63 *994:18 2.56281e-05
38 *614:74 *994:18 0.000630666
39 *652:16 *994:48 0.000110542
40 *654:72 *994:48 0
41 *654:78 *994:48 0
42 *768:10 *4070:A 4.53082e-05
43 *810:8 *994:48 4.59027e-05
44 *837:10 *994:48 6.17219e-05
45 *921:26 *994:26 4.79612e-05
*RES
1 *3893:Q *994:8 39.5743 
2 *994:8 *994:18 23.9871 
3 *994:18 *994:26 39.0907 
4 *994:26 *3393:B1_N 23 
5 *994:18 *4070:A 42.4536 
6 *994:8 *994:48 30.6082 
7 *994:48 *3680:A1_N 23 
*END

*D_NET *995 0.00224533
*CONN
*I *4183:A I *D sky130_fd_sc_hd__dlygate4sd3_1
*I *3655:B I *D sky130_fd_sc_hd__and2b_2
*I *3895:Q O *D sky130_fd_sc_hd__dfrtp_2
*CAP
1 *4183:A 0.00018209
2 *3655:B 0.000266919
3 *3895:Q 0
4 *995:6 0.000449009
5 *3961:RESET_B *4183:A 0.000144168
6 *648:35 *3655:B 0.000140117
7 *648:45 *3655:B 5.21127e-05
8 *648:45 *4183:A 1.22803e-05
9 *994:18 *3655:B 0.000614334
10 *994:18 *4183:A 0.000384301
*RES
1 *3895:Q *995:6 38 
2 *995:6 *3655:B 46.2443 
3 *995:6 *4183:A 44.4836 
*END

*D_NET *996 0.00127234
*CONN
*I *3429:B2 I *D sky130_fd_sc_hd__a22o_2
*I *3336:A I *D sky130_fd_sc_hd__inv_2
*I *3980:Q O *D sky130_fd_sc_hd__dfrtp_2
*CAP
1 *3429:B2 1.96165e-05
2 *3336:A 0
3 *3980:Q 0.00043692
4 *996:12 7.68822e-05
5 *996:8 0.000494185
6 *996:8 *3433:A1 0
7 *96:10 *996:8 0
8 *123:10 *996:8 0
9 *369:10 *996:8 3.98859e-05
10 *603:13 *996:8 0
11 *603:55 *996:8 0
12 *823:8 *996:8 3.81363e-05
13 *911:42 *3429:B2 2.4754e-05
14 *911:42 *996:12 0.00014196
*RES
1 *3980:Q *996:8 45.54 
2 *996:8 *996:12 16.5743 
3 *996:12 *3336:A 23 
4 *996:12 *3429:B2 23.6214 
*END

*D_NET *997 0.00451348
*CONN
*I *3422:A1_N I *D sky130_fd_sc_hd__o2bb2a_2
*I *4198:A I *D sky130_fd_sc_hd__dlygate4sd3_1
*I *3975:Q O *D sky130_fd_sc_hd__dfrtp_2
*CAP
1 *3422:A1_N 0
2 *4198:A 0.000334693
3 *3975:Q 0.000230453
4 *997:27 0.000484295
5 *997:10 0.00104944
6 *997:10 *1089:20 5.67058e-05
7 *3426:B1 *4198:A 9.58714e-05
8 *3426:B1 *997:27 0.000166513
9 *3778:B1 *997:27 5.595e-05
10 *4022:CLK *4198:A 2.4754e-05
11 *105:21 *997:27 0.000897678
12 *187:8 *997:10 5.56203e-05
13 *187:8 *997:27 1.22906e-05
14 *360:73 *997:10 0
15 *603:63 *997:27 4.35681e-06
16 *607:12 *997:27 0.000407199
17 *607:16 *997:10 0.000169683
18 *607:16 *997:27 0.000209739
19 *611:132 *4198:A 0.000171898
20 *611:132 *997:10 6.18399e-05
21 *628:105 *997:27 0
22 *658:114 *997:27 0
23 *692:6 *4198:A 2.45032e-05
*RES
1 *3975:Q *997:10 42.9921 
2 *997:10 *4198:A 44.3593 
3 *997:10 *997:27 30.2146 
4 *997:27 *3422:A1_N 23 
*END

*D_NET *998 0.0014429
*CONN
*I *4189:A I *D sky130_fd_sc_hd__dlygate4sd3_1
*I *3657:B I *D sky130_fd_sc_hd__and2b_2
*I *3894:Q O *D sky130_fd_sc_hd__dfrtp_2
*CAP
1 *4189:A 0.000192635
2 *3657:B 0
3 *3894:Q 0
4 *998:12 0.00032308
5 *998:4 0.000515716
6 *998:12 *1021:10 3.19287e-05
7 *3894:RESET_B *4189:A 7.88828e-05
8 *3894:RESET_B *998:12 5.41385e-05
9 *4013:CLK *4189:A 5.3304e-05
10 *107:6 *4189:A 5.05471e-05
11 *543:25 *998:12 3.90213e-05
12 *648:35 *998:12 0
13 *682:8 *4189:A 4.95081e-05
14 *682:8 *998:12 5.41385e-05
15 *833:10 *998:12 0
*RES
1 *3894:Q *998:4 23 
2 *998:4 *998:12 37.2293 
3 *998:12 *3657:B 23 
4 *998:4 *4189:A 26.9564 
*END

*D_NET *999 0.00167835
*CONN
*I *4182:A I *D sky130_fd_sc_hd__dlygate4sd3_1
*I *3718:A I *D sky130_fd_sc_hd__or2_2
*I *3725:A1 I *D sky130_fd_sc_hd__o2111a_2
*I *3979:Q O *D sky130_fd_sc_hd__dfrtp_2
*CAP
1 *4182:A 3.93156e-05
2 *3718:A 0
3 *3725:A1 0
4 *3979:Q 0.000534967
5 *999:35 0.000310299
6 *999:14 0.000109318
7 *999:8 0.000373302
8 *3718:B *999:8 2.93845e-05
9 *3718:B *999:14 0.000171906
10 *315:10 *999:35 0
11 *353:10 *999:35 0
12 *585:14 *999:14 0
13 *621:29 *4182:A 1.24376e-05
14 *621:35 *999:35 9.74235e-05
15 *972:8 *999:14 0
*RES
1 *3979:Q *999:8 27.93 
2 *999:8 *999:14 32.61 
3 *999:14 *3725:A1 23 
4 *999:8 *3718:A 23 
5 *3979:Q *999:35 43.3443 
6 *999:35 *4182:A 38.6214 
*END

*D_NET *1000 0.00732844
*CONN
*I *4304:A I *D sky130_fd_sc_hd__dlygate4sd3_1
*I *4329:A I *D sky130_fd_sc_hd__dlygate4sd3_1
*I *3456:A1 I *D sky130_fd_sc_hd__a22o_2
*I *3518:A1 I *D sky130_fd_sc_hd__a21o_2
*I *3743:A I *D sky130_fd_sc_hd__nor2_2
*I *3945:Q O *D sky130_fd_sc_hd__dfstp_2
*CAP
1 *4304:A 0.000207773
2 *4329:A 0
3 *3456:A1 0.000236553
4 *3518:A1 0
5 *3743:A 0.000830375
6 *3945:Q 0.000207773
7 *1000:51 6.20523e-05
8 *1000:29 0.000471028
9 *1000:10 0.00144621
10 *1000:8 0.00120493
11 *1000:4 0.000885624
12 *3456:A1 *1003:61 0.000113551
13 *3743:A *3461:A1 0.000137651
14 *3743:A *1003:12 2.93868e-05
15 *3461:B2 *3743:A 1.43071e-05
16 *3680:B2 *3456:A1 0
17 *3945:CLK *1000:8 7.88926e-05
18 *3948:D *3743:A 9.8601e-05
19 *79:10 *3456:A1 0
20 *79:10 *1000:10 0
21 *84:8 *3456:A1 7.6144e-05
22 *84:8 *1000:10 1.01436e-05
23 *108:10 *1000:29 2.7237e-05
24 *302:8 *1000:29 0
25 *374:32 *3456:A1 0
26 *433:38 *1000:29 0.000404047
27 *616:76 *1000:29 0.00021673
28 *616:78 *1000:29 0.000277695
29 *654:78 *1000:51 4.58924e-05
30 *838:12 *3456:A1 4.18641e-05
31 *838:12 *1000:10 6.43253e-05
32 *838:12 *1000:29 0
33 *994:48 *1000:51 0.000139647
*RES
1 *3945:Q *1000:4 23 
2 *1000:4 *1000:8 25.6264 
3 *1000:8 *1000:10 2.96214 
4 *1000:10 *3743:A 48.9993 
5 *1000:10 *1000:29 27.2007 
6 *1000:29 *3518:A1 23 
7 *1000:8 *3456:A1 42.6607 
8 *1000:4 *1000:51 31.9057 
9 *1000:51 *4329:A 23 
10 *3945:Q *4304:A 49.48 
*END

*D_NET *1001 0.00386304
*CONN
*I *3460:C I *D sky130_fd_sc_hd__and3b_2
*I *3743:B I *D sky130_fd_sc_hd__nor2_2
*I *3454:B1 I *D sky130_fd_sc_hd__o21a_2
*I *3682:A2 I *D sky130_fd_sc_hd__a21oi_2
*I *3683:C I *D sky130_fd_sc_hd__and3b_2
*I *3519:A I *D sky130_fd_sc_hd__and2_2
*I *3946:Q O *D sky130_fd_sc_hd__dfrtp_2
*CAP
1 *3460:C 6.7506e-05
2 *3743:B 0
3 *3454:B1 0
4 *3682:A2 2.95294e-05
5 *3683:C 8.05506e-05
6 *3519:A 0.000265806
7 *3946:Q 5.2153e-05
8 *1001:62 0.000327798
9 *1001:54 0.000479019
10 *1001:43 0.000194749
11 *1001:32 0.000222804
12 *1001:21 0.000251792
13 *1001:8 0.000406959
14 *3683:C *3683:A_N 0.000100782
15 *3443:B *3519:A 0.000123428
16 *3443:B *1001:21 4.08641e-05
17 *3443:C *3519:A 0.00026808
18 *3454:A1 *1001:43 4.21594e-06
19 *3454:A1 *1001:54 5.26101e-05
20 *3454:A1 *1001:62 0
21 *3946:RESET_B *1001:8 5.26733e-06
22 *433:10 *3460:C 5.65601e-05
23 *433:10 *1001:62 0.000118707
24 *936:47 *3682:A2 5.50049e-05
25 *936:58 *1001:21 6.77978e-05
26 *936:58 *1001:32 6.79006e-05
27 *989:26 *3519:A 0.000150878
28 *989:26 *1001:21 0.000107548
29 *989:26 *1001:32 7.80354e-05
30 *989:26 *1001:43 9.27814e-05
31 *989:26 *1001:54 7.55491e-05
32 *989:26 *1001:62 1.83667e-05
33 *990:18 *1001:43 0
*RES
1 *3946:Q *1001:8 38.6214 
2 *1001:8 *3519:A 45.0221 
3 *1001:8 *1001:21 2.96214 
4 *1001:21 *3683:C 39.1445 
5 *1001:21 *1001:32 2.25786 
6 *1001:32 *3682:A2 38.6214 
7 *1001:32 *1001:43 2.61 
8 *1001:43 *3454:B1 38 
9 *1001:43 *1001:54 17.2579 
10 *1001:54 *1001:62 36.0693 
11 *1001:62 *3743:B 23 
12 *1001:54 *3460:C 24.1445 
*END

*D_NET *1002 0.00972837
*CONN
*I *3462:A1 I *D sky130_fd_sc_hd__a22o_2
*I *3328:A I *D sky130_fd_sc_hd__inv_2
*I *3452:A I *D sky130_fd_sc_hd__and3_2
*I *3446:A I *D sky130_fd_sc_hd__or2_2
*I *3690:A1 I *D sky130_fd_sc_hd__a21o_2
*I *3687:A1 I *D sky130_fd_sc_hd__a221o_2
*I *3689:A1 I *D sky130_fd_sc_hd__a21oi_2
*I *3445:A I *D sky130_fd_sc_hd__nor2_2
*I *3947:Q O *D sky130_fd_sc_hd__dfrtp_2
*CAP
1 *3462:A1 7.61728e-05
2 *3328:A 0
3 *3452:A 0
4 *3446:A 2.18824e-05
5 *3690:A1 0.000130434
6 *3687:A1 0
7 *3689:A1 0.000163308
8 *3445:A 0.000406615
9 *3947:Q 0.000487433
10 *1002:64 0.000130434
11 *1002:51 0.00057991
12 *1002:45 0.00102889
13 *1002:22 0.000997025
14 *1002:20 9.3896e-05
15 *1002:16 0.000578338
16 *1002:8 0.00104805
17 *1002:16 *1007:43 0
18 *1002:45 *1007:10 7.7321e-05
19 *1002:45 *1007:14 0.000268916
20 *3465:A2 *1002:45 7.8143e-05
21 *3466:B *1002:16 0.00041079
22 *3466:B *1002:20 5.5792e-05
23 *3687:A2 *3690:A1 1.46586e-05
24 *3687:C1 *3445:A 1.42975e-05
25 *3904:RESET_B *1002:45 4.83798e-05
26 *3904:RESET_B *1002:51 0.00012016
27 *3947:RESET_B *1002:8 0.000137039
28 *3952:RESET_B *3445:A 4.16878e-06
29 *81:8 *3462:A1 3.39231e-05
30 *81:8 *1002:16 1.83667e-05
31 *106:10 *3689:A1 2.10502e-05
32 *361:10 *3445:A 6.33771e-05
33 *361:10 *1002:20 5.58003e-05
34 *361:10 *1002:45 0.000137898
35 *426:10 *1002:8 7.84515e-05
36 *426:16 *1002:8 8.91468e-07
37 *426:16 *1002:16 0
38 *426:67 *1002:16 0.000343872
39 *427:12 *3445:A 5.55743e-06
40 *427:12 *1002:51 9.87053e-06
41 *427:20 *3689:A1 4.98687e-05
42 *427:20 *1002:51 3.50862e-06
43 *428:12 *1002:51 3.84822e-05
44 *434:10 *1002:51 7.42423e-05
45 *434:16 *3690:A1 0.000294454
46 *434:18 *3690:A1 5.55743e-06
47 *436:10 *1002:45 9.41704e-05
48 *561:8 *1002:51 6.5117e-06
49 *604:76 *3445:A 4.98398e-05
50 *618:12 *3445:A 0.000132483
51 *618:95 *3445:A 5.5792e-05
52 *618:134 *3445:A 0.000217543
53 *618:134 *1002:45 0.000126517
54 *634:34 *3445:A 3.36703e-05
55 *634:42 *1002:20 4.38703e-05
56 *638:37 *3462:A1 3.56537e-05
57 *638:37 *1002:16 0
58 *847:20 *3689:A1 3.56295e-05
59 *847:20 *3690:A1 4.24128e-05
60 *924:35 *3689:A1 5.5792e-05
61 *948:20 *1002:16 0
62 *948:20 *1002:45 9.41704e-05
63 *981:23 *3445:A 0.000312454
64 *981:39 *3689:A1 1.0092e-05
65 *981:39 *1002:51 0.000174542
*RES
1 *3947:Q *1002:8 44.815 
2 *1002:8 *1002:16 26.5379 
3 *1002:16 *1002:20 2.07143 
4 *1002:20 *1002:22 15 
5 *1002:22 *3445:A 48.15 
6 *1002:22 *1002:45 25.3157 
7 *1002:45 *1002:51 22.6021 
8 *1002:51 *3689:A1 41.2314 
9 *1002:51 *1002:64 15 
10 *1002:64 *3687:A1 23 
11 *1002:64 *3690:A1 26.9979 
12 *1002:45 *3446:A 23.4971 
13 *1002:20 *3452:A 23 
14 *1002:16 *3328:A 23 
15 *1002:8 *3462:A1 39.5536 
*END

*D_NET *1003 0.0101081
*CONN
*I *3451:B2 I *D sky130_fd_sc_hd__a22o_2
*I *3680:A2_N I *D sky130_fd_sc_hd__a2bb2o_2
*I *3461:A1 I *D sky130_fd_sc_hd__a221o_2
*I *3682:B1 I *D sky130_fd_sc_hd__a21oi_2
*I *3683:A_N I *D sky130_fd_sc_hd__and3b_2
*I *3948:Q O *D sky130_fd_sc_hd__dfrtp_2
*CAP
1 *3451:B2 0
2 *3680:A2_N 0
3 *3461:A1 6.56504e-05
4 *3682:B1 7.23584e-05
5 *3683:A_N 0.000419415
6 *3948:Q 0.000794878
7 *1003:76 0.000587845
8 *1003:61 0.0006461
9 *1003:53 0.00144235
10 *1003:42 0.000350679
11 *1003:18 0.000846595
12 *1003:12 0.00122633
13 *1003:61 *1006:22 5.50106e-05
14 *3340:A *1003:76 5.67058e-05
15 *3451:B1 *1003:76 0.000439375
16 *3454:A1 *1003:18 1.75295e-05
17 *3454:A1 *1003:42 3.16195e-05
18 *3456:A1 *1003:61 0.000113551
19 *3456:B1 *1003:61 8.35282e-05
20 *3461:A2 *3461:A1 3.32677e-05
21 *3680:B2 *1003:61 0.000139357
22 *3683:C *3683:A_N 0.000100782
23 *3743:A *3461:A1 0.000137651
24 *3743:A *1003:12 2.93868e-05
25 *3948:D *3461:A1 6.17437e-06
26 *3948:D *1003:12 0.000123944
27 *3948:RESET_B *1003:12 4.19048e-05
28 *3950:RESET_B *1003:76 1.12487e-05
29 *4088:A *3683:A_N 3.47781e-05
30 *4088:A *1003:18 0.00037243
31 *4256:A *1003:76 2.93845e-05
32 *111:10 *1003:18 0
33 *111:10 *1003:53 0
34 *111:10 *1003:76 0
35 *363:49 *3683:A_N 5.3304e-05
36 *373:10 *1003:42 3.47781e-05
37 *373:10 *1003:53 0.000310517
38 *373:10 *1003:76 0.000301678
39 *559:10 *3682:B1 1.21972e-05
40 *559:10 *3683:A_N 2.54046e-05
41 *560:10 *3683:A_N 2.02872e-05
42 *605:12 *3682:B1 5.3304e-05
43 *605:20 *3683:A_N 0.000138718
44 *616:10 *1003:12 1.02561e-05
45 *616:10 *1003:18 3.80962e-05
46 *616:10 *1003:42 2.72055e-05
47 *616:21 *1003:42 7.75329e-06
48 *616:21 *1003:53 5.33213e-05
49 *651:8 *1003:76 2.38288e-05
50 *752:6 *1003:61 0.000228909
51 *837:10 *1003:61 0.000216776
52 *838:12 *3683:A_N 0
53 *838:12 *1003:18 0
54 *838:12 *1003:61 4.37509e-06
55 *978:18 *1003:76 9.32157e-05
56 *978:26 *1003:76 9.84851e-05
57 *990:18 *1003:18 4.58635e-05
*RES
1 *3948:Q *1003:12 49.0925 
2 *1003:12 *1003:18 8.13036 
3 *1003:18 *3683:A_N 45.1879 
4 *1003:18 *3682:B1 39.0979 
5 *1003:12 *1003:42 1.72964 
6 *1003:42 *3461:A1 39.5743 
7 *1003:42 *1003:53 4.37071 
8 *1003:53 *1003:61 27.9257 
9 *1003:61 *3680:A2_N 23 
10 *1003:53 *1003:76 29.1064 
11 *1003:76 *3451:B2 23 
*END

*D_NET *1004 0.00479295
*CONN
*I *4314:A I *D sky130_fd_sc_hd__dlygate4sd3_1
*I *3524:A1 I *D sky130_fd_sc_hd__a31o_2
*I *3457:B1 I *D sky130_fd_sc_hd__a31o_2
*I *3464:A I *D sky130_fd_sc_hd__or2_2
*I *3463:A I *D sky130_fd_sc_hd__nor2_2
*I *3949:Q O *D sky130_fd_sc_hd__dfrtp_2
*CAP
1 *4314:A 0.000271278
2 *3524:A1 3.48511e-05
3 *3457:B1 3.80201e-05
4 *3464:A 7.60213e-05
5 *3463:A 0
6 *3949:Q 0
7 *1004:26 0.000325449
8 *1004:18 0.000687984
9 *1004:12 0.000693125
10 *1004:4 0.000529015
11 *1004:26 *1007:20 0.000160125
12 *3448:C *3457:B1 0.000139346
13 *3449:A1 *1004:18 6.17437e-06
14 *3457:A3 *3457:B1 0.000139346
15 *3459:A1 *3524:A1 2.93845e-05
16 *3459:A1 *1004:18 3.75171e-05
17 *3459:A2 *1004:18 0.000178517
18 *3464:B *3464:A 9.41704e-05
19 *3524:B1 *1004:12 9.48381e-06
20 *3524:B1 *1004:18 5.67058e-05
21 *3949:RESET_B *1004:12 0
22 *109:28 *1004:18 0.000125413
23 *109:28 *1004:26 0.000184582
24 *113:23 *1004:12 0.000192087
25 *364:31 *1004:12 3.72639e-05
26 *426:40 *1004:18 9.84755e-05
27 *428:30 *1004:26 0
28 *429:10 *1004:18 1.01436e-05
29 *429:10 *1004:26 0.000159652
30 *604:76 *1004:18 1.89075e-05
31 *604:76 *1004:26 0.00023048
32 *618:57 *1004:26 2.76611e-06
33 *875:18 *4314:A 3.7122e-06
34 *875:18 *1004:12 4.57742e-05
35 *924:65 *3464:A 5.5792e-05
36 *981:39 *3464:A 0.000121387
*RES
1 *3949:Q *1004:4 23 
2 *1004:4 *1004:12 35.2407 
3 *1004:12 *1004:18 21.3386 
4 *1004:18 *1004:26 21.5457 
5 *1004:26 *3463:A 23 
6 *1004:26 *3464:A 25.0507 
7 *1004:18 *3457:B1 39.5743 
8 *1004:12 *3524:A1 23.6214 
9 *1004:4 *4314:A 26.9564 
*END

*D_NET *1005 0.00131772
*CONN
*I *4251:A I *D sky130_fd_sc_hd__dlygate4sd3_1
*I *3950:Q O *D sky130_fd_sc_hd__dfrtp_2
*CAP
1 *4251:A 0
2 *3950:Q 0.000400741
3 *1005:10 0.000400741
4 *3950:RESET_B *1005:10 0.000138727
5 *373:10 *1005:10 0.000138727
6 *616:23 *1005:10 0.00023878
*RES
1 *3950:Q *1005:10 44.815 
2 *1005:10 *4251:A 38 
*END

*D_NET *1006 0.00264386
*CONN
*I *4238:A I *D sky130_fd_sc_hd__dlygate4sd3_1
*I *3680:B1 I *D sky130_fd_sc_hd__a2bb2o_2
*I *3951:Q O *D sky130_fd_sc_hd__dfrtp_2
*CAP
1 *4238:A 0
2 *3680:B1 0
3 *3951:Q 0.000300678
4 *1006:22 0.000327725
5 *1006:14 0.000388187
6 *1006:10 0.00036114
7 *3332:A *1006:14 5.3304e-05
8 *3680:B2 *1006:10 0.000111852
9 *3680:B2 *1006:22 0.000144211
10 *3823:B1 *1006:22 0
11 *3951:D *1006:10 0.000105861
12 *3951:RESET_B *1006:22 0
13 *4263:A *1006:14 0.000137651
14 *79:10 *1006:22 0.000108681
15 *111:10 *1006:10 0
16 *111:23 *1006:10 0
17 *651:34 *1006:14 0.000181131
18 *736:23 *1006:10 8.4047e-05
19 *765:8 *1006:22 0.00020395
20 *837:10 *1006:22 5.3304e-05
21 *980:12 *1006:10 1.12487e-05
22 *980:12 *1006:22 1.58805e-05
23 *1003:61 *1006:22 5.50106e-05
*RES
1 *3951:Q *1006:10 42.9093 
2 *1006:10 *1006:14 17.0507 
3 *1006:14 *1006:22 38.5136 
4 *1006:22 *3680:B1 23 
5 *1006:14 *4238:A 23 
*END

*D_NET *1007 0.00331326
*CONN
*I *4306:A I *D sky130_fd_sc_hd__dlygate4sd3_1
*I *3447:A_N I *D sky130_fd_sc_hd__nand2b_2
*I *3446:B I *D sky130_fd_sc_hd__or2_2
*I *3445:B I *D sky130_fd_sc_hd__nor2_2
*I *3952:Q O *D sky130_fd_sc_hd__dfrtp_2
*CAP
1 *4306:A 0
2 *3447:A_N 0
3 *3446:B 0
4 *3445:B 0
5 *3952:Q 0
6 *1007:43 0.000169347
7 *1007:20 0.000269538
8 *1007:14 0.000410251
9 *1007:10 0.000404359
10 *1007:4 0.000432992
11 *3465:A2 *1007:10 7.8143e-05
12 *3904:RESET_B *1007:10 0
13 *3904:RESET_B *1007:14 0.000128571
14 *3952:D *1007:10 0.000110389
15 *3952:D *1007:43 0.000141954
16 *3952:RESET_B *1007:10 6.17437e-06
17 *3952:RESET_B *1007:43 4.46006e-05
18 *109:28 *1007:10 9.41704e-05
19 *109:28 *1007:14 8.48502e-06
20 *426:16 *1007:43 6.48142e-05
21 *604:76 *1007:20 0.000111762
22 *618:57 *1007:20 9.83179e-05
23 *924:65 *1007:14 5.3304e-05
24 *948:20 *1007:10 0.000179725
25 *948:20 *1007:43 0
26 *1002:16 *1007:43 0
27 *1002:45 *1007:10 7.7321e-05
28 *1002:45 *1007:14 0.000268916
29 *1004:26 *1007:20 0.000160125
*RES
1 *3952:Q *1007:4 23 
2 *1007:4 *1007:10 6.38 
3 *1007:10 *1007:14 3.50071 
4 *1007:14 *1007:20 35.4271 
5 *1007:20 *3445:B 23 
6 *1007:14 *3446:B 23 
7 *1007:10 *3447:A_N 23 
8 *1007:4 *1007:43 33.8321 
9 *1007:43 *4306:A 23 
*END

*D_NET *1008 0.00411319
*CONN
*I *3451:A2 I *D sky130_fd_sc_hd__a22o_2
*I *4327:A I *D sky130_fd_sc_hd__dlygate4sd3_1
*I *4197:A I *D sky130_fd_sc_hd__dlygate4sd3_1
*I *3953:Q O *D sky130_fd_sc_hd__dfrtp_2
*CAP
1 *3451:A2 0.00021541
2 *4327:A 0
3 *4197:A 0
4 *3953:Q 0.000154347
5 *1008:16 0.000590143
6 *1008:10 0.00069432
7 *1008:8 0.000473934
8 *3451:A1 *3451:A2 0.000119082
9 *3744:B1 *1008:10 0
10 *3744:B1 *1008:16 0
11 *3914:RESET_B *3451:A2 0.000222113
12 *3914:RESET_B *1008:8 3.08719e-06
13 *3914:RESET_B *1008:10 6.25829e-05
14 *4256:A *3451:A2 4.30505e-05
15 *323:10 *1008:10 0
16 *603:13 *3451:A2 0
17 *603:13 *1008:10 0
18 *638:37 *1008:16 0.000169674
19 *638:59 *3451:A2 0.000367038
20 *638:59 *1008:10 0.000269411
21 *638:59 *1008:16 0.000668213
22 *978:18 *3451:A2 1.76557e-05
23 *993:89 *1008:10 4.31263e-05
*RES
1 *3953:Q *1008:8 40.0507 
2 *1008:8 *1008:10 3.66643 
3 *1008:10 *1008:16 28.1121 
4 *1008:16 *4197:A 23 
5 *1008:10 *4327:A 38 
6 *1008:8 *3451:A2 45.0014 
*END

*D_NET *1009 0.000325094
*CONN
*I *4211:A I *D sky130_fd_sc_hd__dlygate4sd3_1
*I *3954:Q O *D sky130_fd_sc_hd__dfrtp_2
*CAP
1 *4211:A 0
2 *3954:Q 5.73903e-05
3 *1009:8 5.73903e-05
4 *109:14 *1009:8 6.93553e-05
5 *636:14 *1009:8 0.000140958
*RES
1 *3954:Q *1009:8 39.9057 
2 *1009:8 *4211:A 38 
*END

*D_NET *1010 0.00389802
*CONN
*I *4180:A I *D sky130_fd_sc_hd__dlygate4sd3_1
*I *3634:A I *D sky130_fd_sc_hd__or3b_2
*I *3969:Q O *D sky130_fd_sc_hd__dfrtp_2
*CAP
1 *4180:A 0.000176244
2 *3634:A 0.000404404
3 *3969:Q 0.000416788
4 *1010:12 0.000997436
5 *4180:A *1117:8 6.24195e-05
6 *4174:A *1010:12 9.84794e-05
7 *173:10 *4180:A 0.000197911
8 *272:30 *1010:12 4.63956e-05
9 *542:14 *3634:A 0.000701923
10 *542:22 *3634:A 0
11 *542:22 *4180:A 0
12 *613:45 *3634:A 2.76611e-06
13 *666:8 *3634:A 2.24973e-05
14 *672:14 *3634:A 0
15 *690:6 *3634:A 0.000151601
16 *746:10 *1010:12 5.3304e-05
17 *751:10 *3634:A 0.000128486
18 *751:10 *4180:A 0.000295413
19 *856:8 *1010:12 0.000141954
*RES
1 *3969:Q *1010:12 45.9336 
2 *1010:12 *3634:A 48.3779 
3 *1010:12 *4180:A 43.7793 
*END

*D_NET *1011 0.00620954
*CONN
*I *4196:A I *D sky130_fd_sc_hd__dlygate4sd3_1
*I *3648:B I *D sky130_fd_sc_hd__nand2b_2
*I *3635:A I *D sky130_fd_sc_hd__nor3_2
*I *3964:Q O *D sky130_fd_sc_hd__dfrtp_2
*CAP
1 *4196:A 0
2 *3648:B 0.000268115
3 *3635:A 4.17755e-05
4 *3964:Q 0.00015475
5 *1011:42 0.000753102
6 *1011:10 0.00106228
7 *1011:6 0.00166024
8 *3648:B *1012:27 0.000220674
9 *3634:C_N *1011:42 0
10 *3964:RESET_B *1011:6 7.51256e-05
11 *3964:RESET_B *1011:10 0
12 *3968:RESET_B *1011:10 0
13 *4383:A *1011:42 7.15126e-05
14 *60:14 *1011:42 5.31444e-05
15 *542:22 *1011:10 0
16 *543:6 *3648:B 2.95526e-05
17 *613:10 *3648:B 4.44607e-05
18 *613:10 *1011:10 2.75733e-06
19 *613:16 *1011:10 1.50072e-05
20 *613:22 *1011:10 0
21 *613:28 *1011:10 0.000215216
22 *665:10 *3648:B 0.000137473
23 *665:10 *1011:10 9.28078e-06
24 *672:14 *1011:10 0
25 *672:14 *1011:42 2.93845e-05
26 *728:6 *1011:6 0.000249258
27 *728:6 *1011:42 0.000803038
28 *746:10 *1011:10 0.000313391
*RES
1 *3964:Q *1011:6 27.9093 
2 *1011:6 *1011:10 29.2307 
3 *1011:10 *3635:A 38.6214 
4 *1011:10 *3648:B 44.525 
5 *1011:6 *1011:42 47.7729 
6 *1011:42 *4196:A 23 
*END

*D_NET *1012 0.00311437
*CONN
*I *3648:A_N I *D sky130_fd_sc_hd__nand2b_2
*I *4173:A I *D sky130_fd_sc_hd__dlygate4sd3_1
*I *3968:Q O *D sky130_fd_sc_hd__dfrtp_2
*CAP
1 *3648:A_N 0
2 *4173:A 0
3 *3968:Q 0.000537626
4 *1012:27 0.000187639
5 *1012:14 0.000238461
6 *1012:10 0.000588448
7 *3648:B *1012:27 0.000220674
8 *3650:A2 *1012:10 6.35124e-05
9 *4085:A *1012:14 9.79925e-05
10 *4085:A *1012:27 0.000173603
11 *285:8 *1012:10 2.23754e-05
12 *409:12 *1012:10 0.000294843
13 *613:10 *1012:27 0.000113141
14 *613:22 *1012:10 3.05419e-05
15 *654:10 *1012:10 0
16 *655:111 *1012:10 0
17 *706:12 *1012:10 0.000509118
18 *706:26 *1012:10 1.09783e-05
19 *863:10 *1012:10 2.54193e-05
*RES
1 *3968:Q *1012:10 49.455 
2 *1012:10 *1012:14 16.0979 
3 *1012:14 *4173:A 23 
4 *1012:14 *1012:27 35.365 
5 *1012:27 *3648:A_N 23 
*END

*D_NET *1013 0.00512539
*CONN
*I *3395:A I *D sky130_fd_sc_hd__or3_2
*I *3326:A I *D sky130_fd_sc_hd__inv_2
*I *3863:Q O *D sky130_fd_sc_hd__dfrtp_2
*CAP
1 *3395:A 0
2 *3326:A 0.000366327
3 *3863:Q 0.000241723
4 *1013:29 0.000732459
5 *1013:10 0.00134051
6 *1013:10 *1026:6 3.22879e-05
7 *3395:B *1013:29 0.000174898
8 *3967:CLK *1013:29 0.000113622
9 *3969:CLK *1013:29 0.0001332
10 *21:17 *1013:29 0
11 *272:10 *1013:29 0.000316273
12 *409:20 *1013:10 7.01687e-05
13 *647:44 *1013:29 5.5792e-05
14 *654:51 *1013:29 0.000321832
15 *728:14 *1013:10 0.000190625
16 *728:14 *1013:29 0.000266259
17 *745:8 *1013:29 0.000366819
18 *745:31 *1013:29 4.53082e-05
19 *858:8 *1013:29 0
20 *863:10 *3326:A 0
21 *910:10 *1013:10 8.5477e-05
22 *910:10 *1013:29 9.25213e-05
23 *910:50 *1013:29 1.96584e-05
24 *921:8 *1013:29 0.000159633
*RES
1 *3863:Q *1013:10 43.1371 
2 *1013:10 *3326:A 43.4064 
3 *1013:10 *1013:29 36.9779 
4 *1013:29 *3395:A 23 
*END

*D_NET *1014 0.00163735
*CONN
*I *3655:A_N I *D sky130_fd_sc_hd__and2b_2
*I *3961:Q O *D sky130_fd_sc_hd__dfrtp_2
*CAP
1 *3655:A_N 0
2 *3961:Q 0.000444085
3 *1014:10 0.000444085
4 *3973:CLK *1014:10 0.000194318
5 *107:12 *1014:10 5.56203e-05
6 *605:50 *1014:10 0
7 *614:74 *1014:10 0.000402954
8 *994:18 *1014:10 9.6289e-05
*RES
1 *3961:Q *1014:10 48.9786 
2 *1014:10 *3655:A_N 38 
*END

*D_NET *1015 0.00940541
*CONN
*I *4268:A I *D sky130_fd_sc_hd__dlygate4sd3_1
*I *3393:A2 I *D sky130_fd_sc_hd__o21ba_2
*I *4068:A I *D sky130_fd_sc_hd__buf_2
*I *3879:Q O *D sky130_fd_sc_hd__dfrtp_2
*CAP
1 *4268:A 0
2 *3393:A2 0
3 *4068:A 0
4 *3879:Q 0.000399328
5 *1015:55 0.000248659
6 *1015:41 0.000388175
7 *1015:20 0.0024216
8 *1015:8 0.00296044
9 *1015:8 *1022:12 0.000165575
10 *1015:41 *3393:A1 6.9805e-05
11 *1015:41 *1022:19 0.000604335
12 *1015:41 *1025:40 7.8438e-05
13 *4085:A *1015:55 6.8899e-05
14 *410:12 *1015:8 0.000330197
15 *410:12 *1015:20 0.000250232
16 *605:56 *1015:55 0.00014384
17 *647:44 *1015:8 3.8493e-05
18 *647:44 *1015:20 0.000121766
19 *649:36 *1015:20 0.000164569
20 *649:46 *1015:20 0.000196353
21 *695:10 *1015:20 0
22 *770:10 *1015:8 8.57577e-05
23 *828:26 *1015:20 0
24 *859:10 *1015:20 3.51881e-05
25 *859:18 *1015:20 0
26 *921:12 *1015:41 0.000180224
27 *921:26 *1015:41 0.000295808
28 *981:65 *1015:20 0.000106005
29 *994:26 *1015:41 5.17154e-05
*RES
1 *3879:Q *1015:8 42.7229 
2 *1015:8 *1015:20 44.8636 
3 *1015:20 *4068:A 23 
4 *1015:8 *1015:41 27.5529 
5 *1015:41 *3393:A2 23 
6 *3879:Q *1015:55 27.4536 
7 *1015:55 *4268:A 23 
*END

*D_NET *1016 0.00309057
*CONN
*I *3966:D I *D sky130_fd_sc_hd__dfrtp_2
*I *3651:B I *D sky130_fd_sc_hd__and2b_2
*I *3404:X O *D sky130_fd_sc_hd__and2_2
*CAP
1 *3966:D 0
2 *3651:B 0
3 *3404:X 0.00037279
4 *1016:18 0.000911513
5 *1016:10 0.0012843
6 *1016:10 *3963:D 1.84831e-05
7 *1016:18 *3651:A_N 2.93845e-05
8 *1016:18 *3653:A_N 2.93845e-05
9 *1016:18 *3653:B 0.000310647
10 *3970:D *1016:18 5.1291e-05
11 *546:10 *1016:18 3.70071e-06
12 *615:14 *1016:10 0
13 *922:14 *1016:10 4.05836e-05
14 *922:14 *1016:18 3.84905e-05
*RES
1 *3404:X *1016:10 43.2614 
2 *1016:10 *1016:18 28.0293 
3 *1016:18 *3651:B 23 
4 *1016:10 *3966:D 38 
*END

*D_NET *1017 0.000533704
*CONN
*I *3651:A_N I *D sky130_fd_sc_hd__and2b_2
*I *3966:Q O *D sky130_fd_sc_hd__dfrtp_2
*CAP
1 *3651:A_N 2.63065e-05
2 *3966:Q 0.000171333
3 *1017:10 0.00019764
4 *1017:10 *1024:8 3.8119e-05
5 *4167:A *1017:10 8.45065e-06
6 *287:8 *1017:10 6.24707e-05
7 *1016:18 *3651:A_N 2.93845e-05
*RES
1 *3966:Q *1017:10 41.0036 
2 *1017:10 *3651:A_N 38.6214 
*END

*D_NET *1018 0.00279048
*CONN
*I *4258:A I *D sky130_fd_sc_hd__dlygate4sd3_1
*I *4066:A I *D sky130_fd_sc_hd__buf_2
*I *3394:A2 I *D sky130_fd_sc_hd__o32a_2
*I *3877:Q O *D sky130_fd_sc_hd__dfrtp_2
*CAP
1 *4258:A 0
2 *4066:A 7.02481e-05
3 *3394:A2 9.62663e-05
4 *3877:Q 0.00011508
5 *1018:36 6.32573e-05
6 *1018:23 0.000347775
7 *1018:8 0.000425616
8 *3394:A2 *1025:12 4.95487e-06
9 *4066:A *1025:8 3.53115e-05
10 *1018:36 *1025:40 5.20202e-05
11 *3660:A1 *1018:23 5.3304e-05
12 *3660:S *1018:23 5.3304e-05
13 *3877:RESET_B *1018:8 0.000137651
14 *3881:CLK *3394:A2 0.000103027
15 *3881:CLK *1018:23 7.70737e-05
16 *289:10 *1018:36 3.92407e-05
17 *614:12 *1018:23 0.000212546
18 *614:12 *1018:36 0
19 *717:8 *3394:A2 0.000127656
20 *717:8 *1018:23 0.000268738
21 *857:8 *4066:A 3.22879e-05
22 *857:8 *1018:23 5.60968e-05
23 *857:14 *1018:23 6.00862e-06
24 *910:60 *1018:23 0.000178517
25 *910:60 *1018:36 3.70187e-05
26 *910:72 *1018:36 0.000197479
*RES
1 *3877:Q *1018:8 39.5743 
2 *1018:8 *3394:A2 39.9057 
3 *1018:8 *1018:23 21.5457 
4 *1018:23 *4066:A 24.5743 
5 *1018:23 *1018:36 32.61 
6 *1018:36 *4258:A 23 
*END

*D_NET *1019 0.00253065
*CONN
*I *4218:A I *D sky130_fd_sc_hd__dlygate4sd3_1
*I *3394:B2 I *D sky130_fd_sc_hd__o32a_2
*I *3882:Q O *D sky130_fd_sc_hd__dfrtp_2
*CAP
1 *4218:A 3.79925e-05
2 *3394:B2 0
3 *3882:Q 0.000783653
4 *1019:26 9.87864e-05
5 *1019:10 0.000722859
6 *3877:RESET_B *1019:10 0.000222293
7 *3882:RESET_B *1019:10 4.83893e-05
8 *647:44 *1019:26 6.93553e-05
9 *717:8 *1019:10 0.000129897
10 *728:14 *4218:A 0.000139352
11 *858:8 *1019:26 0.000138718
12 *910:50 *4218:A 0.000139352
13 *992:10 *1019:10 0
*RES
1 *3882:Q *1019:10 47.6736 
2 *1019:10 *3394:B2 38 
3 *3882:Q *1019:26 39.9057 
4 *1019:26 *4218:A 39.5743 
*END

*D_NET *1020 0.000887376
*CONN
*I *4177:A I *D sky130_fd_sc_hd__dlygate4sd3_1
*I *3970:Q O *D sky130_fd_sc_hd__dfrtp_2
*CAP
1 *4177:A 5.19532e-05
2 *3970:Q 0.000221156
3 *1020:8 0.000273109
4 *3970:RESET_B *1020:8 0
5 *649:46 *1020:8 0
6 *695:10 *1020:8 1.69668e-05
7 *922:8 *4177:A 2.93845e-05
8 *922:14 *1020:8 0.000294807
*RES
1 *3970:Q *1020:8 42.7229 
2 *1020:8 *4177:A 39.0979 
*END

*D_NET *1021 0.000784829
*CONN
*I *3657:A_N I *D sky130_fd_sc_hd__and2b_2
*I *3959:Q O *D sky130_fd_sc_hd__dfrtp_2
*CAP
1 *3657:A_N 0
2 *3959:Q 0.000311087
3 *1021:10 0.000311087
4 *3959:RESET_B *1021:10 0.000130725
5 *998:12 *1021:10 3.19287e-05
*RES
1 *3959:Q *1021:10 42.5571 
2 *1021:10 *3657:A_N 38 
*END

*D_NET *1022 0.00414601
*CONN
*I *3393:A1 I *D sky130_fd_sc_hd__o21ba_2
*I *4069:A I *D sky130_fd_sc_hd__buf_2
*I *4266:A I *D sky130_fd_sc_hd__dlygate4sd3_1
*I *3880:Q O *D sky130_fd_sc_hd__dfrtp_2
*CAP
1 *3393:A1 6.02662e-05
2 *4069:A 0
3 *4266:A 0
4 *3880:Q 0
5 *1022:25 0.000239289
6 *1022:19 0.000473893
7 *1022:12 0.000326068
8 *1022:4 0.000500405
9 *3656:A1 *1022:12 9.8592e-06
10 *21:17 *1022:25 0.000158907
11 *614:8 *1022:12 8.26478e-05
12 *614:101 *1022:12 0.000306147
13 *647:44 *1022:12 0.000163353
14 *654:10 *1022:25 0.000155406
15 *994:26 *3393:A1 0.000140259
16 *994:26 *1022:19 0.000689796
17 *1015:8 *1022:12 0.000165575
18 *1015:41 *3393:A1 6.9805e-05
19 *1015:41 *1022:19 0.000604335
*RES
1 *3880:Q *1022:4 23 
2 *1022:4 *1022:12 37.6436 
3 *1022:12 *4266:A 23 
4 *1022:4 *1022:19 7.76786 
5 *1022:19 *1022:25 36.4836 
6 *1022:25 *4069:A 23 
7 *1022:19 *3393:A1 25.0714 
*END

*D_NET *1023 0.00308131
*CONN
*I *3963:D I *D sky130_fd_sc_hd__dfrtp_2
*I *3653:B I *D sky130_fd_sc_hd__and2b_2
*I *3403:X O *D sky130_fd_sc_hd__and2_2
*CAP
1 *3963:D 0.000179925
2 *3653:B 0.000296414
3 *3403:X 0.000339494
4 *1023:10 0.000815833
5 *3970:D *3653:B 3.7122e-06
6 *546:10 *3653:B 1.39431e-05
7 *615:121 *1023:10 8.30371e-05
8 *922:14 *3653:B 0.00018935
9 *922:14 *1023:10 8.7975e-05
10 *990:10 *3653:B 0.00039859
11 *990:10 *1023:10 0.000193873
12 *990:12 *1023:10 0.000150033
13 *1016:10 *3963:D 1.84831e-05
14 *1016:18 *3653:B 0.000310647
*RES
1 *3403:X *1023:10 45.25 
2 *1023:10 *3653:B 46.9071 
3 *1023:10 *3963:D 41.0036 
*END

*D_NET *1024 0.000696924
*CONN
*I *3653:A_N I *D sky130_fd_sc_hd__and2b_2
*I *3963:Q O *D sky130_fd_sc_hd__dfrtp_2
*CAP
1 *3653:A_N 2.63065e-05
2 *3963:Q 0.000206156
3 *1024:8 0.000232463
4 *287:8 *1024:8 0
5 *546:10 *1024:8 0.000164495
6 *1016:18 *3653:A_N 2.93845e-05
7 *1017:10 *1024:8 3.8119e-05
*RES
1 *3963:Q *1024:8 42.7229 
2 *1024:8 *3653:A_N 38.6214 
*END

*D_NET *1025 0.00390091
*CONN
*I *4067:A I *D sky130_fd_sc_hd__buf_2
*I *3394:A1 I *D sky130_fd_sc_hd__o32a_2
*I *4257:A I *D sky130_fd_sc_hd__dlygate4sd3_1
*I *3878:Q O *D sky130_fd_sc_hd__dfrtp_2
*CAP
1 *4067:A 0
2 *3394:A1 6.05031e-05
3 *4257:A 8.66962e-05
4 *3878:Q 0.000225569
5 *1025:40 0.000890874
6 *1025:12 0.00040049
7 *1025:8 0.00136973
8 *3394:A1 *3394:B1 0
9 *3394:A2 *1025:12 4.95487e-06
10 *3394:A3 *3394:A1 5.90675e-06
11 *3880:D *1025:40 9.67842e-05
12 *3881:CLK *3394:A1 1.32314e-05
13 *3881:CLK *1025:12 8.1229e-05
14 *4066:A *1025:8 3.53115e-05
15 *410:8 *3394:A1 4.66047e-05
16 *410:8 *4257:A 6.17437e-06
17 *614:12 *1025:12 6.32688e-05
18 *614:12 *1025:40 9.22823e-05
19 *857:8 *1025:8 0.000141954
20 *861:8 *1025:12 0
21 *861:8 *1025:40 0
22 *910:60 *1025:40 5.79489e-05
23 *910:72 *1025:40 2.05503e-05
24 *994:26 *1025:40 7.03821e-05
25 *1015:41 *1025:40 7.8438e-05
26 *1018:36 *1025:40 5.20202e-05
*RES
1 *3878:Q *1025:8 41.48 
2 *1025:8 *1025:12 19.7229 
3 *1025:12 *4257:A 24.5743 
4 *1025:12 *3394:A1 24.595 
5 *1025:8 *1025:40 28.775 
6 *1025:40 *4067:A 23 
*END

*D_NET *1026 0.00197099
*CONN
*I *3394:B1 I *D sky130_fd_sc_hd__o32a_2
*I *4221:A I *D sky130_fd_sc_hd__dlygate4sd3_1
*I *3881:Q O *D sky130_fd_sc_hd__dfrtp_2
*CAP
1 *3394:B1 0.0003388
2 *4221:A 0
3 *3881:Q 0.000188489
4 *1026:12 8.29533e-05
5 *1026:6 0.000610242
6 *3394:A1 *3394:B1 0
7 *3394:A3 *3394:B1 0.000317055
8 *3881:CLK *3394:B1 6.21625e-05
9 *409:20 *3394:B1 4.9346e-05
10 *409:20 *1026:6 1.60429e-05
11 *410:8 *3394:B1 0.00010725
12 *728:14 *1026:12 2.54046e-05
13 *858:8 *1026:12 0.000140958
14 *910:10 *1026:12 0
15 *1013:10 *1026:6 3.22879e-05
*RES
1 *3881:Q *1026:6 25.5271 
2 *1026:6 *1026:12 31.9057 
3 *1026:12 *4221:A 23 
4 *1026:6 *3394:B1 32.1143 
*END

*D_NET *1027 0.000432655
*CONN
*I *4178:A I *D sky130_fd_sc_hd__dlygate4sd3_1
*I *4045:Q O *D sky130_fd_sc_hd__dfrtp_2
*CAP
1 *4178:A 0.000195985
2 *4045:Q 0.000195985
3 *670:10 *4178:A 4.06849e-05
*RES
1 *4045:Q *4178:A 49.9564 
*END

*D_NET *1028 0.00184239
*CONN
*I *3391:A2 I *D sky130_fd_sc_hd__a21o_2
*I *4190:A I *D sky130_fd_sc_hd__dlygate4sd3_1
*I *4044:Q O *D sky130_fd_sc_hd__dfrtp_2
*CAP
1 *3391:A2 8.55417e-05
2 *4190:A 0.000473624
3 *4044:Q 7.55136e-05
4 *1028:8 0.000634679
5 *4190:A *4169:A 5.50106e-05
6 *3392:A2 *4190:A 4.79544e-05
7 *263:10 *3391:A2 3.22879e-05
8 *263:10 *1028:8 0
9 *659:75 *3391:A2 1.40958e-05
10 *659:75 *4190:A 0
11 *659:77 *3391:A2 0.000187129
12 *659:90 *1028:8 0
13 *683:6 *4190:A 2.98648e-05
14 *901:69 *4190:A 0
15 *901:77 *4190:A 6.48049e-05
16 *901:77 *1028:8 0.000141888
17 *911:147 *4190:A 0
*RES
1 *4044:Q *1028:8 39.9057 
2 *1028:8 *4190:A 46.3479 
3 *1028:8 *3391:A2 40.5271 
*END

*D_NET *1029 0.00086335
*CONN
*I *4234:A I *D sky130_fd_sc_hd__dlygate4sd3_1
*I *4043:Q O *D sky130_fd_sc_hd__dfrtp_2
*CAP
1 *4234:A 4.2583e-05
2 *4043:Q 0.000215355
3 *1029:8 0.000257938
4 *4234:A *1030:12 9.84851e-05
5 *174:8 *1029:8 0
6 *324:10 *1029:8 0.000248989
7 *894:96 *1029:8 0
8 *911:10 *1029:8 0
*RES
1 *4043:Q *1029:8 42.7229 
2 *1029:8 *4234:A 39.0979 
*END

*D_NET *1030 0.0123434
*CONN
*I *4169:A I *D sky130_fd_sc_hd__clkdlybuf4s25_1
*I *3527:B1 I *D sky130_fd_sc_hd__o211a_2
*I *3437:A1 I *D sky130_fd_sc_hd__a22o_2
*I *3439:A I *D sky130_fd_sc_hd__and2_2
*I *3440:A1 I *D sky130_fd_sc_hd__a21oi_2
*I *3915:Q O *D sky130_fd_sc_hd__dfrtp_2
*CAP
1 *4169:A 0.000151453
2 *3527:B1 0
3 *3437:A1 0
4 *3439:A 0
5 *3440:A1 0
6 *3915:Q 6.90834e-05
7 *1030:71 0.00102254
8 *1030:42 0.000522347
9 *1030:28 0.000966169
10 *1030:18 0.000742863
11 *1030:16 0.00138824
12 *1030:12 0.0012142
13 *1030:8 0.00136808
14 *1030:18 *1064:10 0
15 *1030:28 *3438:A2 0
16 *1030:28 *3439:B 0.000138444
17 *1030:28 *1035:12 4.17736e-05
18 *1030:28 *1035:25 0.000319294
19 *1030:28 *1064:10 0
20 *1030:42 *3439:B 9.84851e-05
21 *1030:71 *1051:30 0
22 *3363:A3 *1030:71 0.000136746
23 *3392:A2 *4169:A 5.50106e-05
24 *3436:B1 *1030:16 3.95159e-06
25 *3436:B1 *1030:18 0.000163923
26 *3440:B1 *1030:42 0
27 *3526:A2 *1030:71 4.67488e-05
28 *3526:B1 *1030:71 0.000182826
29 *3527:C1 *1030:71 0.000113153
30 *3786:B1 *1030:71 2.35625e-05
31 *3792:A1 *1030:42 0
32 *3942:SET_B *1030:28 0.000153784
33 *4190:A *4169:A 5.50106e-05
34 *4234:A *1030:12 9.84851e-05
35 *94:8 *1030:16 0.000114092
36 *94:8 *1030:18 3.47781e-05
37 *119:10 *1030:16 5.56203e-05
38 *119:10 *1030:71 0.000141052
39 *199:8 *1030:18 0
40 *360:33 *1030:42 0.000429621
41 *367:20 *1030:71 0.000110832
42 *628:10 *1030:8 0
43 *628:10 *1030:12 5.50106e-05
44 *643:119 *1030:28 2.24973e-05
45 *645:78 *1030:42 0.000186195
46 *645:101 *1030:71 0.000243237
47 *645:148 *1030:42 1.41129e-05
48 *659:75 *4169:A 1.4471e-05
49 *683:12 *4169:A 0.000197479
50 *683:12 *1030:8 0.000114083
51 *689:6 *1030:28 0.000168687
52 *689:6 *1030:42 0.000563675
53 *689:12 *1030:42 0
54 *709:10 *1030:28 5.31444e-05
55 *732:10 *4169:A 0
56 *732:10 *1030:12 5.38135e-05
57 *878:53 *1030:42 9.5877e-05
58 *892:23 *1030:28 1.03934e-05
59 *892:58 *1030:42 1.01436e-05
60 *893:8 *1030:12 0.000400204
61 *911:10 *4169:A 0
62 *934:16 *1030:42 0.000141052
63 *993:46 *1030:42 3.71198e-05
*RES
1 *3915:Q *1030:8 39.5536 
2 *1030:8 *1030:12 35.6314 
3 *1030:12 *1030:16 16.9057 
4 *1030:16 *1030:18 6.83571 
5 *1030:18 *1030:28 26.0614 
6 *1030:28 *1030:42 44.8107 
7 *1030:42 *3440:A1 23 
8 *1030:28 *3439:A 23 
9 *1030:18 *3437:A1 38 
10 *1030:16 *1030:71 47.7936 
11 *1030:71 *3527:B1 38 
12 *1030:8 *4169:A 41.9357 
*END

*D_NET *1031 0.000493743
*CONN
*I *4175:A I *D sky130_fd_sc_hd__dlygate4sd3_1
*I *4042:Q O *D sky130_fd_sc_hd__dfrtp_2
*CAP
1 *4175:A 0
2 *4042:Q 0.00020308
3 *1031:10 0.00020308
4 *11:10 *1031:10 0
5 *667:10 *1031:10 4.08641e-05
6 *877:83 *1031:10 1.14452e-05
7 *894:111 *1031:10 2.04774e-05
8 *934:28 *1031:10 1.47955e-05
*RES
1 *4042:Q *1031:10 41.48 
2 *1031:10 *4175:A 38 
*END

*D_NET *1032 0.000805093
*CONN
*I *3389:A2 I *D sky130_fd_sc_hd__a21o_2
*I *4186:A I *D sky130_fd_sc_hd__dlygate4sd3_1
*I *4041:Q O *D sky130_fd_sc_hd__dfrtp_2
*CAP
1 *3389:A2 2.268e-05
2 *4186:A 2.268e-05
3 *4041:Q 0.000134453
4 *1032:6 0.000134453
5 *679:8 *1032:6 5.83407e-05
6 *934:16 *3389:A2 3.22879e-05
7 *934:16 *1032:6 0.000400198
*RES
1 *4041:Q *1032:6 27.4329 
2 *1032:6 *4186:A 23 
3 *4186:A *3389:A2 46.6214 
*END

*D_NET *1033 0.000833114
*CONN
*I *4227:A I *D sky130_fd_sc_hd__dlygate4sd3_1
*I *4040:Q O *D sky130_fd_sc_hd__dfrtp_2
*CAP
1 *4227:A 0
2 *4040:Q 0.000240773
3 *1033:8 0.000240773
4 *4040:CLK *1033:8 0.000351568
*RES
1 *4040:Q *1033:8 27.8057 
2 *1033:8 *4227:A 23 
*END

*D_NET *1034 0.0029958
*CONN
*I *4226:A I *D sky130_fd_sc_hd__dlygate4sd3_1
*I *3389:A1 I *D sky130_fd_sc_hd__a21o_2
*I *3324:A I *D sky130_fd_sc_hd__inv_2
*I *3916:Q O *D sky130_fd_sc_hd__dfrtp_2
*CAP
1 *4226:A 0
2 *3389:A1 0
3 *3324:A 0
4 *3916:Q 0.000367533
5 *1034:39 0.000285723
6 *1034:25 0.000121188
7 *1034:14 0.000424868
8 *1034:6 0.000627866
9 *1034:14 *1039:8 8.41115e-05
10 *3846:A1 *1034:14 0.000302348
11 *4111:A *1034:39 0
12 *175:8 *1034:25 6.43149e-05
13 *325:10 *1034:14 0
14 *407:10 *1034:14 0.000110922
15 *723:10 *1034:6 3.16784e-05
16 *723:10 *1034:14 1.59094e-05
17 *723:10 *1034:25 9.03784e-05
18 *723:10 *1034:39 9.58714e-05
19 *878:92 *1034:14 7.39034e-05
20 *911:89 *1034:25 0.000299187
*RES
1 *3916:Q *1034:6 24.0979 
2 *1034:6 *1034:14 38.0786 
3 *1034:14 *3324:A 23 
4 *1034:6 *1034:25 34.0186 
5 *1034:25 *3389:A1 23 
6 *3916:Q *1034:39 27.4536 
7 *1034:39 *4226:A 23 
*END

*D_NET *1035 0.00411179
*CONN
*I *3442:A1 I *D sky130_fd_sc_hd__o21a_2
*I *3439:B I *D sky130_fd_sc_hd__and2_2
*I *3942:Q O *D sky130_fd_sc_hd__dfstp_2
*CAP
1 *3442:A1 0
2 *3439:B 6.5909e-05
3 *3942:Q 0.000519687
4 *1035:25 0.000250754
5 *1035:12 0.000449922
6 *1035:8 0.000652945
7 *1035:8 *1036:10 0.000141879
8 *1035:12 *4217:A 0.000224605
9 *3442:A2 *1035:25 9.03157e-05
10 *3790:A2 *1035:25 6.16531e-05
11 *202:10 *1035:8 9.00542e-05
12 *603:55 *1035:8 0
13 *603:105 *1035:8 0
14 *627:40 *1035:8 0
15 *645:148 *3439:B 0.000221992
16 *645:148 *1035:12 0.000348911
17 *689:6 *1035:12 8.54716e-05
18 *753:12 *1035:25 0
19 *878:16 *1035:8 0.00014504
20 *878:33 *1035:8 0
21 *892:23 *1035:25 5.58534e-05
22 *892:31 *1035:12 2.4754e-05
23 *892:46 *1035:25 8.4047e-05
24 *1030:28 *3439:B 0.000138444
25 *1030:28 *1035:12 4.17736e-05
26 *1030:28 *1035:25 0.000319294
27 *1030:42 *3439:B 9.84851e-05
*RES
1 *3942:Q *1035:8 49.0614 
2 *1035:8 *1035:12 19.9093 
3 *1035:12 *3439:B 25.5271 
4 *1035:12 *1035:25 35.7793 
5 *1035:25 *3442:A1 23 
*END

*D_NET *1036 0.000979189
*CONN
*I *4217:A I *D sky130_fd_sc_hd__dlygate4sd3_1
*I *3943:Q O *D sky130_fd_sc_hd__dfrtp_2
*CAP
1 *4217:A 0.00014043
2 *3943:Q 0.000122273
3 *1036:10 0.000262703
4 *603:105 *1036:10 0
5 *627:98 *1036:10 3.22879e-05
6 *689:6 *4217:A 5.50106e-05
7 *1035:8 *1036:10 0.000141879
8 *1035:12 *4217:A 0.000224605
*RES
1 *3943:Q *1036:10 40.5271 
2 *1036:10 *4217:A 41.0036 
*END

*D_NET *1037 0.000169491
*CONN
*I *4185:A I *D sky130_fd_sc_hd__dlygate4sd3_1
*I *3944:Q O *D sky130_fd_sc_hd__dfrtp_2
*CAP
1 *4185:A 8.47456e-05
2 *3944:Q 8.47456e-05
*RES
1 *3944:Q *4185:A 47.5743 
*END

*D_NET *1038 0.00118582
*CONN
*I *3396:A I *D sky130_fd_sc_hd__and4_2
*I *4016:Q O *D sky130_fd_sc_hd__dfstp_2
*CAP
1 *3396:A 0.000146676
2 *4016:Q 0.000193324
3 *1038:10 0.000339999
4 *3396:A *1091:10 9.41704e-05
5 *4016:D *1038:10 4.05745e-05
6 *4122:A *1038:10 9.5877e-05
7 *354:10 *1038:10 0.000138718
8 *894:51 *1038:10 0.000136486
*RES
1 *4016:Q *1038:10 41.9564 
2 *1038:10 *3396:A 40.0507 
*END

*D_NET *1039 0.00216364
*CONN
*I *3396:B I *D sky130_fd_sc_hd__and4_2
*I *4038:Q O *D sky130_fd_sc_hd__dfstp_2
*CAP
1 *3396:B 0.000104032
2 *4038:Q 0.000432746
3 *1039:8 0.000536778
4 *3396:C *3396:B 0.000269775
5 *3398:A *1039:8 0
6 *3846:A2 *1039:8 0
7 *359:8 *1039:8 0.000289034
8 *359:16 *1039:8 0.000272303
9 *602:8 *3396:B 0.000141052
10 *602:18 *1039:8 0
11 *937:12 *3396:B 2.18409e-05
12 *937:20 *1039:8 0
13 *939:12 *1039:8 0
14 *959:8 *1039:8 1.19692e-05
15 *1034:14 *1039:8 8.41115e-05
*RES
1 *4038:Q *1039:8 48.3571 
2 *1039:8 *3396:B 41.48 
*END

*D_NET *1040 0.000577549
*CONN
*I *3761:A I *D sky130_fd_sc_hd__buf_1
*I *3996:Q O *D sky130_fd_sc_hd__dfstp_2
*CAP
1 *3761:A 0.000123104
2 *3996:Q 0.000126229
3 *1040:8 0.000249333
4 *4045:CLK *1040:8 0
5 *4071:TE_B *3761:A 7.88828e-05
6 *629:8 *1040:8 0
7 *670:10 *1040:8 0
*RES
1 *3996:Q *1040:8 40.2579 
2 *1040:8 *3761:A 40.5271 
*END

*D_NET *1041 0.0055359
*CONN
*I *3365:D I *D sky130_fd_sc_hd__and4_2
*I *3387:A2 I *D sky130_fd_sc_hd__o21ai_2
*I *3385:A2 I *D sky130_fd_sc_hd__a21o_2
*I *3507:A I *D sky130_fd_sc_hd__xor2_2
*I *3364:C I *D sky130_fd_sc_hd__and3_2
*I *3388:A2 I *D sky130_fd_sc_hd__a21oi_2
*I *3917:Q O *D sky130_fd_sc_hd__dfrtp_2
*CAP
1 *3365:D 0
2 *3387:A2 0
3 *3385:A2 0
4 *3507:A 0.00018907
5 *3364:C 0.000104161
6 *3388:A2 0
7 *3917:Q 0.000858784
8 *1041:73 0.00049471
9 *1041:40 0.000310776
10 *1041:25 0.000240131
11 *1041:23 0.000108333
12 *1041:21 0.000758175
13 *1041:10 0.00102818
14 *3364:C *3364:A 9.84794e-05
15 *3507:A *3507:B 0
16 *3507:A *1042:29 0.000183733
17 *1041:21 *3364:B 0
18 *1041:21 *3387:A1 0
19 *1041:23 *3364:A 5.50049e-05
20 *1041:25 *3364:A 5.50106e-05
21 *1041:40 *3364:B 0
22 *1041:40 *3387:A1 1.58805e-05
23 *1041:40 *1050:27 5.97612e-05
24 *1041:73 *3365:B 0.000223698
25 *3767:A1 *1041:73 9.67842e-05
26 *3918:CLK *1041:73 8.85189e-05
27 *327:14 *1041:73 8.62783e-05
28 *391:10 *3364:C 4.66047e-05
29 *391:10 *1041:23 8.83847e-05
30 *391:10 *1041:73 1.32314e-05
31 *406:10 *3364:C 6.17437e-06
32 *406:10 *1041:10 0
33 *406:10 *1041:21 0
34 *406:10 *1041:25 2.32101e-05
35 *624:161 *1041:10 7.53384e-06
36 *641:54 *3364:C 2.64616e-05
37 *641:54 *1041:10 0
38 *644:27 *1041:10 9.84851e-05
39 *644:39 *1041:21 4.58924e-05
40 *716:10 *1041:10 2.5415e-05
41 *876:18 *3507:A 5.10686e-05
42 *876:18 *1041:73 4.79641e-05
43 *877:14 *1041:10 0
44 *877:14 *1041:21 0
*RES
1 *3917:Q *1041:10 49.455 
2 *1041:10 *3388:A2 38 
3 *1041:10 *1041:21 17.9621 
4 *1041:21 *1041:23 2.52714 
5 *1041:23 *1041:25 0.621429 
6 *1041:25 *3364:C 25.5479 
7 *1041:25 *1041:40 32.2579 
8 *1041:40 *3507:A 26.9771 
9 *1041:40 *3385:A2 23 
10 *1041:23 *3387:A2 23 
11 *1041:21 *1041:73 38.6793 
12 *1041:73 *3365:D 23 
*END

*D_NET *1042 0.00487717
*CONN
*I *3385:B1 I *D sky130_fd_sc_hd__a21o_2
*I *3508:A I *D sky130_fd_sc_hd__xnor2_2
*I *3364:B I *D sky130_fd_sc_hd__and3_2
*I *3365:C I *D sky130_fd_sc_hd__and4_2
*I *3918:Q O *D sky130_fd_sc_hd__dfrtp_2
*CAP
1 *3385:B1 0
2 *3508:A 0.000242049
3 *3364:B 0.000222784
4 *3365:C 0
5 *3918:Q 0.000438038
6 *1042:29 0.000544114
7 *1042:25 0.000419627
8 *1042:10 0.000778384
9 *3364:B *3387:A1 0
10 *1042:25 *1050:16 0.000712314
11 *1042:29 *3385:A1 5.50049e-05
12 *1042:29 *1050:16 5.50106e-05
13 *3383:A2 *3508:A 0
14 *3507:A *1042:29 0.000183733
15 *3667:B *3364:B 8.94487e-05
16 *3766:A2 *1042:10 2.5415e-05
17 *3766:A2 *1042:25 2.54046e-05
18 *11:10 *1042:10 4.49383e-05
19 *11:10 *1042:25 3.74169e-05
20 *327:14 *1042:25 7.68515e-05
21 *392:10 *1042:25 3.22879e-05
22 *396:40 *3508:A 0
23 *470:8 *3508:A 1.19692e-05
24 *641:54 *3364:B 3.70094e-05
25 *646:63 *3364:B 0
26 *646:63 *3508:A 0
27 *876:6 *1042:10 0.000206337
28 *876:18 *1042:25 0.000389772
29 *876:18 *1042:29 0.000170375
30 *890:25 *3508:A 7.88828e-05
31 *1041:21 *3364:B 0
32 *1041:40 *3364:B 0
*RES
1 *3918:Q *1042:10 45.0636 
2 *1042:10 *3365:C 38 
3 *1042:10 *1042:25 24.9429 
4 *1042:25 *1042:29 18.48 
5 *1042:29 *3364:B 41.6664 
6 *1042:29 *3508:A 42.8886 
7 *1042:25 *3385:B1 23 
*END

*D_NET *1043 0.00379416
*CONN
*I *3506:A I *D sky130_fd_sc_hd__xor2_2
*I *3383:A1 I *D sky130_fd_sc_hd__o21ai_2
*I *3365:B I *D sky130_fd_sc_hd__and4_2
*I *3919:Q O *D sky130_fd_sc_hd__dfrtp_2
*CAP
1 *3506:A 0
2 *3383:A1 0.000524629
3 *3365:B 0.000326925
4 *3919:Q 0.000170892
5 *1043:35 0.000378817
6 *1043:8 0.000643629
7 *3365:B *1050:16 0.000517604
8 *3383:A2 *3383:A1 4.83941e-05
9 *3383:A2 *1043:35 9.84851e-05
10 *3386:C *3365:B 0.000101831
11 *3919:RESET_B *1043:8 3.17209e-05
12 *178:8 *3365:B 8.33724e-05
13 *178:8 *3383:A1 4.07715e-05
14 *396:32 *3383:A1 0.000100543
15 *468:10 *1043:35 0.000247694
16 *468:16 *3383:A1 0
17 *625:92 *3383:A1 0
18 *877:29 *3365:B 0.000182585
19 *877:29 *3383:A1 6.48142e-05
20 *890:25 *1043:8 7.7507e-06
21 *1041:73 *3365:B 0.000223698
*RES
1 *3919:Q *1043:8 40.0507 
2 *1043:8 *3365:B 46.4721 
3 *1043:8 *3383:A1 42.0186 
4 *3383:A1 *1043:35 31.7207 
5 *1043:35 *3506:A 23 
*END

*D_NET *1044 0.00542663
*CONN
*I *3367:C I *D sky130_fd_sc_hd__and4_2
*I *3379:A1 I *D sky130_fd_sc_hd__a21o_2
*I *3323:A I *D sky130_fd_sc_hd__inv_2
*I *3366:B I *D sky130_fd_sc_hd__and3_2
*I *4237:A I *D sky130_fd_sc_hd__dlygate4sd3_1
*I *3381:A1 I *D sky130_fd_sc_hd__o21ai_2
*I *3920:Q O *D sky130_fd_sc_hd__dfrtp_2
*CAP
1 *3367:C 0
2 *3379:A1 6.36279e-05
3 *3323:A 0
4 *3366:B 4.55529e-05
5 *4237:A 0.000406248
6 *3381:A1 0.000385034
7 *3920:Q 3.45092e-05
8 *1044:66 0.000144932
9 *1044:53 0.000561067
10 *1044:49 0.000507511
11 *1044:45 7.3301e-05
12 *1044:43 0.000266502
13 *1044:8 0.000559289
14 *3366:B *3321:A 2.93747e-05
15 *3379:A1 *3367:A 5.08004e-05
16 *1044:43 *1048:35 0.000100488
17 *1044:53 *3321:A 4.66047e-05
18 *1044:53 *3367:A 0.00039326
19 *3366:C *3379:A1 2.96466e-05
20 *3367:D *1044:49 2.02872e-05
21 *3997:CLK *3381:A1 0.000264823
22 *117:12 *3381:A1 2.31797e-05
23 *179:10 *4237:A 0
24 *179:10 *1044:43 0
25 *355:6 *1044:43 0.000530627
26 *355:18 *1044:66 0
27 *392:29 *1044:43 1.01436e-05
28 *392:44 *3379:A1 1.20483e-05
29 *392:44 *1044:43 0.000218962
30 *392:44 *1044:49 1.14154e-05
31 *392:50 *3379:A1 5.15488e-05
32 *392:50 *1044:49 2.18409e-05
33 *396:16 *1044:8 2.64616e-05
34 *396:57 *1044:66 0
35 *396:87 *3381:A1 0
36 *471:10 *1044:66 0
37 *606:67 *3381:A1 6.48142e-05
38 *606:88 *3381:A1 0.000179702
39 *606:88 *4237:A 9.03784e-05
40 *606:88 *1044:8 1.59094e-05
41 *735:10 *1044:43 0.000147134
42 *891:62 *4237:A 3.96053e-05
*RES
1 *3920:Q *1044:8 38.6214 
2 *1044:8 *3381:A1 46.8657 
3 *1044:8 *4237:A 40.9621 
4 *4237:A *1044:43 46.8243 
5 *1044:43 *1044:45 15 
6 *1044:45 *1044:49 1.595 
7 *1044:49 *1044:53 6.235 
8 *1044:53 *3366:B 23.6214 
9 *1044:53 *1044:66 32.2579 
10 *1044:66 *3323:A 23 
11 *1044:49 *3379:A1 25.6825 
12 *1044:45 *3367:C 23 
*END

*D_NET *1045 0.00326734
*CONN
*I *3367:B I *D sky130_fd_sc_hd__and4_2
*I *3379:B1 I *D sky130_fd_sc_hd__a21o_2
*I *3366:A I *D sky130_fd_sc_hd__and3_2
*I *3322:A I *D sky130_fd_sc_hd__inv_2
*I *3921:Q O *D sky130_fd_sc_hd__dfrtp_2
*CAP
1 *3367:B 0
2 *3379:B1 0
3 *3366:A 2.34823e-05
4 *3322:A 2.95011e-05
5 *3921:Q 0.000523754
6 *1045:43 7.15707e-05
7 *1045:18 0.000152908
8 *1045:16 0.000389344
9 *1045:6 0.000884745
10 *3322:A *3321:A 5.50106e-05
11 *3366:A *3321:A 0
12 *1045:16 *3367:A 2.32101e-05
13 *1045:18 *3321:A 0.000215671
14 *1045:18 *3367:A 9.6103e-05
15 *3366:C *3366:A 0
16 *3366:C *1045:16 2.64616e-05
17 *3366:C *1045:18 0.000204225
18 *3921:CLK *1045:16 0.000136486
19 *3921:D *1045:16 6.15432e-05
20 *3921:RESET_B *1045:6 0.000135338
21 *11:10 *1045:43 4.25525e-05
22 *396:57 *1045:16 0.000138727
23 *402:10 *1045:18 5.67058e-05
*RES
1 *3921:Q *1045:6 30.2914 
2 *1045:6 *1045:16 35.0543 
3 *1045:16 *1045:18 4.43286 
4 *1045:18 *3322:A 23.6214 
5 *1045:18 *3366:A 23.4971 
6 *1045:16 *3379:B1 23 
7 *1045:6 *1045:43 31.2014 
8 *1045:43 *3367:B 23 
*END

*D_NET *1046 0.00349325
*CONN
*I *4322:A I *D sky130_fd_sc_hd__dlygate4sd3_1
*I *3367:A I *D sky130_fd_sc_hd__and4_2
*I *3321:A I *D sky130_fd_sc_hd__inv_2
*I *3922:Q O *D sky130_fd_sc_hd__dfrtp_2
*CAP
1 *4322:A 0.000276925
2 *3367:A 0.000132267
3 *3321:A 0.000173239
4 *3922:Q 0
5 *1046:10 0.000612961
6 *1046:6 0.000584379
7 *3322:A *3321:A 5.50106e-05
8 *3366:A *3321:A 0
9 *3366:B *3321:A 2.93747e-05
10 *3366:C *3367:A 7.43025e-06
11 *3379:A1 *3367:A 5.08004e-05
12 *355:18 *1046:10 0
13 *357:12 *3321:A 0.00010018
14 *393:8 *1046:10 0.000141879
15 *393:27 *4322:A 0.000141879
16 *393:27 *1046:10 0.000301156
17 *396:57 *1046:10 0
18 *402:10 *1046:10 0.000110922
19 *1044:53 *3321:A 4.66047e-05
20 *1044:53 *3367:A 0.00039326
21 *1045:16 *3367:A 2.32101e-05
22 *1045:18 *3321:A 0.000215671
23 *1045:18 *3367:A 9.6103e-05
*RES
1 *3922:Q *1046:6 38 
2 *1046:6 *1046:10 21.8357 
3 *1046:10 *3321:A 27.93 
4 *1046:10 *3367:A 27.9507 
5 *1046:6 *4322:A 42.9093 
*END

*D_NET *1047 0.00712867
*CONN
*I *3373:A2 I *D sky130_fd_sc_hd__a311o_2
*I *3372:A1 I *D sky130_fd_sc_hd__a21oi_2
*I *3320:A I *D sky130_fd_sc_hd__inv_2
*I *3370:C I *D sky130_fd_sc_hd__nand4_2
*I *4320:A I *D sky130_fd_sc_hd__dlygate4sd3_1
*I *3368:A2 I *D sky130_fd_sc_hd__a31o_2
*I *3375:A1 I *D sky130_fd_sc_hd__o21ai_2
*I *3923:Q O *D sky130_fd_sc_hd__dfrtp_2
*CAP
1 *3373:A2 0.000151621
2 *3372:A1 0
3 *3320:A 9.28328e-05
4 *3370:C 2.14194e-05
5 *4320:A 0.000201897
6 *3368:A2 6.96308e-05
7 *3375:A1 0.000111199
8 *3923:Q 7.24935e-05
9 *1047:76 0.000822202
10 *1047:68 0.001127
11 *1047:39 0.000444917
12 *1047:20 0.000532516
13 *1047:14 0.000357173
14 *1047:8 0.00040633
15 *3320:A *1048:35 0.000119467
16 *3370:C *1048:69 0
17 *3373:A2 *3373:B1 1.14154e-05
18 *3373:A2 *1048:95 3.43674e-05
19 *3375:A1 *1049:6 4.17736e-05
20 *3375:A1 *1049:8 0.000181919
21 *1047:20 *1048:75 0.000144444
22 *1047:39 *1048:75 3.95159e-06
23 *1047:39 *1049:38 8.4047e-05
24 *3768:A1 *1047:14 0.000317553
25 *3768:A1 *1047:20 5.50106e-05
26 *3773:B1 *1047:68 0.000348465
27 *3925:CLK *3375:A1 1.94693e-05
28 *3925:D *3375:A1 3.01041e-05
29 *182:10 *1047:20 0
30 *184:8 *1047:8 8.62876e-05
31 *184:8 *1047:20 0
32 *394:37 *3375:A1 5.90675e-06
33 *394:52 *3368:A2 1.24376e-05
34 *394:58 *3368:A2 1.14154e-05
35 *394:58 *4320:A 9.72057e-06
36 *394:85 *3370:C 5.90675e-06
37 *394:85 *1047:14 4.19743e-05
38 *394:85 *1047:20 3.22879e-05
39 *394:98 *1047:14 0.000230604
40 *394:98 *1047:68 1.22803e-05
41 *396:14 *1047:76 5.26733e-06
42 *396:96 *1047:76 0.000138718
43 *399:6 *1047:76 0.000221242
44 *626:56 *1047:76 0.000227208
45 *644:77 *1047:76 6.4393e-05
46 *644:83 *3320:A 7.91871e-05
47 *827:8 *3368:A2 4.04303e-05
48 *827:8 *4320:A 0.00010018
*RES
1 *3923:Q *1047:8 39.5536 
2 *1047:8 *1047:14 19.1014 
3 *1047:14 *1047:20 21.4007 
4 *1047:20 *3375:A1 41.0243 
5 *1047:20 *1047:39 18.1486 
6 *1047:39 *3368:A2 24.595 
7 *1047:39 *4320:A 27.4536 
8 *1047:14 *3370:C 23.4971 
9 *1047:8 *1047:68 20.4271 
10 *1047:68 *1047:76 41.5793 
11 *1047:76 *3320:A 25.5271 
12 *1047:76 *3372:A1 23 
13 *1047:68 *3373:A2 25.7136 
*END

*D_NET *1048 0.0110724
*CONN
*I *3373:A1 I *D sky130_fd_sc_hd__a311o_2
*I *3370:B I *D sky130_fd_sc_hd__nand4_2
*I *3368:A1 I *D sky130_fd_sc_hd__a31o_2
*I *3509:B2 I *D sky130_fd_sc_hd__o221a_2
*I *3510:B2 I *D sky130_fd_sc_hd__a221o_2
*I *3372:B1 I *D sky130_fd_sc_hd__a21oi_2
*I *3924:Q O *D sky130_fd_sc_hd__dfrtp_2
*CAP
1 *3373:A1 0
2 *3370:B 0
3 *3368:A1 0
4 *3509:B2 0.000129859
5 *3510:B2 0.000289416
6 *3372:B1 0
7 *3924:Q 3.3552e-05
8 *1048:95 0.000129797
9 *1048:75 0.000241866
10 *1048:69 0.000524241
11 *1048:35 0.00213034
12 *1048:10 0.00268391
13 *1048:6 0.000853824
14 *3509:B2 *1056:21 7.8128e-05
15 *3509:B2 *1058:14 0.000151898
16 *3509:B2 *1061:14 0
17 *3510:B2 *1056:6 2.85422e-05
18 *3510:B2 *1056:21 0.000230987
19 *3510:B2 *1058:14 6.48142e-05
20 *1048:35 *1058:14 2.93845e-05
21 *1048:69 *1049:27 5.50106e-05
22 *1048:75 *1049:38 4.08641e-05
23 *1048:95 *3373:B1 7.53384e-06
24 *3320:A *1048:35 0.000119467
25 *3370:C *1048:69 0
26 *3373:A2 *1048:95 3.43674e-05
27 *3382:A2 *1048:35 2.87134e-05
28 *3513:B2 *1048:35 0.000171185
29 *3768:A1 *1048:69 0.000157938
30 *3772:B1 *1048:10 7.50607e-05
31 *3924:D *1048:10 5.3304e-05
32 *3924:RESET_B *1048:6 5.50106e-05
33 *3924:RESET_B *1048:10 8.79516e-05
34 *355:6 *1048:35 0.000604796
35 *358:8 *1048:35 0.000171734
36 *387:35 *3510:B2 3.02431e-05
37 *394:37 *1048:69 6.16531e-05
38 *394:44 *1048:69 5.28582e-05
39 *394:52 *1048:69 6.7177e-06
40 *394:52 *1048:75 0.000555015
41 *394:85 *1048:69 5.50106e-05
42 *394:98 *1048:95 8.62783e-05
43 *397:8 *1048:69 1.58805e-05
44 *468:16 *1048:35 6.36877e-05
45 *626:64 *1048:10 2.80394e-05
46 *626:70 *1048:10 1.76557e-05
47 *626:70 *1048:35 0.000139352
48 *626:70 *1048:69 3.43537e-05
49 *644:77 *1048:69 4.18957e-05
50 *644:83 *1048:35 2.81406e-06
51 *646:63 *3510:B2 0
52 *735:10 *1048:35 0.000368552
53 *1044:43 *1048:35 0.000100488
54 *1047:20 *1048:75 0.000144444
55 *1047:39 *1048:75 3.95159e-06
*RES
1 *3924:Q *1048:6 23.6214 
2 *1048:6 *1048:10 10.0464 
3 *1048:10 *3372:B1 23 
4 *1048:10 *1048:35 46.2786 
5 *1048:35 *3510:B2 44.815 
6 *1048:35 *3509:B2 40.8793 
7 *1048:10 *1048:69 36.3593 
8 *1048:69 *1048:75 37.54 
9 *1048:75 *3368:A1 23 
10 *1048:69 *3370:B 23 
11 *1048:6 *1048:95 32.32 
12 *1048:95 *3373:A1 23 
*END

*D_NET *1049 0.00799185
*CONN
*I *3368:B1 I *D sky130_fd_sc_hd__a31o_2
*I *3370:A I *D sky130_fd_sc_hd__nand4_2
*I *3505:A I *D sky130_fd_sc_hd__xnor2_2
*I *3925:Q O *D sky130_fd_sc_hd__dfrtp_2
*CAP
1 *3368:B1 0
2 *3370:A 0
3 *3505:A 0.00164936
4 *3925:Q 0.000627952
5 *1049:38 6.81101e-05
6 *1049:27 0.000253123
7 *1049:8 0.00220534
8 *1049:6 0.000998916
9 *3375:A1 *1049:6 4.17736e-05
10 *3375:A1 *1049:8 0.000181919
11 *3375:B1 *3505:A 2.93845e-05
12 *3375:B1 *1049:27 6.7177e-06
13 *3768:A1 *1049:27 4.05745e-05
14 *3922:CLK *3505:A 0.000256969
15 *3922:RESET_B *3505:A 0.000178813
16 *3925:CLK *1049:8 1.55097e-05
17 *11:8 *3505:A 0.000126703
18 *182:10 *1049:38 0
19 *332:10 *1049:27 2.24048e-05
20 *394:27 *1049:27 5.50049e-05
21 *394:37 *1049:8 1.21972e-05
22 *394:37 *1049:27 0.000397725
23 *394:44 *1049:27 9.5877e-05
24 *394:52 *1049:38 7.75329e-06
25 *400:10 *3505:A 5.50049e-05
26 *400:10 *1049:8 4.08664e-05
27 *400:10 *1049:27 3.47781e-05
28 *626:70 *1049:27 0.000218013
29 *626:81 *1049:27 0.000191138
30 *644:103 *1049:27 0
31 *1047:39 *1049:38 8.4047e-05
32 *1048:69 *1049:27 5.50106e-05
33 *1048:75 *1049:38 4.08641e-05
*RES
1 *3925:Q *1049:6 30.7679 
2 *1049:6 *1049:8 3.95643 
3 *1049:8 *3505:A 47.9607 
4 *1049:8 *1049:27 38.0579 
5 *1049:27 *3370:A 23 
6 *1049:6 *1049:38 31.5536 
7 *1049:38 *3368:B1 23 
*END

*D_NET *1050 0.00661489
*CONN
*I *3363:A1 I *D sky130_fd_sc_hd__a31o_2
*I *4219:A I *D sky130_fd_sc_hd__dlygate4sd3_1
*I *3365:A I *D sky130_fd_sc_hd__and4_2
*I *3364:A I *D sky130_fd_sc_hd__and3_2
*I *3387:A1 I *D sky130_fd_sc_hd__o21ai_2
*I *3385:A1 I *D sky130_fd_sc_hd__a21o_2
*I *3926:Q O *D sky130_fd_sc_hd__dfrtp_2
*CAP
1 *3363:A1 0.000509785
2 *4219:A 0
3 *3365:A 0
4 *3364:A 4.66661e-05
5 *3387:A1 4.75388e-05
6 *3385:A1 3.27378e-05
7 *3926:Q 0.000291238
8 *1050:70 0.000595958
9 *1050:56 0.000262395
10 *1050:27 0.000178314
11 *1050:16 0.000497015
12 *1050:8 0.000597874
13 *1050:6 0.000685166
14 *3363:A1 *1051:30 6.48377e-05
15 *3363:A2 *3363:A1 2.13216e-05
16 *3363:A3 *3363:A1 5.50106e-05
17 *3364:B *3387:A1 0
18 *3364:C *3364:A 9.84794e-05
19 *3365:B *1050:16 0.000517604
20 *3386:A_N *1050:16 5.3304e-05
21 *3386:C *1050:16 7.21329e-05
22 *3766:A2 *1050:56 0
23 *3774:B1 *3363:A1 9.84851e-05
24 *4137:A *1050:70 7.03766e-05
25 *4150:A *1050:6 5.50049e-05
26 *177:10 *1050:56 0
27 *335:10 *3363:A1 1.57571e-05
28 *391:10 *3364:A 0.000182826
29 *396:40 *3387:A1 2.76611e-06
30 *396:40 *1050:27 3.98859e-05
31 *606:67 *1050:56 0.000218686
32 *877:29 *3363:A1 5.12254e-05
33 *877:48 *1050:70 2.60152e-05
34 *890:8 *1050:8 0.000153155
35 *891:62 *1050:70 6.53445e-05
36 *1041:21 *3387:A1 0
37 *1041:23 *3364:A 5.50049e-05
38 *1041:25 *3364:A 5.50106e-05
39 *1041:40 *3387:A1 1.58805e-05
40 *1041:40 *1050:27 5.97612e-05
41 *1042:25 *1050:16 0.000712314
42 *1042:29 *3385:A1 5.50049e-05
43 *1042:29 *1050:16 5.50106e-05
*RES
1 *3926:Q *1050:6 26.48 
2 *1050:6 *1050:8 4.90929 
3 *1050:8 *1050:16 11.2893 
4 *1050:16 *3385:A1 23.6214 
5 *1050:16 *1050:27 16.9057 
6 *1050:27 *3387:A1 38.8493 
7 *1050:27 *3364:A 40.0507 
8 *1050:8 *3365:A 23 
9 *1050:6 *1050:56 35.7793 
10 *1050:56 *4219:A 23 
11 *3926:Q *1050:70 40.61 
12 *1050:70 *3363:A1 47.2179 
*END

*D_NET *1051 0.00805093
*CONN
*I *3369:B I *D sky130_fd_sc_hd__nor2_2
*I *3373:B1 I *D sky130_fd_sc_hd__a311o_2
*I *3437:B2 I *D sky130_fd_sc_hd__a22o_2
*I *3333:A I *D sky130_fd_sc_hd__inv_2
*I *3434:B I *D sky130_fd_sc_hd__or2_2
*I *3997:Q O *D sky130_fd_sc_hd__dfrtp_2
*CAP
1 *3369:B 0
2 *3373:B1 0.000234501
3 *3437:B2 0
4 *3333:A 4.08621e-05
5 *3434:B 0
6 *3997:Q 0.000258868
7 *1051:56 0.000464241
8 *1051:39 0.000697575
9 *1051:30 0.000910649
10 *1051:20 0.0015152
11 *1051:16 0.0007501
12 *1051:10 0.000362391
13 *3333:A *3436:A2 2.02517e-05
14 *3373:B1 *4291:A 0
15 *1051:16 *3369:A 5.50049e-05
16 *1051:39 *3436:A2 5.90675e-06
17 *1051:39 *3528:A2 3.34247e-05
18 *1051:56 *3436:A2 1.01436e-05
19 *1051:56 *3437:A2 0.000183733
20 *1051:56 *3438:A2 1.14452e-05
21 *1051:56 *1062:10 0.000166513
22 *1051:56 *1062:30 0.000454255
23 *3363:A1 *1051:30 6.48377e-05
24 *3363:A2 *1051:30 8.29936e-06
25 *3363:A3 *1051:30 0
26 *3363:B1 *1051:30 0.000215589
27 *3363:B1 *1051:39 5.12254e-05
28 *3373:A2 *3373:B1 1.14154e-05
29 *3436:A1 *1051:39 7.43025e-06
30 *3436:A1 *1051:56 1.21972e-05
31 *3436:B1 *1051:56 0
32 *3436:B2 *1051:56 6.17437e-06
33 *3773:B1 *3373:B1 5.61414e-05
34 *3996:CLK *1051:10 0.000172197
35 *3996:CLK *1051:16 4.04303e-05
36 *4098:A *1051:10 0.00010018
37 *185:10 *1051:30 9.98788e-05
38 *205:8 *1051:20 0
39 *335:10 *1051:30 9.58714e-05
40 *396:10 *1051:10 0.000289745
41 *478:10 *1051:30 2.93747e-05
42 *626:8 *1051:10 0.000185434
43 *644:55 *1051:30 5.44006e-05
44 *645:114 *3373:B1 2.01531e-05
45 *645:114 *1051:20 0.000216533
46 *763:12 *1051:20 3.0647e-05
47 *879:37 *1051:20 0
48 *911:89 *1051:30 0.00010018
49 *1030:71 *1051:30 0
50 *1048:95 *3373:B1 7.53384e-06
*RES
1 *3997:Q *1051:10 30.9336 
2 *1051:10 *1051:16 17.0714 
3 *1051:16 *1051:20 23.9486 
4 *1051:20 *1051:30 45.0179 
5 *1051:30 *3434:B 23 
6 *1051:20 *1051:39 3.02429 
7 *1051:39 *3333:A 23.8493 
8 *1051:39 *1051:56 40.9164 
9 *1051:56 *3437:B2 23 
10 *1051:16 *3373:B1 42.4329 
11 *1051:10 *3369:B 23 
*END

*D_NET *1052 0.00184665
*CONN
*I *4291:A I *D sky130_fd_sc_hd__dlygate4sd3_1
*I *3369:A I *D sky130_fd_sc_hd__nor2_2
*I *3986:Q O *D sky130_fd_sc_hd__dfrtp_2
*CAP
1 *4291:A 0.000269646
2 *3369:A 0.000207225
3 *3986:Q 6.21258e-05
4 *1052:8 0.000538997
5 *3373:B1 *4291:A 0
6 *3996:CLK *3369:A 0.000320984
7 *205:8 *1052:8 0
8 *645:122 *4291:A 2.96051e-05
9 *879:59 *4291:A 3.92407e-05
10 *879:59 *1052:8 0.000116314
11 *879:68 *4291:A 0.000207507
12 *1051:16 *3369:A 5.50049e-05
*RES
1 *3986:Q *1052:8 39.5536 
2 *1052:8 *3369:A 43.22 
3 *1052:8 *4291:A 43.365 
*END

*D_NET *1053 0.00243131
*CONN
*I *3507:B I *D sky130_fd_sc_hd__xor2_2
*I *3987:Q O *D sky130_fd_sc_hd__dfrtp_2
*CAP
1 *3507:B 0.000521696
2 *3987:Q 0.000192149
3 *1053:12 0.000713845
4 *3507:A *3507:B 0
5 *3795:A2 *3507:B 0.000144494
6 *3795:B1 *3507:B 4.65192e-05
7 *3796:B1 *3507:B 2.18409e-05
8 *163:10 *3507:B 0.000321267
9 *164:10 *1053:12 0
10 *206:10 *3507:B 0.000277173
11 *206:10 *1053:12 3.7252e-05
12 *876:26 *3507:B 9.37067e-05
13 *876:30 *3507:B 8.06804e-06
14 *890:37 *3507:B 5.3304e-05
*RES
1 *3987:Q *1053:12 41.0243 
2 *1053:12 *3507:B 26.8796 
*END

*D_NET *1054 0.000358165
*CONN
*I *3508:B I *D sky130_fd_sc_hd__xnor2_2
*I *3988:Q O *D sky130_fd_sc_hd__dfrtp_2
*CAP
1 *3508:B 0.000139483
2 *3988:Q 0.000139483
3 *890:25 *3508:B 7.9199e-05
*RES
1 *3988:Q *3508:B 48.5271 
*END

*D_NET *1055 0.00174533
*CONN
*I *3506:B I *D sky130_fd_sc_hd__xor2_2
*I *3989:Q O *D sky130_fd_sc_hd__dfrtp_2
*CAP
1 *3506:B 0.000363021
2 *3989:Q 0.000344327
3 *1055:8 0.000707348
4 *163:10 *1055:8 0.000192087
5 *468:10 *3506:B 2.8521e-05
6 *624:120 *1055:8 0.000110024
*RES
1 *3989:Q *1055:8 45.54 
2 *1055:8 *3506:B 20.7896 
*END

*D_NET *1056 0.00203976
*CONN
*I *3509:A2 I *D sky130_fd_sc_hd__o221a_2
*I *3510:A2 I *D sky130_fd_sc_hd__a221o_2
*I *3990:Q O *D sky130_fd_sc_hd__dfrtp_2
*CAP
1 *3509:A2 0
2 *3510:A2 4.05369e-05
3 *3990:Q 0.000163178
4 *1056:21 0.000250763
5 *1056:6 0.000454479
6 *3509:A1 *1056:21 1.37349e-05
7 *3509:B2 *1056:21 7.8128e-05
8 *3510:A1 *3510:A2 5.90686e-05
9 *3510:A1 *1056:21 6.43108e-05
10 *3510:B2 *1056:6 2.85422e-05
11 *3510:B2 *1056:21 0.000230987
12 *3510:C1 *1056:6 0.000139352
13 *387:35 *1056:6 5.70419e-05
14 *474:10 *1056:21 0.000459638
*RES
1 *3990:Q *1056:6 26.48 
2 *1056:6 *3510:A2 24.1445 
3 *1056:6 *1056:21 38.2443 
4 *1056:21 *3509:A2 23 
*END

*D_NET *1057 0.00271633
*CONN
*I *3513:A2 I *D sky130_fd_sc_hd__a221oi_2
*I *3512:A2 I *D sky130_fd_sc_hd__o221a_2
*I *3991:Q O *D sky130_fd_sc_hd__dfrtp_2
*CAP
1 *3513:A2 0
2 *3512:A2 0
3 *3991:Q 0.000312286
4 *1057:22 0.000294718
5 *1057:12 0.000294718
6 *1057:10 0.000312286
7 *3512:C1 *1057:22 2.93747e-05
8 *387:14 *1057:22 4.6318e-06
9 *387:35 *1057:10 0.000219882
10 *387:35 *1057:22 7.13673e-05
11 *625:8 *1057:10 0.000147996
12 *641:99 *1057:10 0.000275472
13 *641:107 *1057:10 5.50049e-05
14 *646:63 *1057:10 0.000219882
15 *876:70 *1057:10 0.000240324
16 *876:78 *1057:10 2.02872e-05
17 *876:87 *1057:22 0
18 *890:79 *1057:10 0.000218103
*RES
1 *3991:Q *1057:10 49.6829 
2 *1057:10 *1057:12 15 
3 *1057:12 *1057:22 35.6343 
4 *1057:22 *3512:A2 23 
5 *1057:12 *3513:A2 23 
*END

*D_NET *1058 0.00333549
*CONN
*I *3511:B1 I *D sky130_fd_sc_hd__o2bb2a_2
*I *3513:B1 I *D sky130_fd_sc_hd__a221oi_2
*I *3992:Q O *D sky130_fd_sc_hd__dfrtp_2
*CAP
1 *3511:B1 0
2 *3513:B1 0
3 *3992:Q 0.00068918
4 *1058:27 0.000172675
5 *1058:14 0.00024792
6 *1058:6 0.00110978
7 *3509:B2 *1058:14 0.000151898
8 *3510:B2 *1058:14 6.48142e-05
9 *3511:B2 *1058:27 0
10 *3512:A1 *1058:14 3.3746e-05
11 *3512:C1 *1058:6 0.000563675
12 *3512:C1 *1058:27 8.60475e-05
13 *3513:A1 *1058:14 8.51225e-05
14 *467:10 *1058:14 6.16439e-05
15 *467:10 *1058:27 3.96053e-05
16 *1048:35 *1058:14 2.93845e-05
*RES
1 *3992:Q *1058:6 32.6736 
2 *1058:6 *1058:14 35.1164 
3 *1058:14 *3513:B1 23 
4 *1058:6 *1058:27 33.0036 
5 *1058:27 *3511:B1 23 
*END

*D_NET *1059 0.00411079
*CONN
*I *3512:B1 I *D sky130_fd_sc_hd__o221a_2
*I *3511:A2_N I *D sky130_fd_sc_hd__o2bb2a_2
*I *3993:Q O *D sky130_fd_sc_hd__dfrtp_2
*CAP
1 *3512:B1 8.88558e-05
2 *3511:A2_N 0.000689903
3 *3993:Q 0.000709909
4 *1059:10 0.00148867
5 *1059:10 *1060:8 5.79438e-05
6 *3512:C1 *3512:B1 1.28818e-05
7 *3801:A1 *1059:10 6.8137e-05
8 *3801:B1 *1059:10 1.83408e-05
9 *3803:A1 *1059:10 0.000137651
10 *3993:RESET_B *1059:10 0.000144494
11 *355:30 *3511:A2_N 0.00031074
12 *355:30 *3512:B1 0.000133316
13 *355:30 *1059:10 9.26098e-05
14 *387:14 *1059:10 0
15 *876:87 *3512:B1 4.2361e-05
16 *876:100 *3512:B1 2.76611e-06
17 *876:100 *1059:10 9.508e-05
18 *890:113 *1059:10 6.30285e-06
19 *890:120 *1059:10 1.08287e-05
*RES
1 *3993:Q *1059:10 49.5379 
2 *1059:10 *3511:A2_N 47.8186 
3 *1059:10 *3512:B1 40.0559 
*END

*D_NET *1060 0.000331578
*CONN
*I *3354:A I *D sky130_fd_sc_hd__inv_2
*I *3994:Q O *D sky130_fd_sc_hd__dfrtp_2
*CAP
1 *3354:A 0
2 *3994:Q 0.000105927
3 *1060:8 0.000105927
4 *3802:A1 *1060:8 5.83599e-05
5 *876:100 *1060:8 3.41998e-06
6 *1059:10 *1060:8 5.79438e-05
*RES
1 *3994:Q *1060:8 39.9057 
2 *1060:8 *3354:A 38 
*END

*D_NET *1061 0.000490659
*CONN
*I *3505:B I *D sky130_fd_sc_hd__xnor2_2
*I *3995:Q O *D sky130_fd_sc_hd__dfrtp_2
*CAP
1 *3505:B 0
2 *3995:Q 0.000212503
3 *1061:14 0.000212503
4 *3509:B2 *1061:14 0
5 *355:30 *1061:14 5.70419e-05
6 *467:10 *1061:14 8.61037e-06
*RES
1 *3995:Q *1061:14 41.77 
2 *1061:14 *3505:B 38 
*END

*D_NET *1062 0.0046171
*CONN
*I *3436:A2 I *D sky130_fd_sc_hd__a22o_2
*I *3528:A2 I *D sky130_fd_sc_hd__a21o_2
*I *3334:A I *D sky130_fd_sc_hd__inv_2
*I *3438:A2 I *D sky130_fd_sc_hd__a22o_2
*I *3938:Q O *D sky130_fd_sc_hd__dfstp_2
*CAP
1 *3436:A2 0.000302256
2 *3528:A2 0.000116927
3 *3334:A 0
4 *3438:A2 0.000311753
5 *3938:Q 8.07593e-05
6 *1062:30 0.000677781
7 *1062:10 0.000372387
8 *1062:8 0.000399991
9 *1062:8 *1063:8 9.5877e-05
10 *3333:A *3436:A2 2.02517e-05
11 *3363:B1 *3528:A2 0.000182826
12 *3436:A1 *3436:A2 7.93118e-05
13 *3436:A1 *3528:A2 0.000271476
14 *3436:B1 *3436:A2 1.86869e-05
15 *3436:B1 *3438:A2 0
16 *3436:B2 *3436:A2 5.50106e-05
17 *3438:B1 *3438:A2 0.000112165
18 *3442:B1 *3438:A2 0.000138066
19 *709:10 *3438:A2 0
20 *753:12 *3438:A2 0.000197479
21 *753:12 *1062:10 0.000154147
22 *753:12 *1062:30 0.000293134
23 *763:12 *1062:30 5.51222e-05
24 *1030:28 *3438:A2 0
25 *1051:39 *3436:A2 5.90675e-06
26 *1051:39 *3528:A2 3.34247e-05
27 *1051:56 *3436:A2 1.01436e-05
28 *1051:56 *3438:A2 1.14452e-05
29 *1051:56 *1062:10 0.000166513
30 *1051:56 *1062:30 0.000454255
*RES
1 *3938:Q *1062:8 39.0979 
2 *1062:8 *1062:10 2.25786 
3 *1062:10 *3438:A2 44.7736 
4 *1062:10 *3334:A 38 
5 *1062:8 *1062:30 6.83571 
6 *1062:30 *3528:A2 41.625 
7 *1062:30 *3436:A2 43.6395 
*END

*D_NET *1063 0.00388495
*CONN
*I *3437:A2 I *D sky130_fd_sc_hd__a22o_2
*I *4319:A I *D sky130_fd_sc_hd__dlygate4sd3_1
*I *3527:A1 I *D sky130_fd_sc_hd__o211a_2
*I *3939:Q O *D sky130_fd_sc_hd__dfrtp_2
*CAP
1 *3437:A2 0.000413862
2 *4319:A 0
3 *3527:A1 0.000632948
4 *3939:Q 0.000353187
5 *1063:29 0.000488981
6 *1063:8 0.00106125
7 *3527:A1 *3527:A2 0.000130109
8 *3437:B1 *3437:A2 5.50106e-05
9 *3527:C1 *3527:A1 1.5769e-05
10 *3938:CLK *3527:A1 5.74253e-05
11 *3938:D *3527:A1 0.000144221
12 *92:8 *1063:29 7.03663e-05
13 *367:10 *3437:A2 2.93747e-05
14 *424:10 *3527:A1 5.52059e-05
15 *478:10 *3527:A1 2.97267e-05
16 *763:12 *1063:29 6.79006e-05
17 *911:89 *3527:A1 0
18 *1051:56 *3437:A2 0.000183733
19 *1062:8 *1063:8 9.5877e-05
*RES
1 *3939:Q *1063:8 28.4064 
2 *1063:8 *3527:A1 32.8341 
3 *1063:8 *1063:29 31.9057 
4 *1063:29 *4319:A 23 
5 *1063:29 *3437:A2 30.483 
*END

*D_NET *1064 0.00141444
*CONN
*I *4213:A I *D sky130_fd_sc_hd__dlygate4sd3_1
*I *3940:Q O *D sky130_fd_sc_hd__dfrtp_2
*CAP
1 *4213:A 0
2 *3940:Q 0.000647241
3 *1064:10 0.000647241
4 *3526:B1 *1064:10 5.2894e-05
5 *3940:D *1064:10 6.7063e-05
6 *199:8 *1064:10 0
7 *659:28 *1064:10 0
8 *1030:18 *1064:10 0
9 *1030:28 *1064:10 0
*RES
1 *3940:Q *1064:10 49.02 
2 *1064:10 *4213:A 38 
*END

*D_NET *1065 0.00213637
*CONN
*I *3527:A2 I *D sky130_fd_sc_hd__o211a_2
*I *4262:A I *D sky130_fd_sc_hd__dlygate4sd3_1
*I *3338:A I *D sky130_fd_sc_hd__inv_2
*I *3941:Q O *D sky130_fd_sc_hd__dfrtp_2
*CAP
1 *3527:A2 5.89246e-05
2 *4262:A 0.000138241
3 *3338:A 0
4 *3941:Q 0.000339765
5 *1065:39 0.000280274
6 *1065:10 0.000256657
7 *3527:A1 *3527:A2 0.000130109
8 *3527:C1 *3527:A2 1.0177e-05
9 *3941:CLK *1065:39 9.91165e-05
10 *354:54 *4262:A 0.000248989
11 *354:54 *1065:10 1.22803e-05
12 *478:10 *3527:A2 2.79543e-05
13 *645:101 *1065:39 6.4393e-05
14 *826:10 *1065:10 5.3304e-05
15 *892:117 *1065:10 3.04021e-05
16 *911:89 *3527:A2 0
17 *911:89 *1065:39 0.0001264
18 *993:46 *4262:A 1.14452e-05
19 *993:58 *4262:A 0.000109223
20 *993:58 *1065:10 0.000138718
*RES
1 *3941:Q *1065:10 40.5271 
2 *1065:10 *3338:A 38 
3 *1065:10 *4262:A 41.9357 
4 *3941:Q *1065:39 41.9564 
5 *1065:39 *3527:A2 39.595 
*END

*D_NET *1066 0.000561267
*CONN
*I *4222:A I *D sky130_fd_sc_hd__dlygate4sd3_1
*I *3998:Q O *D sky130_fd_sc_hd__dfrtp_2
*CAP
1 *4222:A 0.00016739
2 *3998:Q 0.00016739
3 *4222:A *1093:32 0.000143655
4 *3433:B1 *4222:A 8.2832e-05
*RES
1 *3998:Q *4222:A 49.9564 
*END

*D_NET *1067 0.013766
*CONN
*I *3399:A I *D sky130_fd_sc_hd__inv_2
*I *3400:B I *D sky130_fd_sc_hd__and2_2
*I *3522:B I *D sky130_fd_sc_hd__and2_2
*I *3679:B1 I *D sky130_fd_sc_hd__a22o_2
*I *3998:D I *D sky130_fd_sc_hd__dfrtp_2
*I *3398:Y O *D sky130_fd_sc_hd__nor2_2
*CAP
1 *3399:A 7.71361e-05
2 *3400:B 0
3 *3522:B 0.000216774
4 *3679:B1 0
5 *3998:D 0.000664137
6 *3398:Y 0.000305632
7 *1067:70 0.000433024
8 *1067:53 0.00176596
9 *1067:42 0.00114843
10 *1067:28 0.00284201
11 *1067:8 0.000469492
12 *3400:A *3399:A 0.00010018
13 *3433:B1 *1067:28 9.69279e-05
14 *3525:A0 *1067:42 3.52397e-05
15 *3525:A1 *1067:42 0
16 *3686:A1 *1067:42 4.45778e-05
17 *3956:CLK *1067:42 0.000223043
18 *3980:RESET_B *3522:B 0.000277705
19 *3998:RESET_B *1067:42 0
20 *74:8 *3399:A 1.41077e-05
21 *74:8 *1067:70 3.16665e-05
22 *120:10 *1067:28 2.05503e-05
23 *120:10 *1067:42 0.00042016
24 *120:27 *1067:42 1.94685e-05
25 *186:8 *1067:42 0.000412601
26 *235:8 *1067:8 0.000329214
27 *354:10 *1067:8 0.000589151
28 *365:30 *1067:8 0.000113006
29 *368:8 *3399:A 2.4754e-05
30 *617:124 *1067:42 0.000515688
31 *646:53 *3998:D 0.000179473
32 *686:18 *1067:28 0.000100403
33 *696:14 *1067:42 0.000218289
34 *719:8 *1067:28 6.96227e-05
35 *749:12 *1067:42 0
36 *807:10 *1067:42 0.000323812
37 *808:8 *1067:42 1.7992e-05
38 *835:10 *1067:42 0.000140958
39 *894:32 *1067:8 0.000100533
40 *898:16 *3522:B 2.64616e-05
41 *898:18 *3522:B 6.48142e-05
42 *898:46 *3522:B 0.000301259
43 *898:46 *1067:70 7.53721e-05
44 *905:140 *1067:42 0
45 *907:65 *1067:42 4.21174e-05
46 *911:72 *1067:8 0.000237604
47 *911:110 *1067:28 0.000111148
48 *958:28 *1067:28 0
49 *958:28 *1067:42 0
50 *960:27 *1067:42 6.48096e-05
51 *978:10 *1067:42 0.000309503
52 *978:18 *1067:42 0.000191157
53 *993:14 *1067:28 0
*RES
1 *3398:Y *1067:8 48.7093 
2 *1067:8 *3998:D 41.0036 
3 *3998:D *1067:28 49.1339 
4 *1067:28 *1067:42 47.1796 
5 *1067:42 *3679:B1 23 
6 *1067:28 *1067:53 19.3189 
7 *1067:53 *3522:B 43.9968 
8 *1067:53 *1067:70 20.4582 
9 *1067:70 *3400:B 23 
10 *1067:70 *3399:A 25.0507 
*END

*D_NET *1068 0.0051583
*CONN
*I *3499:A_N I *D sky130_fd_sc_hd__and2b_2
*I *3497:A1 I *D sky130_fd_sc_hd__a211o_2
*I *3486:A I *D sky130_fd_sc_hd__xor2_2
*I *3854:Q O *D sky130_fd_sc_hd__dfstp_2
*CAP
1 *3499:A_N 0.000311263
2 *3497:A1 0.000254072
3 *3486:A 0.000333884
4 *3854:Q 0.000105441
5 *1068:19 0.000871694
6 *1068:8 0.000745684
7 *3486:A *3496:B 0.000222113
8 *3486:A *3539:A 4.63333e-05
9 *3486:A *1069:12 0.000195248
10 *3486:A *1069:18 0
11 *3486:A *1081:53 1.19692e-05
12 *3499:A_N *3350:A 4.2573e-05
13 *3499:A_N *3499:B 9.84794e-05
14 *3499:A_N *1109:46 0.000370199
15 *1068:8 *1069:8 9.5877e-05
16 *1068:19 *3495:B 0.000182854
17 *1068:19 *3496:B 0.000284553
18 *1068:19 *1069:12 3.70187e-05
19 *1068:19 *1109:46 0.000429611
20 *3497:B1 *3497:A1 5.55687e-05
21 *3539:B *3486:A 0.000107641
22 *155:10 *3499:A_N 6.28488e-05
23 *383:10 *3499:A_N 5.41288e-05
24 *485:8 *3486:A 0
25 *610:87 *3499:A_N 0
26 *610:87 *1068:19 0
27 *610:98 *1068:19 0
28 *685:10 *1068:19 5.87296e-05
29 *685:18 *1068:19 2.24973e-05
30 *887:20 *1068:19 6.63801e-05
31 *901:30 *3499:A_N 9.16362e-05
*RES
1 *3854:Q *1068:8 39.5743 
2 *1068:8 *3486:A 45.8921 
3 *1068:8 *1068:19 9.65286 
4 *1068:19 *3497:A1 41.9771 
5 *1068:19 *3499:A_N 46.555 
*END

*D_NET *1069 0.00424329
*CONN
*I *3495:B I *D sky130_fd_sc_hd__and2b_2
*I *3496:A_N I *D sky130_fd_sc_hd__and2b_2
*I *3487:A1 I *D sky130_fd_sc_hd__a21o_2
*I *3489:A_N I *D sky130_fd_sc_hd__and2b_2
*I *3855:Q O *D sky130_fd_sc_hd__dfstp_2
*CAP
1 *3495:B 0.000117144
2 *3496:A_N 0
3 *3487:A1 0
4 *3489:A_N 0.00023703
5 *3855:Q 8.16899e-05
6 *1069:18 0.000904105
7 *1069:12 0.000740836
8 *1069:8 0.000272595
9 *3489:A_N *3489:B 0.000141954
10 *1069:18 *3496:B 6.69742e-05
11 *3486:A *1069:12 0.000195248
12 *3486:A *1069:18 0
13 *3539:B *3489:A_N 1.47563e-05
14 *3539:B *1069:18 0.000332207
15 *3543:C1 *3489:A_N 5.67058e-05
16 *3808:B1 *1069:18 0
17 *450:8 *1069:18 0
18 *483:86 *3489:A_N 8.08572e-05
19 *660:27 *3495:B 0.000136738
20 *685:18 *3495:B 0.000192077
21 *685:18 *1069:12 0.000219882
22 *896:146 *3489:A_N 0
23 *896:146 *1069:18 0
24 *900:18 *3495:B 0.000136738
25 *1068:8 *1069:8 9.5877e-05
26 *1068:19 *3495:B 0.000182854
27 *1068:19 *1069:12 3.70187e-05
*RES
1 *3855:Q *1069:8 39.5743 
2 *1069:8 *1069:12 17.9621 
3 *1069:12 *1069:18 28.5886 
4 *1069:18 *3489:A_N 42.5364 
5 *1069:18 *3487:A1 38 
6 *1069:12 *3496:A_N 23 
7 *1069:8 *3495:B 42.1843 
*END

*D_NET *1070 0.00234849
*CONN
*I *3335:A I *D sky130_fd_sc_hd__inv_2
*I *4315:A I *D sky130_fd_sc_hd__dlygate4sd3_1
*I *3427:A2 I *D sky130_fd_sc_hd__a22o_2
*I *4015:Q O *D sky130_fd_sc_hd__dfrtp_2
*CAP
1 *3335:A 0.000431282
2 *4315:A 0.000105246
3 *3427:A2 1.72756e-05
4 *4015:Q 0.000206217
5 *1070:12 0.000122522
6 *1070:10 0.000637499
7 *3427:A1 *4315:A 3.53115e-05
8 *3427:B1 *4315:A 0.00010655
9 *3781:B1 *1070:10 0
10 *101:12 *3335:A 0.000167452
11 *101:12 *1070:10 6.16439e-05
12 *368:8 *3335:A 0.00014255
13 *711:19 *3335:A 0
14 *711:19 *1070:10 0
15 *883:36 *4315:A 0.000202653
16 *898:16 *1070:10 5.67058e-05
17 *898:91 *3335:A 5.55784e-05
*RES
1 *4015:Q *1070:10 40.8793 
2 *1070:10 *1070:12 15 
3 *1070:12 *3427:A2 23.3521 
4 *1070:12 *4315:A 27.4536 
5 *1070:10 *3335:A 46.1407 
*END

*D_NET *1071 0.0085189
*CONN
*I *3532:B I *D sky130_fd_sc_hd__nand2_2
*I *3536:B I *D sky130_fd_sc_hd__and4_2
*I *3490:A I *D sky130_fd_sc_hd__or4b_2
*I *3531:B I *D sky130_fd_sc_hd__or2_2
*I *3534:A2 I *D sky130_fd_sc_hd__a31o_2
*I *3537:A2 I *D sky130_fd_sc_hd__a31o_2
*I *4289:A I *D sky130_fd_sc_hd__dlygate4sd3_1
*I *3999:Q O *D sky130_fd_sc_hd__dfrtp_2
*CAP
1 *3532:B 0.00028583
2 *3536:B 0
3 *3490:A 0.000235605
4 *3531:B 0
5 *3534:A2 7.98778e-05
6 *3537:A2 0.000194922
7 *4289:A 0.000194756
8 *3999:Q 0
9 *1071:64 0.000621635
10 *1071:53 0.00049362
11 *1071:49 0.000447313
12 *1071:38 0.000313091
13 *1071:21 0.000619885
14 *1071:6 0.000440399
15 *3490:A *1080:21 0.000110913
16 *3532:B *3532:A 4.16764e-05
17 *3532:B *1078:10 0.000148036
18 *3532:B *1078:12 1.19796e-05
19 *3532:B *1087:10 0
20 *3534:A2 *3534:A3 1.57571e-05
21 *3537:A2 *3537:A3 0.000377291
22 *3537:A2 *3537:B1 0
23 *1071:38 *3537:A3 0.000126914
24 *1071:38 *1078:14 1.7992e-05
25 *1071:49 *1078:12 3.04021e-05
26 *1071:49 *1078:14 2.76611e-06
27 *1071:53 *3531:A 5.50049e-05
28 *1071:64 *4292:A 7.56417e-05
29 *1071:64 *1080:21 2.46345e-05
30 *3529:A2 *4289:A 0
31 *3533:A *3532:B 3.01458e-05
32 *3533:A *1071:38 7.65417e-05
33 *3535:A1 *1071:53 6.98147e-05
34 *3535:A1 *1071:64 0.000119477
35 *3535:A2 *3532:B 0.000219873
36 *3810:A2 *3490:A 0.000141236
37 *4002:CLK *4289:A 0
38 *4002:CLK *1071:21 0
39 *4015:D *1071:21 0
40 *135:8 *1071:21 7.461e-05
41 *389:12 *4289:A 0
42 *451:18 *3490:A 2.60152e-05
43 *454:12 *3490:A 7.53384e-06
44 *454:25 *3490:A 5.41288e-05
45 *479:10 *4289:A 0.000277705
46 *479:10 *1071:21 0.000319731
47 *479:21 *1071:21 7.12679e-05
48 *479:21 *1071:38 9.19022e-06
49 *479:42 *1071:38 7.74658e-05
50 *480:8 *3532:B 8.62783e-05
51 *481:8 *3532:B 0.000302339
52 *482:8 *3532:B 2.77955e-05
53 *482:8 *1071:38 3.92407e-05
54 *482:8 *1071:49 0.000104869
55 *484:8 *3537:A2 0.000368621
56 *484:8 *1071:38 5.3304e-05
57 *612:6 *4289:A 9.5877e-05
58 *612:43 *4289:A 0
59 *656:109 *3534:A2 1.32314e-05
60 *656:109 *1071:38 8.73079e-05
61 *662:104 *3532:B 0
62 *882:75 *1071:21 0
63 *897:60 *3490:A 0.000233462
64 *897:60 *1071:64 0.000411694
65 *902:46 *3534:A2 9.8971e-06
66 *904:44 *3490:A 9.15308e-05
67 *904:44 *1071:64 5.27796e-05
*RES
1 *3999:Q *1071:6 38 
2 *1071:6 *4289:A 42.7643 
3 *1071:6 *1071:21 20.4271 
4 *1071:21 *3537:A2 29.6079 
5 *1071:21 *1071:38 19.8886 
6 *1071:38 *3534:A2 39.0979 
7 *1071:38 *1071:49 1.55357 
8 *1071:49 *1071:53 17.0507 
9 *1071:53 *3531:B 23 
10 *1071:53 *1071:64 23.3064 
11 *1071:64 *3490:A 44.525 
12 *1071:64 *3536:B 38 
13 *1071:49 *3532:B 47.3007 
*END

*D_NET *1072 0.00376217
*CONN
*I *3555:B1 I *D sky130_fd_sc_hd__a21oi_2
*I *3492:D I *D sky130_fd_sc_hd__or4_2
*I *3556:B I *D sky130_fd_sc_hd__and3_2
*I *3558:D I *D sky130_fd_sc_hd__and4_2
*I *4009:Q O *D sky130_fd_sc_hd__dfrtp_2
*CAP
1 *3555:B1 0
2 *3492:D 0
3 *3556:B 0.00019117
4 *3558:D 0
5 *4009:Q 0.000250087
6 *1072:24 0.000383034
7 *1072:14 0.000457882
8 *1072:10 0.000266017
9 *1072:8 0.000250087
10 *3556:B *3492:C 3.89405e-05
11 *3556:B *3556:A 0.000165675
12 *1072:8 *1119:10 4.48671e-05
13 *1072:14 *3555:A1 8.30364e-05
14 *1072:24 *3492:C 0.000253691
15 *1072:24 *3555:A1 0.000138444
16 *1072:24 *3556:A 5.3304e-05
17 *1072:24 *3558:A 5.50049e-05
18 *1072:24 *3558:B 0.000252001
19 *456:10 *3556:B 0.000184527
20 *456:10 *1072:24 1.03955e-05
21 *828:42 *1072:8 0
22 *902:10 *1072:8 5.61311e-05
23 *902:19 *1072:8 6.11286e-05
24 *910:20 *1072:8 0.000566748
*RES
1 *4009:Q *1072:8 45.54 
2 *1072:8 *1072:10 15 
3 *1072:10 *1072:14 3.97714 
4 *1072:14 *1072:24 6.67 
5 *1072:24 *3558:D 23 
6 *1072:24 *3556:B 28.1786 
7 *1072:14 *3492:D 23 
8 *1072:10 *3555:B1 23 
*END

*D_NET *1073 0.00294279
*CONN
*I *4239:A I *D sky130_fd_sc_hd__dlygate4sd3_1
*I *3492:C I *D sky130_fd_sc_hd__or4_2
*I *3558:C I *D sky130_fd_sc_hd__and4_2
*I *4010:Q O *D sky130_fd_sc_hd__dfrtp_2
*CAP
1 *4239:A 0.000178697
2 *3492:C 0.000118797
3 *3558:C 0
4 *4010:Q 6.90834e-05
5 *1073:22 0.000412959
6 *1073:10 0.000472859
7 *1073:8 6.90834e-05
8 *3492:C *3555:A1 5.3304e-05
9 *1073:8 *1086:36 0.000114083
10 *1073:22 *3556:A 2.89564e-05
11 *1073:22 *1086:36 1.50637e-05
12 *1073:22 *1086:57 1.26747e-05
13 *1073:22 *1086:74 0
14 *3556:B *3492:C 3.89405e-05
15 *3557:B *4239:A 0.00029936
16 *3557:B *1073:22 2.02872e-05
17 *3557:C *1073:22 0.000137651
18 *127:8 *1073:22 0.000114092
19 *456:10 *3492:C 0.000230604
20 *657:19 *1073:8 0
21 *896:10 *4239:A 5.50106e-05
22 *904:105 *1073:22 0.000183708
23 *904:111 *1073:22 6.38845e-05
24 *1072:24 *3492:C 0.000253691
*RES
1 *4010:Q *1073:8 39.5536 
2 *1073:8 *1073:10 15 
3 *1073:10 *1073:22 36.1314 
4 *1073:22 *3558:C 23 
5 *1073:22 *3492:C 27.4536 
6 *1073:10 *4239:A 27.5986 
*END

*D_NET *1074 0.00266445
*CONN
*I *3565:B I *D sky130_fd_sc_hd__and2_2
*I *3562:A I *D sky130_fd_sc_hd__or2_2
*I *3563:A I *D sky130_fd_sc_hd__nand2_2
*I *3491:B I *D sky130_fd_sc_hd__or4_2
*I *4011:Q O *D sky130_fd_sc_hd__dfrtp_2
*CAP
1 *3565:B 0.000164813
2 *3562:A 3.27378e-05
3 *3563:A 9.64419e-05
4 *3491:B 2.55832e-05
5 *4011:Q 0.000307249
6 *1074:38 0.00019755
7 *1074:16 0.000229424
8 *1074:14 0.000414648
9 *3491:B *3491:D 6.16439e-05
10 *3491:B *1077:33 6.16439e-05
11 *1074:14 *4326:A 4.334e-05
12 *1074:14 *1075:12 9.7331e-05
13 *1074:14 *1075:18 5.27196e-05
14 *1074:16 *3491:D 2.68751e-05
15 *1074:16 *1075:18 7.81176e-05
16 *1074:16 *1077:33 1.01436e-05
17 *3563:B *3563:A 5.90675e-06
18 *381:10 *1074:14 5.50049e-05
19 *389:34 *1074:14 5.561e-05
20 *498:21 *3563:A 4.21281e-05
21 *498:29 *3563:A 3.22879e-05
22 *498:29 *1074:16 4.23714e-05
23 *500:8 *1074:14 8.62783e-05
24 *501:10 *3563:A 5.50106e-05
25 *501:10 *1074:14 0
26 *501:10 *1074:16 0
27 *501:25 *3562:A 5.50049e-05
28 *501:25 *3565:B 0.000226306
29 *501:25 *1074:14 0
30 *605:82 *3563:A 1.41077e-05
31 *881:121 *1074:14 0
32 *904:86 *3563:A 9.41704e-05
*RES
1 *4011:Q *1074:14 44.815 
2 *1074:14 *1074:16 2.61 
3 *1074:16 *3491:B 38.8493 
4 *1074:16 *3563:A 40.5479 
5 *1074:14 *1074:38 15 
6 *1074:38 *3562:A 23.6214 
7 *1074:38 *3565:B 26.5007 
*END

*D_NET *1075 0.002309
*CONN
*I *4326:A I *D sky130_fd_sc_hd__dlygate4sd3_1
*I *3565:A I *D sky130_fd_sc_hd__and2_2
*I *3491:A I *D sky130_fd_sc_hd__or4_2
*I *4012:Q O *D sky130_fd_sc_hd__dfrtp_2
*CAP
1 *4326:A 0.000107969
2 *3565:A 4.29221e-05
3 *3491:A 0
4 *4012:Q 0
5 *1075:18 0.000160092
6 *1075:12 0.000371353
7 *1075:6 0.000276308
8 *4011:D *4326:A 0.000183733
9 *381:10 *4326:A 0.000286371
10 *381:10 *1075:12 0.000277714
11 *389:34 *4326:A 0
12 *455:10 *1075:18 0
13 *500:8 *1075:12 8.85189e-05
14 *501:25 *3565:A 8.60475e-05
15 *501:25 *1075:12 0.000136738
16 *501:25 *1075:18 9.48381e-06
17 *881:121 *4326:A 1.02387e-05
18 *1074:14 *4326:A 4.334e-05
19 *1074:14 *1075:12 9.7331e-05
20 *1074:14 *1075:18 5.27196e-05
21 *1074:16 *1075:18 7.81176e-05
*RES
1 *4012:Q *1075:6 38 
2 *1075:6 *1075:12 20.2407 
3 *1075:12 *1075:18 32.9621 
4 *1075:18 *3491:A 23 
5 *1075:12 *3565:A 24.0979 
6 *1075:6 *4326:A 41.9564 
*END

*D_NET *1076 0.00508683
*CONN
*I *3569:A1 I *D sky130_fd_sc_hd__o21a_2
*I *3491:D I *D sky130_fd_sc_hd__or4_2
*I *3568:A1 I *D sky130_fd_sc_hd__a21oi_2
*I *3570:A1 I *D sky130_fd_sc_hd__a21oi_2
*I *3571:A2 I *D sky130_fd_sc_hd__a31o_2
*I *4013:Q O *D sky130_fd_sc_hd__dfrtp_2
*CAP
1 *3569:A1 0
2 *3491:D 0.000324451
3 *3568:A1 5.13523e-05
4 *3570:A1 0
5 *3571:A2 0
6 *4013:Q 0.000178345
7 *1076:43 0.000428511
8 *1076:33 0.000610655
9 *1076:31 0.00070693
10 *1076:23 0.000512969
11 *1076:12 0.000261282
12 *1076:10 0.000178345
13 *3491:D *1077:33 5.16386e-05
14 *1076:23 *3571:A1 5.23699e-05
15 *3491:B *3491:D 6.16439e-05
16 *3568:B1 *1076:31 4.45778e-05
17 *3570:A2 *1076:43 3.22879e-05
18 *3571:A3 *1076:23 0.000221242
19 *3571:A3 *1076:31 5.50049e-05
20 *3572:B *3568:A1 9.84794e-05
21 *4013:RESET_B *1076:10 6.17437e-06
22 *132:8 *1076:43 0.000141888
23 *232:8 *1076:10 3.0647e-05
24 *233:8 *1076:10 8.85189e-05
25 *501:10 *3491:D 1.59312e-05
26 *503:16 *3568:A1 1.7971e-05
27 *503:16 *1076:43 0
28 *503:18 *3568:A1 2.76611e-06
29 *503:18 *1076:31 0
30 *503:18 *1076:43 0
31 *503:24 *1076:31 2.18506e-05
32 *504:10 *1076:31 0.000351608
33 *505:8 *1076:43 0.00014411
34 *654:72 *1076:43 0
35 *657:73 *3491:D 9.88083e-06
36 *657:73 *1076:10 0
37 *657:73 *1076:31 0.000208081
38 *799:12 *3568:A1 0.00010018
39 *896:73 *1076:10 0
40 *904:86 *3491:D 5.02657e-05
41 *919:10 *1076:31 0
42 *1074:16 *3491:D 2.68751e-05
*RES
1 *4013:Q *1076:10 41.3557 
2 *1076:10 *1076:12 15 
3 *1076:12 *3571:A2 23 
4 *1076:12 *1076:23 5.90357 
5 *1076:23 *1076:31 30.4054 
6 *1076:31 *1076:33 0.3136 
7 *1076:33 *1076:43 27.4167 
8 *1076:43 *3570:A1 23 
9 *1076:33 *3568:A1 47.7711 
10 *1076:31 *3491:D 49.2714 
11 *1076:23 *3569:A1 23 
*END

*D_NET *1077 0.00209757
*CONN
*I *4294:A I *D sky130_fd_sc_hd__dlygate4sd3_1
*I *3491:C I *D sky130_fd_sc_hd__or4_2
*I *3571:A1 I *D sky130_fd_sc_hd__a31o_2
*I *4014:Q O *D sky130_fd_sc_hd__dfrtp_2
*CAP
1 *4294:A 0
2 *3491:C 0
3 *3571:A1 0.000166613
4 *4014:Q 5.80982e-05
5 *1077:33 0.000164374
6 *1077:27 0.000420049
7 *1077:8 0.000480386
8 *3491:B *1077:33 6.16439e-05
9 *3491:D *1077:33 5.16386e-05
10 *3571:A3 *3571:A1 5.90675e-06
11 *3571:B1 *3571:A1 2.02517e-05
12 *3572:B *1077:27 9.67842e-05
13 *4014:RESET_B *1077:8 1.05235e-05
14 *233:8 *3571:A1 0.000167443
15 *233:8 *1077:27 0.000118174
16 *455:10 *1077:33 0
17 *506:8 *3571:A1 3.81391e-05
18 *506:8 *1077:27 8.93489e-05
19 *506:8 *1077:33 1.58805e-05
20 *657:73 *3571:A1 0
21 *657:73 *1077:33 0
22 *896:73 *1077:27 6.9805e-05
23 *1074:16 *1077:33 1.01436e-05
24 *1076:23 *3571:A1 5.23699e-05
*RES
1 *4014:Q *1077:8 38.6214 
2 *1077:8 *3571:A1 41.7286 
3 *1077:8 *1077:27 21.1936 
4 *1077:27 *1077:33 32.9621 
5 *1077:33 *3491:C 23 
6 *1077:27 *4294:A 23 
*END

*D_NET *1078 0.00566514
*CONN
*I *3532:A I *D sky130_fd_sc_hd__nand2_2
*I *3531:A I *D sky130_fd_sc_hd__or2_2
*I *3534:A1 I *D sky130_fd_sc_hd__a31o_2
*I *3536:A I *D sky130_fd_sc_hd__and4_2
*I *3537:A1 I *D sky130_fd_sc_hd__a31o_2
*I *3490:D_N I *D sky130_fd_sc_hd__or4b_2
*I *4000:Q O *D sky130_fd_sc_hd__dfrtp_2
*CAP
1 *3532:A 0.00023886
2 *3531:A 1.50079e-05
3 *3534:A1 0
4 *3536:A 5.58054e-05
5 *3537:A1 0.00037211
6 *3490:D_N 0.000238505
7 *4000:Q 4.84341e-05
8 *1078:16 0.000683009
9 *1078:14 0.000269648
10 *1078:12 0.000220276
11 *1078:10 0.000295434
12 *1078:8 0.000488893
13 *3532:A *1087:10 0
14 *3536:A *3537:A3 0.000180224
15 *3537:A1 *3537:A3 3.53115e-05
16 *3537:A1 *3537:B1 0.000219932
17 *3532:B *3532:A 4.16764e-05
18 *3532:B *1078:10 0.000148036
19 *3532:B *1078:12 1.19796e-05
20 *3535:A1 *3531:A 5.50049e-05
21 *3538:A_N *3537:A1 5.3304e-05
22 *3538:C *3537:A1 1.64354e-05
23 *3809:A1 *3532:A 9.84794e-05
24 *3809:A2 *3532:A 5.50049e-05
25 *3810:A1 *3490:D_N 0.000171941
26 *3810:A1 *1078:14 4.7568e-05
27 *3810:A1 *1078:16 4.46163e-05
28 *3810:A2 *3490:D_N 0.000138444
29 *3810:B1 *3490:D_N 0.000274543
30 *4000:RESET_B *1078:8 1.39431e-05
31 *220:8 *3532:A 2.5415e-05
32 *220:8 *1078:10 6.88819e-05
33 *454:12 *3490:D_N 7.05498e-05
34 *479:42 *3536:A 0.000180224
35 *480:8 *1078:10 4.08537e-05
36 *656:109 *3490:D_N 8.4047e-05
37 *656:109 *1078:14 0.000174974
38 *656:109 *1078:16 9.7072e-05
39 *882:58 *1078:10 0.000155417
40 *882:58 *1078:12 6.6869e-05
41 *882:58 *1078:14 6.22475e-05
42 *1071:38 *1078:14 1.7992e-05
43 *1071:49 *1078:12 3.04021e-05
44 *1071:49 *1078:14 2.76611e-06
45 *1071:53 *3531:A 5.50049e-05
*RES
1 *4000:Q *1078:8 38.6214 
2 *1078:8 *1078:10 6.83571 
3 *1078:10 *1078:12 1.90571 
4 *1078:12 *1078:14 3.31429 
5 *1078:14 *1078:16 1.55357 
6 *1078:16 *3490:D_N 45.2707 
7 *1078:16 *3537:A1 43.3857 
8 *1078:14 *3536:A 40.0507 
9 *1078:12 *3534:A1 38 
10 *1078:10 *3531:A 38.6214 
11 *1078:8 *3532:A 42.93 
*END

*D_NET *1079 0.00663008
*CONN
*I *3344:A I *D sky130_fd_sc_hd__inv_2
*I *3534:A3 I *D sky130_fd_sc_hd__a31o_2
*I *3537:A3 I *D sky130_fd_sc_hd__a31o_2
*I *3488:A I *D sky130_fd_sc_hd__or4b_2
*I *3536:C I *D sky130_fd_sc_hd__and4_2
*I *4001:Q O *D sky130_fd_sc_hd__dfrtp_2
*CAP
1 *3344:A 0.000100675
2 *3534:A3 0.000197254
3 *3537:A3 0.000306911
4 *3488:A 0
5 *3536:C 3.4212e-05
6 *4001:Q 0.000322505
7 *1079:31 0.000255419
8 *1079:16 0.000326015
9 *1079:12 0.000454163
10 *1079:10 0.000529951
11 *3534:A3 *4292:A 0.000181919
12 *3536:C *3536:D 5.3304e-05
13 *3537:A3 *3536:D 0.000135037
14 *3537:A3 *3537:B1 0.000562644
15 *3534:A2 *3534:A3 1.57571e-05
16 *3534:B1 *3534:A3 5.3304e-05
17 *3536:A *3537:A3 0.000180224
18 *3537:A1 *3537:A3 3.53115e-05
19 *3537:A2 *3537:A3 0.000377291
20 *3538:A_N *3536:C 9.5877e-05
21 *3538:A_N *1079:31 4.17736e-05
22 *3543:B1 *1079:31 0
23 *3543:C1 *1079:10 3.0647e-05
24 *3543:C1 *1079:12 8.16195e-05
25 *3543:C1 *1079:16 1.6279e-05
26 *3543:C1 *1079:31 0.000351513
27 *377:8 *1079:10 6.79006e-05
28 *451:10 *3534:A3 5.3304e-05
29 *451:10 *1079:12 0.000148103
30 *451:10 *1079:16 5.79427e-05
31 *453:10 *1079:31 0.000267173
32 *479:42 *3537:A3 0.000168164
33 *479:42 *1079:31 2.07355e-05
34 *487:12 *1079:31 0
35 *656:109 *3534:A3 7.67536e-05
36 *881:137 *1079:10 2.54646e-05
37 *881:137 *1079:16 7.76364e-06
38 *882:52 *3344:A 9.6103e-05
39 *882:58 *3344:A 7.53384e-06
40 *896:146 *1079:31 0.000166522
41 *897:60 *1079:10 0.000177526
42 *897:60 *1079:12 1.22803e-05
43 *902:46 *3534:A3 0.000325289
44 *904:8 *1079:10 4.74809e-05
45 *904:25 *3534:A3 3.75171e-05
46 *1071:38 *3537:A3 0.000126914
*RES
1 *4001:Q *1079:10 43.6964 
2 *1079:10 *1079:12 2.61 
3 *1079:12 *1079:16 15.8493 
4 *1079:16 *3536:C 24.0979 
5 *1079:16 *1079:31 37.1671 
6 *1079:31 *3488:A 23 
7 *1079:12 *3537:A3 49.1236 
8 *1079:10 *3534:A3 43.8829 
9 *4001:Q *3344:A 48.5479 
*END

*D_NET *1080 0.00323645
*CONN
*I *3536:D I *D sky130_fd_sc_hd__and4_2
*I *3537:B1 I *D sky130_fd_sc_hd__a31o_2
*I *3488:D_N I *D sky130_fd_sc_hd__or4b_2
*I *4002:Q O *D sky130_fd_sc_hd__dfrtp_2
*CAP
1 *3536:D 6.20233e-05
2 *3537:B1 0.000210569
3 *3488:D_N 0.000299965
4 *4002:Q 0
5 *1080:21 0.000382227
6 *1080:4 0.0004096
7 *3490:A *1080:21 0.000110913
8 *3494:A *3488:D_N 0.00010026
9 *3536:C *3536:D 5.3304e-05
10 *3537:A1 *3537:B1 0.000219932
11 *3537:A2 *3537:B1 0
12 *3537:A3 *3536:D 0.000135037
13 *3537:A3 *3537:B1 0.000562644
14 *3538:A_N *3536:D 3.44001e-05
15 *3538:A_N *3537:B1 0.000262864
16 *3538:C *3537:B1 1.64354e-05
17 *142:12 *3488:D_N 4.9662e-05
18 *483:27 *3488:D_N 0.000235108
19 *904:44 *1080:21 6.6869e-05
20 *1071:64 *1080:21 2.46345e-05
*RES
1 *4002:Q *1080:4 23 
2 *1080:4 *3488:D_N 28.9036 
3 *1080:4 *1080:21 31.9057 
4 *1080:21 *3537:B1 30.4571 
5 *1080:21 *3536:D 24.5743 
*END

*D_NET *1081 0.00605849
*CONN
*I *3539:A I *D sky130_fd_sc_hd__nand2_2
*I *3486:B I *D sky130_fd_sc_hd__xor2_2
*I *3540:A I *D sky130_fd_sc_hd__or2_2
*I *3542:A I *D sky130_fd_sc_hd__and3_2
*I *3547:A I *D sky130_fd_sc_hd__and4_2
*I *4003:Q O *D sky130_fd_sc_hd__dfrtp_2
*CAP
1 *3539:A 9.33106e-05
2 *3486:B 9.58387e-05
3 *3540:A 8.46662e-05
4 *3542:A 5.56919e-05
5 *3547:A 0.000295891
6 *4003:Q 0.000734406
7 *1081:53 0.000356627
8 *1081:12 0.000621677
9 *1081:10 0.000418784
10 *1081:8 0.000965907
11 *3542:A *3488:C 0.000139357
12 *3542:A *3547:C 9.58714e-05
13 *3547:A *3547:B 5.3304e-05
14 *3547:A *1082:31 5.50049e-05
15 *3547:A *1084:27 4.70953e-05
16 *3486:A *3539:A 4.63333e-05
17 *3486:A *1081:53 1.19692e-05
18 *3539:B *1081:53 0
19 *3540:B *3540:A 0.0002263
20 *3541:C *3540:A 4.95081e-05
21 *4003:CLK *1081:10 0.000154147
22 *4003:CLK *1081:12 0.000158727
23 *4003:CLK *1081:53 5.55911e-05
24 *485:8 *3539:A 7.8128e-05
25 *485:8 *1081:10 0.000164282
26 *485:8 *1081:12 5.94125e-05
27 *485:8 *1081:53 0.000222455
28 *490:8 *3547:A 0
29 *612:98 *3547:A 2.24608e-05
30 *612:98 *1081:12 0.000199664
31 *656:109 *3540:A 0.000313249
32 *882:52 *3486:B 0.000182826
*RES
1 *4003:Q *1081:8 46.7207 
2 *1081:8 *1081:10 2.25786 
3 *1081:10 *1081:12 5.075 
4 *1081:12 *3547:A 42.1429 
5 *1081:12 *3542:A 39.5743 
6 *1081:10 *3540:A 41.9771 
7 *1081:8 *1081:53 5.13714 
8 *1081:53 *3486:B 17.4754 
9 *1081:53 *3539:A 40.2579 
*END

*D_NET *1082 0.00332045
*CONN
*I *3345:A I *D sky130_fd_sc_hd__inv_2
*I *3542:B I *D sky130_fd_sc_hd__and3_2
*I *3488:B I *D sky130_fd_sc_hd__or4b_2
*I *3547:B I *D sky130_fd_sc_hd__and4_2
*I *4004:Q O *D sky130_fd_sc_hd__dfrtp_2
*CAP
1 *3345:A 0
2 *3542:B 0
3 *3488:B 0.000264725
4 *3547:B 4.30912e-05
5 *4004:Q 0.000478181
6 *1082:31 0.000729671
7 *1082:16 0.000550786
8 *1082:14 7.6872e-05
9 *1082:10 0.000512303
10 *3488:B *3488:C 8.2832e-05
11 *3547:B *1084:27 9.58714e-05
12 *1082:31 *3488:C 8.7684e-05
13 *1082:31 *1084:27 2.25419e-05
14 *3547:A *3547:B 5.3304e-05
15 *3547:A *1082:31 5.50049e-05
16 *223:10 *1082:10 8.62783e-05
17 *378:10 *3547:B 7.53384e-06
18 *378:10 *1082:10 2.29192e-05
19 *378:10 *1082:16 3.22879e-05
20 *483:27 *3488:B 2.65879e-05
21 *483:39 *3488:B 2.93747e-05
22 *483:39 *1082:31 2.64616e-05
23 *656:89 *1082:10 0
24 *902:38 *1082:10 3.61413e-05
*RES
1 *4004:Q *1082:10 44.3386 
2 *1082:10 *1082:14 15.6214 
3 *1082:14 *1082:16 1.09786 
4 *1082:16 *3547:B 24.5743 
5 *1082:16 *1082:31 7.35357 
6 *1082:31 *3488:B 26.9564 
7 *1082:31 *3542:B 23 
8 *1082:14 *3345:A 23 
*END

*D_NET *1083 0.00607999
*CONN
*I *3547:C I *D sky130_fd_sc_hd__and4_2
*I *3346:A I *D sky130_fd_sc_hd__inv_2
*I *3489:B I *D sky130_fd_sc_hd__and2b_2
*I *3544:A I *D sky130_fd_sc_hd__nand2_2
*I *3545:A I *D sky130_fd_sc_hd__or2_2
*I *4005:Q O *D sky130_fd_sc_hd__dfrtp_2
*CAP
1 *3547:C 0.000213965
2 *3346:A 0.000103429
3 *3489:B 0.000138518
4 *3544:A 0.000152591
5 *3545:A 0
6 *4005:Q 0.000706728
7 *1083:38 0.000386769
8 *1083:36 0.000492895
9 *1083:23 0.000474932
10 *1083:10 0.00089496
11 *3547:C *3488:C 4.19743e-05
12 *3547:C *1084:27 5.67058e-05
13 *1083:10 *3347:A 8.97286e-06
14 *1083:10 *1084:10 7.49159e-05
15 *1083:10 *1084:27 5.09885e-05
16 *1083:23 *1084:27 2.96051e-05
17 *3489:A_N *3489:B 0.000141954
18 *3541:A *3346:A 3.3746e-05
19 *3542:A *3547:C 9.58714e-05
20 *3543:C1 *3489:B 7.42621e-05
21 *3545:B *3544:A 3.20712e-05
22 *3545:B *1083:23 1.22822e-05
23 *3546:A *3346:A 5.77024e-06
24 *3546:A *3544:A 2.64616e-05
25 *3546:A *1083:36 4.28882e-05
26 *3546:A *1083:38 7.8629e-05
27 *3546:B *3544:A 6.70361e-05
28 *3546:B *1083:23 2.93845e-05
29 *4003:CLK *3346:A 3.72639e-05
30 *137:12 *3489:B 0.000137651
31 *138:10 *1083:10 2.96369e-05
32 *479:42 *3489:B 0.00039759
33 *483:39 *1083:36 0.000188926
34 *485:18 *3346:A 0.000109458
35 *485:18 *1083:38 5.80693e-05
36 *487:12 *3544:A 5.3304e-05
37 *489:8 *1083:23 0.000267167
38 *490:8 *1083:10 0
39 *612:98 *3547:C 2.24608e-05
40 *612:98 *1083:36 0.000124072
41 *612:98 *1083:38 4.70291e-05
42 *902:38 *3346:A 8.4047e-05
43 *902:38 *3489:B 5.50049e-05
*RES
1 *4005:Q *1083:10 48.1293 
2 *1083:10 *3545:A 38 
3 *1083:10 *1083:23 19.3293 
4 *1083:23 *3544:A 26.0243 
5 *1083:23 *1083:36 18.8425 
6 *1083:36 *1083:38 2.43393 
7 *1083:38 *3489:B 43.3857 
8 *1083:38 *3346:A 40.61 
9 *1083:36 *3547:C 41.4696 
*END

*D_NET *1084 0.00423696
*CONN
*I *3547:D I *D sky130_fd_sc_hd__and4_2
*I *3488:C I *D sky130_fd_sc_hd__or4b_2
*I *3347:A I *D sky130_fd_sc_hd__inv_2
*I *4006:Q O *D sky130_fd_sc_hd__dfrtp_2
*CAP
1 *3547:D 0
2 *3488:C 0.000232869
3 *3347:A 0.000383317
4 *4006:Q 0.000470369
5 *1084:27 0.000664054
6 *1084:10 0.00128487
7 *3488:B *3488:C 8.2832e-05
8 *3542:A *3488:C 0.000139357
9 *3542:C *3488:C 4.08664e-05
10 *3547:A *1084:27 4.70953e-05
11 *3547:B *1084:27 9.58714e-05
12 *3547:C *3488:C 4.19743e-05
13 *3547:C *1084:27 5.67058e-05
14 *4005:D *3347:A 5.50106e-05
15 *224:10 *1084:10 0
16 *483:27 *3488:C 0.000226295
17 *483:39 *3488:C 9.41704e-05
18 *490:8 *1084:10 0
19 *490:8 *1084:27 0
20 *612:94 *3347:A 4.65917e-05
21 *656:78 *1084:10 0
22 *656:78 *1084:27 0
23 *1082:31 *3488:C 8.7684e-05
24 *1082:31 *1084:27 2.25419e-05
25 *1083:10 *3347:A 8.97286e-06
26 *1083:10 *1084:10 7.49159e-05
27 *1083:10 *1084:27 5.09885e-05
28 *1083:23 *1084:27 2.96051e-05
*RES
1 *4006:Q *1084:10 44.9186 
2 *1084:10 *3347:A 43.2821 
3 *1084:10 *1084:27 22.4779 
4 *1084:27 *3488:C 29.8357 
5 *1084:27 *3547:D 23 
*END

*D_NET *1085 0.00467765
*CONN
*I *3550:B1 I *D sky130_fd_sc_hd__a21oi_2
*I *3492:B I *D sky130_fd_sc_hd__or4_2
*I *3558:B I *D sky130_fd_sc_hd__and4_2
*I *3551:A I *D sky130_fd_sc_hd__and3_2
*I *4007:Q O *D sky130_fd_sc_hd__dfrtp_2
*CAP
1 *3550:B1 0.000328375
2 *3492:B 0
3 *3558:B 0.000395644
4 *3551:A 0.00048588
5 *4007:Q 0.000369776
6 *1085:19 0.000549948
7 *1085:17 0.000482679
8 *1085:6 0.000855657
9 *3558:B *3558:A 5.67058e-05
10 *140:10 *3550:B1 0
11 *492:10 *3550:B1 0
12 *492:10 *1085:19 0
13 *493:68 *3558:B 8.94487e-05
14 *493:68 *1085:19 0.000135547
15 *612:78 *3551:A 2.30292e-05
16 *656:69 *3558:B 1.57009e-05
17 *656:69 *1085:19 2.13834e-05
18 *657:19 *3558:B 9.24595e-05
19 *657:19 *1085:19 4.34681e-05
20 *657:36 *3550:B1 0.000278634
21 *657:36 *1085:19 0.000111852
22 *881:75 *1085:19 8.9458e-05
23 *1072:24 *3558:B 0.000252001
*RES
1 *4007:Q *1085:6 26.9564 
2 *1085:6 *3551:A 29.3593 
3 *1085:6 *1085:17 15 
4 *1085:17 *1085:19 4.01857 
5 *1085:19 *3558:B 44.6286 
6 *1085:19 *3492:B 38 
7 *1085:17 *3550:B1 45.1464 
*END

*D_NET *1086 0.00651833
*CONN
*I *3555:A1 I *D sky130_fd_sc_hd__a21oi_2
*I *3492:A I *D sky130_fd_sc_hd__or4_2
*I *3558:A I *D sky130_fd_sc_hd__and4_2
*I *3556:A I *D sky130_fd_sc_hd__and3_2
*I *3553:A1 I *D sky130_fd_sc_hd__a21oi_2
*I *3554:A1 I *D sky130_fd_sc_hd__o21a_2
*I *4008:Q O *D sky130_fd_sc_hd__dfrtp_2
*CAP
1 *3555:A1 0.000181295
2 *3492:A 0
3 *3558:A 2.32616e-05
4 *3556:A 0.000438085
5 *3553:A1 0.000273851
6 *3554:A1 0.000138607
7 *4008:Q 0.000447951
8 *1086:74 0.000342726
9 *1086:57 0.00033895
10 *1086:36 0.000922707
11 *1086:21 0.000814052
12 *1086:8 0.000796396
13 *3554:A1 *1118:14 5.82853e-05
14 *3492:C *3555:A1 5.3304e-05
15 *3553:A2 *3553:A1 5.50049e-05
16 *3556:B *3556:A 0.000165675
17 *3556:C *3556:A 5.3304e-05
18 *3558:B *3558:A 5.67058e-05
19 *4008:RESET_B *1086:8 4.90004e-05
20 *4009:CLK *3553:A1 7.87425e-05
21 *4009:D *3553:A1 3.22879e-05
22 *4129:A *1086:8 2.64616e-05
23 *127:8 *1086:36 0.000229955
24 *613:82 *1086:21 0
25 *613:97 *1086:21 0
26 *613:97 *1086:36 0
27 *613:103 *3553:A1 0.000221084
28 *655:6 *1086:8 8.48502e-06
29 *655:14 *1086:8 0.000133327
30 *657:19 *1086:21 0
31 *657:19 *1086:36 0
32 *657:19 *1086:74 2.24608e-05
33 *881:23 *3554:A1 5.58003e-05
34 *1072:14 *3555:A1 8.30364e-05
35 *1072:24 *3555:A1 0.000138444
36 *1072:24 *3556:A 5.3304e-05
37 *1072:24 *3558:A 5.50049e-05
38 *1073:8 *1086:36 0.000114083
39 *1073:22 *3556:A 2.89564e-05
40 *1073:22 *1086:36 1.50637e-05
41 *1073:22 *1086:57 1.26747e-05
42 *1073:22 *1086:74 0
*RES
1 *4008:Q *1086:8 43.8621 
2 *1086:8 *3554:A1 40.5271 
3 *1086:8 *1086:21 3.66643 
4 *1086:21 *3553:A1 44.0279 
5 *1086:21 *1086:36 7.71607 
6 *1086:36 *3556:A 44.9704 
7 *1086:36 *1086:57 1.94714 
8 *1086:57 *3558:A 38.9425 
9 *1086:57 *1086:74 16.8954 
10 *1086:74 *3492:A 23 
11 *1086:74 *3555:A1 27.1429 
*END

*D_NET *1087 0.00359345
*CONN
*I *4163:A I *D sky130_fd_sc_hd__clkdlybuf4s25_1
*I *4292:A I *D sky130_fd_sc_hd__dlygate4sd3_1
*I *4018:Q O *D sky130_fd_sc_hd__dfrtp_2
*CAP
1 *4163:A 0
2 *4292:A 0.000166815
3 *4018:Q 0.000482975
4 *1087:10 0.000569346
5 *1087:8 0.000885506
6 *3532:A *1087:10 0
7 *3532:B *1087:10 0
8 *3534:A3 *4292:A 0.000181919
9 *3809:A2 *1087:10 7.13673e-05
10 *220:8 *1087:10 0.000326053
11 *610:23 *1087:8 0.000284305
12 *882:58 *4292:A 8.47448e-05
13 *882:58 *1087:10 0.000130984
14 *897:60 *4292:A 9.21347e-06
15 *897:60 *1087:10 0.000134216
16 *904:25 *4292:A 0.000180224
17 *904:44 *4292:A 1.01436e-05
18 *1071:64 *4292:A 7.56417e-05
*RES
1 *4018:Q *1087:8 45.7679 
2 *1087:8 *1087:10 10.7093 
3 *1087:10 *4292:A 42.6607 
4 *1087:10 *4163:A 38 
*END

*D_NET *1088 0.00237609
*CONN
*I *3429:B1 I *D sky130_fd_sc_hd__a22o_2
*I *3433:A1 I *D sky130_fd_sc_hd__a22o_2
*I *3931:Q O *D sky130_fd_sc_hd__dfstp_2
*CAP
1 *3429:B1 0
2 *3433:A1 0.000476087
3 *3931:Q 0.000446274
4 *1088:10 0.000922361
5 *3433:A1 *1093:32 0.000158059
6 *1088:10 *1092:10 5.47808e-05
7 *3433:A2 *3433:A1 0.000155645
8 *3520:A *3433:A1 5.70419e-05
9 *123:10 *3433:A1 2.07242e-05
10 *190:10 *1088:10 0
11 *730:10 *1088:10 8.51225e-05
12 *898:46 *3433:A1 0
13 *911:30 *3433:A1 0
14 *911:30 *1088:10 0
15 *996:8 *3433:A1 0
*RES
1 *3931:Q *1088:10 47.0107 
2 *1088:10 *3433:A1 46.7207 
3 *1088:10 *3429:B1 38 
*END

*D_NET *1089 0.00714999
*CONN
*I *4235:A I *D sky130_fd_sc_hd__dlygate4sd3_1
*I *3625:B I *D sky130_fd_sc_hd__nor3_2
*I *3932:Q O *D sky130_fd_sc_hd__dfrtp_2
*CAP
1 *4235:A 0
2 *3625:B 8.13606e-05
3 *3932:Q 0.000114077
4 *1089:34 0.000486565
5 *1089:22 0.000405204
6 *1089:20 0.000934864
7 *1089:8 0.00104894
8 *3428:B1 *3625:B 0.000117759
9 *3428:B1 *1089:34 0.00126991
10 *3521:A *1089:34 0.000141154
11 *3975:RESET_B *1089:20 0.000399495
12 *4099:A *1089:34 0.00116973
13 *4104:A *1089:20 5.50106e-05
14 *111:23 *1089:20 8.46456e-05
15 *191:8 *1089:8 8.85189e-05
16 *360:10 *1089:20 0
17 *360:14 *3625:B 0.000128391
18 *360:14 *1089:34 9.67874e-05
19 *423:36 *1089:8 0.000187986
20 *607:33 *1089:8 6.02277e-06
21 *627:8 *1089:34 9.84794e-05
22 *658:50 *1089:8 4.18957e-05
23 *658:105 *1089:20 0.000136486
24 *997:10 *1089:20 5.67058e-05
*RES
1 *3932:Q *1089:8 40.61 
2 *1089:8 *1089:20 46.5093 
3 *1089:20 *1089:22 15 
4 *1089:22 *1089:34 48.56 
5 *1089:34 *3625:B 26.0243 
6 *1089:22 *4235:A 23 
*END

*D_NET *1090 0.00185027
*CONN
*I *4212:A I *D sky130_fd_sc_hd__dlygate4sd3_1
*I *3933:Q O *D sky130_fd_sc_hd__dfrtp_2
*CAP
1 *4212:A 0.000108684
2 *3933:Q 0.00030317
3 *1090:10 0.000411854
4 *1090:10 *1094:10 0
5 *3780:A2 *1090:10 0
6 *101:12 *4212:A 0.000314157
7 *101:12 *1090:10 0
8 *196:10 *1090:10 0
9 *423:36 *4212:A 0.000484545
10 *611:8 *4212:A 9.84794e-05
11 *712:8 *1090:10 8.85189e-05
12 *883:122 *1090:10 4.08641e-05
13 *898:102 *1090:10 0
*RES
1 *3933:Q *1090:10 43.3443 
2 *1090:10 *4212:A 43.3857 
*END

*D_NET *1091 0.00175807
*CONN
*I *4192:A I *D sky130_fd_sc_hd__dlygate4sd3_1
*I *3934:Q O *D sky130_fd_sc_hd__dfrtp_2
*CAP
1 *4192:A 0
2 *3934:Q 0.000452264
3 *1091:10 0.000452264
4 *3396:A *1091:10 9.41704e-05
5 *621:118 *1091:10 5.85822e-06
6 *643:26 *1091:10 0.000349386
7 *880:57 *1091:10 0.000404124
*RES
1 *3934:Q *1091:10 46.6793 
2 *1091:10 *4192:A 38 
*END

*D_NET *1092 0.0023326
*CONN
*I *4232:A I *D sky130_fd_sc_hd__dlygate4sd3_1
*I *3431:B I *D sky130_fd_sc_hd__and2_2
*I *3935:Q O *D sky130_fd_sc_hd__dfrtp_2
*CAP
1 *4232:A 0
2 *3431:B 0.000287652
3 *3935:Q 0.000396984
4 *1092:10 0.000684636
5 *3783:A1 *3431:B 2.4754e-05
6 *3783:A2 *3431:B 0.000136738
7 *99:10 *3431:B 4.66047e-05
8 *194:8 *3431:B 0.00019654
9 *194:8 *1092:10 0.000141869
10 *360:73 *3431:B 7.99385e-05
11 *658:105 *3431:B 9.41704e-05
12 *898:46 *3431:B 1.00251e-05
13 *911:30 *3431:B 0.000113614
14 *911:30 *1092:10 6.42902e-05
15 *1088:10 *1092:10 5.47808e-05
*RES
1 *3935:Q *1092:10 44.3386 
2 *1092:10 *3431:B 45.8921 
3 *1092:10 *4232:A 38 
*END

*D_NET *1093 0.00737396
*CONN
*I *3625:A I *D sky130_fd_sc_hd__nor3_2
*I *3428:A2 I *D sky130_fd_sc_hd__a21o_2
*I *4278:A I *D sky130_fd_sc_hd__dlygate4sd3_1
*I *3520:B I *D sky130_fd_sc_hd__and2_2
*I *3936:Q O *D sky130_fd_sc_hd__dfrtp_2
*CAP
1 *3625:A 4.35457e-05
2 *3428:A2 0.000498717
3 *4278:A 6.82819e-05
4 *3520:B 0
5 *3936:Q 0.00065726
6 *1093:46 0.000934898
7 *1093:32 0.000553688
8 *1093:18 0.000854389
9 *1093:12 0.00128232
10 *3428:B1 *3428:A2 0.000738568
11 *3433:A1 *1093:32 0.000158059
12 *3433:A2 *1093:32 0.000157352
13 *3433:B1 *1093:32 0.000200675
14 *3936:CLK *1093:12 4.86103e-05
15 *4120:A *1093:18 0.00010018
16 *4222:A *1093:32 0.000143655
17 *96:10 *1093:32 5.50049e-05
18 *98:10 *1093:46 0
19 *123:10 *1093:32 5.41385e-05
20 *686:10 *1093:46 0
21 *686:40 *3625:A 0
22 *686:40 *1093:46 0
23 *734:8 *1093:46 0.000384805
24 *767:10 *4278:A 3.22879e-05
25 *781:10 *1093:18 2.18409e-05
26 *911:42 *4278:A 9.74722e-05
27 *911:42 *1093:18 3.97702e-05
28 *993:14 *1093:12 1.02561e-05
29 *993:14 *1093:18 3.7282e-05
30 *993:14 *1093:32 0.000104123
31 *993:14 *1093:46 1.62615e-05
32 *993:23 *1093:46 1.69668e-05
33 *993:38 *3625:A 1.86973e-05
34 *993:38 *1093:46 4.48628e-05
*RES
1 *3936:Q *1093:12 46.7104 
2 *1093:12 *1093:18 19.2568 
3 *1093:18 *1093:32 43.775 
4 *1093:32 *3520:B 23 
5 *1093:18 *4278:A 25.0507 
6 *1093:12 *1093:46 8.7725 
7 *1093:46 *3428:A2 46.8864 
8 *1093:46 *3625:A 38.8493 
*END

*D_NET *1094 0.00132264
*CONN
*I *4215:A I *D sky130_fd_sc_hd__dlygate4sd3_1
*I *3937:Q O *D sky130_fd_sc_hd__dfrtp_2
*CAP
1 *4215:A 0
2 *3937:Q 0.000429968
3 *1094:10 0.000429968
4 *3937:CLK *1094:10 4.93223e-05
5 *101:12 *1094:10 0.000354769
6 *192:8 *1094:10 5.86165e-05
7 *883:103 *1094:10 0
8 *883:122 *1094:10 0
9 *1090:10 *1094:10 0
*RES
1 *3937:Q *1094:10 46.2029 
2 *1094:10 *4215:A 38 
*END

*D_NET *1095 0.000775312
*CONN
*I *4209:A I *D sky130_fd_sc_hd__dlygate4sd3_1
*I *4019:Q O *D sky130_fd_sc_hd__dfrtp_2
*CAP
1 *4209:A 0
2 *4019:Q 0.000185171
3 *1095:10 0.000185171
4 *110:12 *1095:10 0.000134383
5 *902:62 *1095:10 0.000138444
6 *991:10 *1095:10 0.000132142
*RES
1 *4019:Q *1095:10 41.48 
2 *1095:10 *4209:A 38 
*END

*D_NET *1096 0.0052638
*CONN
*I *3421:A_N I *D sky130_fd_sc_hd__and2b_2
*I *3425:A1 I *D sky130_fd_sc_hd__a21oi_2
*I *3423:A I *D sky130_fd_sc_hd__nand2_2
*I *4037:Q O *D sky130_fd_sc_hd__dfrtp_2
*CAP
1 *3421:A_N 8.1448e-05
2 *3425:A1 0
3 *3423:A 0
4 *4037:Q 0.000242817
5 *1096:29 0.000770941
6 *1096:16 0.000565829
7 *1096:8 0.00149814
8 *3421:A_N *3421:B 3.22879e-05
9 *3421:A_N *1116:38 2.25927e-05
10 *1096:16 *1115:8 4.98543e-05
11 *1096:29 *3425:B1 0.000182826
12 *1096:29 *1116:38 4.39488e-05
13 *3521:A *1096:16 0.00010018
14 *3930:RESET_B *1096:29 0.000220082
15 *4099:A *1096:16 5.41385e-05
16 *104:10 *1096:8 0.000110913
17 *360:73 *1096:16 0
18 *360:82 *1096:8 0
19 *360:82 *1096:16 0
20 *421:8 *1096:16 0.000638411
21 *422:8 *1096:29 2.4754e-05
22 *628:105 *1096:8 0
23 *628:105 *1096:29 3.1725e-05
24 *658:105 *1096:16 4.43614e-05
25 *688:8 *1096:16 5.45887e-05
26 *692:14 *1096:16 0
27 *836:8 *1096:16 0.000138718
28 *889:10 *1096:16 5.0195e-05
29 *911:10 *1096:8 0.000159465
30 *911:10 *1096:16 0.000145583
31 *911:20 *1096:16 0
*RES
1 *4037:Q *1096:8 43.7793 
2 *1096:8 *1096:16 30.4736 
3 *1096:16 *3423:A 23 
4 *1096:8 *1096:29 26.4964 
5 *1096:29 *3425:A1 23 
6 *1096:29 *3421:A_N 24.5743 
*END

*D_NET *1097 0.00565131
*CONN
*I *4283:A I *D sky130_fd_sc_hd__dlygate4sd3_1
*I *3576:B I *D sky130_fd_sc_hd__nand2_2
*I *3500:A I *D sky130_fd_sc_hd__or4b_2
*I *3580:B I *D sky130_fd_sc_hd__and4_2
*I *3578:A2 I *D sky130_fd_sc_hd__a31o_2
*I *3575:B I *D sky130_fd_sc_hd__or2_2
*I *3581:A2 I *D sky130_fd_sc_hd__a31o_2
*I *4021:Q O *D sky130_fd_sc_hd__dfrtp_2
*CAP
1 *4283:A 0.000139765
2 *3576:B 0.000119391
3 *3500:A 9.6389e-05
4 *3580:B 0
5 *3578:A2 0
6 *3575:B 0
7 *3581:A2 0
8 *4021:Q 0.000102974
9 *1097:57 0.000111465
10 *1097:51 0.000336229
11 *1097:38 0.000136668
12 *1097:26 0.000288993
13 *1097:18 0.000416388
14 *1097:14 0.000291331
15 *1097:10 0.000518959
16 *1097:8 0.000486663
17 *3500:A *1105:49 5.3304e-05
18 *4283:A *1113:16 0.000139352
19 *1097:14 *1104:70 0
20 *1097:18 *3575:A 9.84851e-05
21 *1097:18 *1104:53 0.000259146
22 *1097:18 *1105:49 3.61695e-05
23 *1097:26 *3581:A1 3.97587e-05
24 *1097:26 *3581:B1 6.89408e-06
25 *1097:38 *1104:53 1.08331e-05
26 *1097:38 *1105:49 3.49686e-05
27 *1097:51 *3500:D_N 5.3304e-05
28 *1097:51 *1104:51 0.00013292
29 *1097:51 *1104:53 1.92408e-05
30 *1097:51 *1105:49 0.000206694
31 *1097:57 *1104:36 3.3746e-05
32 *1097:57 *1105:49 0.000218952
33 *3500:C *1097:51 0
34 *3579:A2 *1097:26 0
35 *161:10 *1097:8 4.38756e-05
36 *240:8 *4283:A 0
37 *240:8 *1097:10 0
38 *390:19 *4283:A 0.000188916
39 *390:19 *1097:10 0.000219882
40 *507:16 *1097:57 0.000164282
41 *509:10 *1097:26 0
42 *510:10 *1097:18 5.47927e-05
43 *510:10 *1097:26 0.000122407
44 *661:65 *4283:A 0.000139352
45 *787:10 *1097:10 0
46 *901:51 *1097:57 1.12487e-05
47 *903:12 *4283:A 5.94125e-05
48 *903:64 *1097:10 0.000122304
49 *903:64 *1097:14 7.91493e-05
50 *903:64 *1097:51 5.67058e-05
*RES
1 *4021:Q *1097:8 39.5743 
2 *1097:8 *1097:10 6.13143 
3 *1097:10 *1097:14 17.61 
4 *1097:14 *1097:18 4.45357 
5 *1097:18 *1097:26 35.4686 
6 *1097:26 *3581:A2 23 
7 *1097:18 *3575:B 23 
8 *1097:14 *1097:38 0.383214 
9 *1097:38 *3578:A2 23 
10 *1097:38 *1097:51 4.8575 
11 *1097:51 *1097:57 33.3143 
12 *1097:57 *3580:B 23 
13 *1097:51 *3500:A 24.5743 
14 *1097:10 *3576:B 40.0507 
15 *1097:8 *4283:A 42.1843 
*END

*D_NET *1098 0.00448133
*CONN
*I *3599:B1 I *D sky130_fd_sc_hd__a21oi_2
*I *3502:D I *D sky130_fd_sc_hd__or4_2
*I *3602:D I *D sky130_fd_sc_hd__and4_2
*I *3600:B I *D sky130_fd_sc_hd__and3_2
*I *4031:Q O *D sky130_fd_sc_hd__dfrtp_2
*CAP
1 *3599:B1 0.000194103
2 *3502:D 2.90515e-05
3 *3602:D 0
4 *3600:B 0.000223778
5 *4031:Q 0.000567733
6 *1098:33 2.90438e-05
7 *1098:16 0.000599967
8 *1098:12 0.000455539
9 *1098:8 0.000841178
10 *3502:D *1112:25 5.3304e-05
11 *3599:B1 *3599:A1 5.3304e-05
12 *3599:B1 *1099:14 0.000130433
13 *3600:B *1112:60 1.21972e-05
14 *1098:12 *1099:14 0.0002499
15 *1098:16 *3602:B 5.50049e-05
16 *1098:16 *3602:C 7.4551e-05
17 *1098:16 *1112:25 9.24795e-06
18 *1098:16 *1112:46 0.000148688
19 *1098:16 *1112:60 1.94812e-05
20 *1098:33 *3602:B 1.19796e-05
21 *1098:33 *1112:60 1.14452e-05
22 *3598:A2 *3502:D 3.7122e-06
23 *3599:A2 *3599:B1 0.000139647
24 *3599:A2 *1098:12 0.000247668
25 *521:24 *3600:B 1.6558e-05
26 *521:24 *1098:33 6.25829e-05
27 *523:10 *3599:B1 5.67058e-05
28 *525:8 *3600:B 0.000184527
29 *609:95 *1098:33 0
*RES
1 *4031:Q *1098:8 44.815 
2 *1098:8 *1098:12 18.3143 
3 *1098:12 *1098:16 7.06357 
4 *1098:16 *3600:B 26.6457 
5 *1098:16 *1098:33 30.8493 
6 *1098:33 *3602:D 23 
7 *1098:12 *3502:D 23.6214 
8 *1098:8 *3599:B1 42.4329 
*END

*D_NET *1099 0.00320605
*CONN
*I *4247:A I *D sky130_fd_sc_hd__dlygate4sd3_1
*I *3602:C I *D sky130_fd_sc_hd__and4_2
*I *3502:C I *D sky130_fd_sc_hd__or4_2
*I *4032:Q O *D sky130_fd_sc_hd__dfrtp_2
*CAP
1 *4247:A 0
2 *3602:C 0.00022454
3 *3502:C 0
4 *4032:Q 0.000244433
5 *1099:14 0.000575439
6 *1099:8 0.000595332
7 *3602:C *3602:B 3.33469e-05
8 *3602:C *1112:25 5.3304e-05
9 *3602:C *1112:46 0.000268074
10 *3602:C *1112:60 1.32314e-05
11 *1099:14 *3597:A1 1.01436e-05
12 *1099:14 *3599:A1 0.000377181
13 *1099:14 *1112:27 5.94125e-05
14 *3599:A2 *1099:14 1.37246e-05
15 *3599:B1 *1099:14 0.000130433
16 *465:10 *3602:C 0.000184527
17 *609:101 *1099:8 9.84794e-05
18 *609:101 *1099:14 0
19 *1098:12 *1099:14 0.0002499
20 *1098:16 *3602:C 7.4551e-05
*RES
1 *4032:Q *1099:8 27.4536 
2 *1099:8 *1099:14 38.5964 
3 *1099:14 *3502:C 23 
4 *1099:14 *3602:C 29.0486 
5 *1099:8 *4247:A 23 
*END

*D_NET *1100 0.00430344
*CONN
*I *3607:A I *D sky130_fd_sc_hd__nand2_2
*I *3609:B I *D sky130_fd_sc_hd__and2_2
*I *3501:B I *D sky130_fd_sc_hd__or4_2
*I *3606:A I *D sky130_fd_sc_hd__or2_2
*I *4033:Q O *D sky130_fd_sc_hd__dfrtp_2
*CAP
1 *3607:A 0.000208744
2 *3609:B 0.000219179
3 *3501:B 0.000166754
4 *3606:A 0
5 *4033:Q 0
6 *1100:34 0.000608655
7 *1100:10 0.00106299
8 *1100:4 0.00107697
9 *3501:B *3501:C 7.88926e-05
10 *3607:A *1113:27 1.66821e-05
11 *3609:B *1113:27 0
12 *1100:34 *1113:27 0
13 *3503:A *3609:B 0.000163352
14 *4033:D *1100:10 6.6978e-05
15 *4033:RESET_B *1100:10 2.56175e-05
16 *466:12 *3609:B 2.83386e-05
17 *466:12 *1100:34 1.67942e-05
18 *511:88 *3607:A 3.39102e-05
19 *511:88 *3609:B 2.19398e-05
20 *518:44 *3607:A 2.32101e-05
21 *526:27 *3609:B 1.12695e-05
22 *526:27 *1100:34 9.28078e-06
23 *529:8 *3607:A 9.41704e-05
24 *531:10 *3501:B 0
25 *609:12 *1100:10 5.78608e-05
26 *609:12 *1100:34 1.46756e-05
27 *609:20 *3501:B 0.000104869
28 *609:20 *1100:10 0.000192311
29 *903:25 *3501:B 0
30 *903:25 *1100:10 0
*RES
1 *4033:Q *1100:4 23 
2 *1100:4 *1100:10 27.6564 
3 *1100:10 *3606:A 38 
4 *1100:10 *3501:B 41.1279 
5 *1100:4 *1100:34 17.5996 
6 *1100:34 *3609:B 42.1946 
7 *1100:34 *3607:A 41.6975 
*END

*D_NET *1101 0.00242254
*CONN
*I *3609:A I *D sky130_fd_sc_hd__and2_2
*I *4324:A I *D sky130_fd_sc_hd__dlygate4sd3_1
*I *3501:A I *D sky130_fd_sc_hd__or4_2
*I *4034:Q O *D sky130_fd_sc_hd__dfrtp_2
*CAP
1 *3609:A 4.64778e-05
2 *4324:A 0
3 *3501:A 0
4 *4034:Q 0.000126526
5 *1101:27 0.000122717
6 *1101:20 0.000309843
7 *1101:10 0.000386083
8 *1101:8 0.000126526
9 *3353:A *1101:20 5.50106e-05
10 *3606:B *1101:20 0.000392386
11 *466:12 *1101:8 0
12 *466:12 *1101:20 0
13 *525:8 *3609:A 8.43466e-05
14 *525:8 *1101:27 9.84851e-05
15 *525:12 *1101:20 0
16 *529:8 *1101:20 0.000219383
17 *530:10 *1101:20 0.000103994
18 *530:10 *1101:27 4.04206e-05
19 *531:10 *1101:20 9.45591e-05
20 *901:107 *1101:8 0
21 *901:107 *1101:20 0.000215782
*RES
1 *4034:Q *1101:8 40.2579 
2 *1101:8 *1101:10 15 
3 *1101:10 *1101:20 38.9693 
4 *1101:20 *3501:A 23 
5 *1101:10 *1101:27 2.05071 
6 *1101:27 *4324:A 23 
7 *1101:27 *3609:A 24.0979 
*END

*D_NET *1102 0.00345904
*CONN
*I *3614:A1 I *D sky130_fd_sc_hd__a21oi_2
*I *3501:D I *D sky130_fd_sc_hd__or4_2
*I *3612:A1 I *D sky130_fd_sc_hd__a21oi_2
*I *3613:A1 I *D sky130_fd_sc_hd__o21a_2
*I *3615:A2 I *D sky130_fd_sc_hd__a31o_2
*I *4035:Q O *D sky130_fd_sc_hd__dfrtp_2
*CAP
1 *3614:A1 0.000187921
2 *3501:D 0.000246051
3 *3612:A1 0
4 *3613:A1 9.5087e-05
5 *3615:A2 0.000178732
6 *4035:Q 0.000178732
7 *1102:24 0.000116141
8 *1102:22 0.00052702
9 *1102:18 0.000447835
10 *3501:D *3501:C 0.000312342
11 *3614:A1 *4299:A 0
12 *1102:22 *3501:C 0
13 *1102:22 *4299:A 0
14 *3606:B *3501:D 5.67058e-05
15 *3612:B1 *3501:D 5.29672e-05
16 *3614:A2 *3614:A1 0.000253547
17 *3614:A2 *1102:22 6.48142e-05
18 *255:8 *3614:A1 0
19 *531:28 *1102:22 0
20 *531:32 *3615:A2 0.000100733
21 *531:38 *1102:22 0.000383503
22 *531:51 *1102:22 1.59208e-05
23 *532:6 *3501:D 9.84851e-05
24 *532:6 *3613:A1 7.42621e-05
25 *532:6 *1102:24 5.50049e-05
26 *533:10 *3614:A1 1.32314e-05
*RES
1 *4035:Q *3615:A2 48.5271 
2 *4035:Q *1102:18 38 
3 *1102:18 *1102:22 21.4836 
4 *1102:22 *1102:24 0.621429 
5 *1102:24 *3613:A1 25.5686 
6 *1102:24 *3612:A1 23 
7 *1102:22 *3501:D 29.3386 
8 *1102:18 *3614:A1 42.1843 
*END

*D_NET *1103 0.00239035
*CONN
*I *4299:A I *D sky130_fd_sc_hd__dlygate4sd3_1
*I *3615:A1 I *D sky130_fd_sc_hd__a31o_2
*I *3501:C I *D sky130_fd_sc_hd__or4_2
*I *4036:Q O *D sky130_fd_sc_hd__dfrtp_2
*CAP
1 *4299:A 0.000320379
2 *3615:A1 0
3 *3501:C 0.000261192
4 *4036:Q 0.000158623
5 *1103:21 0.00037214
6 *1103:8 0.000471576
7 *3501:B *3501:C 7.88926e-05
8 *3501:D *3501:C 0.000312342
9 *3606:B *3501:C 2.4754e-05
10 *3612:B1 *3501:C 0.000135774
11 *3614:A1 *4299:A 0
12 *3615:B1 *3501:C 2.70366e-05
13 *3615:B1 *4299:A 2.08324e-05
14 *3615:B1 *1103:21 4.08641e-05
15 *531:28 *3501:C 4.54033e-05
16 *531:28 *4299:A 2.60152e-05
17 *531:28 *1103:8 3.3577e-05
18 *531:28 *1103:21 3.3746e-05
19 *609:20 *3501:C 1.69668e-05
20 *609:20 *4299:A 1.02387e-05
21 *1102:22 *3501:C 0
22 *1102:22 *4299:A 0
*RES
1 *4036:Q *1103:8 40.0507 
2 *1103:8 *3501:C 45.6229 
3 *1103:8 *1103:21 1.20143 
4 *1103:21 *3615:A1 38 
5 *1103:21 *4299:A 44.1936 
*END

*D_NET *1104 0.00537294
*CONN
*I *3578:A1 I *D sky130_fd_sc_hd__a31o_2
*I *3576:A I *D sky130_fd_sc_hd__nand2_2
*I *3575:A I *D sky130_fd_sc_hd__or2_2
*I *3500:D_N I *D sky130_fd_sc_hd__or4b_2
*I *3581:A1 I *D sky130_fd_sc_hd__a31o_2
*I *3580:A I *D sky130_fd_sc_hd__and4_2
*I *4022:Q O *D sky130_fd_sc_hd__dfrtp_2
*CAP
1 *3578:A1 0
2 *3576:A 0
3 *3575:A 0.000159611
4 *3500:D_N 2.32701e-05
5 *3581:A1 0.000187147
6 *3580:A 0
7 *4022:Q 0.000426244
8 *1104:70 0.000110804
9 *1104:53 0.000485232
10 *1104:51 0.000419917
11 *1104:36 0.000403346
12 *1104:12 0.000187147
13 *1104:10 0.00060122
14 *3500:D_N *1105:49 5.3304e-05
15 *3581:A1 *3581:A3 0.000307369
16 *3581:A1 *3581:B1 0.000532646
17 *3581:A1 *1105:34 1.14154e-05
18 *1104:10 *1105:21 0.000321572
19 *1104:10 *1105:49 4.21594e-06
20 *1104:36 *1105:49 9.20311e-06
21 *4024:CLK *1104:10 0
22 *154:8 *1104:10 0
23 *243:10 *1104:10 5.75972e-05
24 *507:16 *1104:36 0.000164282
25 *507:16 *1104:51 5.94125e-05
26 *507:47 *3581:A1 5.92579e-05
27 *509:10 *1104:70 0
28 *511:133 *1104:10 1.14452e-05
29 *511:133 *1104:36 7.48331e-05
30 *610:47 *1104:10 0
31 *901:51 *1104:10 0
32 *903:64 *1104:51 5.50106e-05
33 *1097:14 *1104:70 0
34 *1097:18 *3575:A 9.84851e-05
35 *1097:18 *1104:53 0.000259146
36 *1097:26 *3581:A1 3.97587e-05
37 *1097:38 *1104:53 1.08331e-05
38 *1097:51 *3500:D_N 5.3304e-05
39 *1097:51 *1104:51 0.00013292
40 *1097:51 *1104:53 1.92408e-05
41 *1097:57 *1104:36 3.3746e-05
*RES
1 *4022:Q *1104:10 45.8093 
2 *1104:10 *1104:12 15 
3 *1104:12 *3580:A 23 
4 *1104:12 *3581:A1 31.3271 
5 *1104:10 *1104:36 3.66643 
6 *1104:36 *3500:D_N 38.6214 
7 *1104:36 *1104:51 18.3764 
8 *1104:51 *1104:53 3.48 
9 *1104:53 *3575:A 25.6929 
10 *1104:53 *1104:70 31.9057 
11 *1104:70 *3576:A 23 
12 *1104:51 *3578:A1 23 
*END

*D_NET *1105 0.00538723
*CONN
*I *3498:A I *D sky130_fd_sc_hd__or4b_2
*I *3578:A3 I *D sky130_fd_sc_hd__a31o_2
*I *3580:C I *D sky130_fd_sc_hd__and4_2
*I *3581:A3 I *D sky130_fd_sc_hd__a31o_2
*I *3349:A I *D sky130_fd_sc_hd__inv_2
*I *4023:Q O *D sky130_fd_sc_hd__dfrtp_2
*CAP
1 *3498:A 0
2 *3578:A3 0
3 *3580:C 0
4 *3581:A3 0.000394567
5 *3349:A 0.0001028
6 *4023:Q 2.34151e-05
7 *1105:62 0.000387479
8 *1105:49 0.000330327
9 *1105:34 0.000789138
10 *1105:21 0.000625416
11 *1105:6 0.000285732
12 *3581:A3 *3581:B1 8.48502e-06
13 *1105:34 *3581:B1 5.41288e-05
14 *1105:62 *3498:D_N 0
15 *1105:62 *3581:B1 2.02872e-05
16 *1105:62 *1106:12 0.000181131
17 *3500:A *1105:49 5.3304e-05
18 *3500:D_N *1105:49 5.3304e-05
19 *3581:A1 *3581:A3 0.000307369
20 *3581:A1 *1105:34 1.14154e-05
21 *243:10 *1105:21 0.000111138
22 *382:10 *3349:A 3.17516e-05
23 *382:10 *1105:6 5.3304e-05
24 *462:8 *1105:62 0
25 *507:34 *3581:A3 0
26 *507:47 *3581:A3 6.09588e-05
27 *511:6 *1105:62 0.000313255
28 *901:40 *3349:A 7.4416e-05
29 *901:40 *1105:6 9.8971e-06
30 *901:51 *1105:21 2.79064e-05
31 *901:51 *1105:49 0.000244526
32 *1097:18 *1105:49 3.61695e-05
33 *1097:38 *1105:49 3.49686e-05
34 *1097:51 *1105:49 0.000206694
35 *1097:57 *1105:49 0.000218952
36 *1104:10 *1105:21 0.000321572
37 *1104:10 *1105:49 4.21594e-06
38 *1104:36 *1105:49 9.20311e-06
*RES
1 *4023:Q *1105:6 23.6214 
2 *1105:6 *3349:A 25.4236 
3 *1105:6 *1105:21 34.3707 
4 *1105:21 *3581:A3 29.3593 
5 *1105:21 *1105:34 1.595 
6 *1105:34 *3580:C 23 
7 *1105:34 *1105:49 38.7207 
8 *1105:49 *3578:A3 23 
9 *1105:34 *1105:62 38.5757 
10 *1105:62 *3498:A 23 
*END

*D_NET *1106 0.00303889
*CONN
*I *3498:D_N I *D sky130_fd_sc_hd__or4b_2
*I *3581:B1 I *D sky130_fd_sc_hd__a31o_2
*I *3580:D I *D sky130_fd_sc_hd__and4_2
*I *4024:Q O *D sky130_fd_sc_hd__dfrtp_2
*CAP
1 *3498:D_N 0.000185308
2 *3581:B1 0.000282038
3 *3580:D 0
4 *4024:Q 0.000111995
5 *1106:12 0.000356552
6 *1106:8 0.000371816
7 *3581:A1 *3581:B1 0.000532646
8 *3581:A3 *3581:B1 8.48502e-06
9 *3582:B *3581:B1 2.4754e-05
10 *460:10 *3498:D_N 8.38531e-05
11 *460:10 *1106:8 5.62433e-05
12 *507:16 *3581:B1 6.36307e-05
13 *507:34 *3581:B1 0.000424551
14 *511:133 *3581:B1 0.000219383
15 *511:133 *1106:12 4.5051e-05
16 *662:33 *1106:8 1.01436e-05
17 *1097:26 *3581:B1 6.89408e-06
18 *1105:34 *3581:B1 5.41288e-05
19 *1105:62 *3498:D_N 0
20 *1105:62 *3581:B1 2.02872e-05
21 *1105:62 *1106:12 0.000181131
*RES
1 *4024:Q *1106:8 39.9057 
2 *1106:8 *1106:12 17.0507 
3 *1106:12 *3580:D 23 
4 *1106:12 *3581:B1 33.1914 
5 *1106:8 *3498:D_N 42.0807 
*END

*D_NET *1107 0.005671
*CONN
*I *3591:A I *D sky130_fd_sc_hd__and4_2
*I *3583:A I *D sky130_fd_sc_hd__nand2_2
*I *3586:A I *D sky130_fd_sc_hd__and3_2
*I *3584:A I *D sky130_fd_sc_hd__or2_2
*I *3350:A I *D sky130_fd_sc_hd__inv_2
*I *3499:B I *D sky130_fd_sc_hd__and2b_2
*I *4025:Q O *D sky130_fd_sc_hd__dfrtp_2
*CAP
1 *3591:A 0
2 *3583:A 0
3 *3586:A 0
4 *3584:A 0.000131195
5 *3350:A 1.22655e-05
6 *3499:B 0.000117351
7 *4025:Q 0.000495061
8 *1107:75 0.000346591
9 *1107:60 0.000476663
10 *1107:51 0.000116107
11 *1107:36 0.000304604
12 *1107:34 0.000362484
13 *1107:12 0.000129617
14 *1107:10 0.000670171
15 *1107:10 *1109:46 0
16 *1107:34 *1109:46 0
17 *1107:75 *3351:A 0.000167443
18 *1107:75 *1108:49 2.13834e-05
19 *1107:75 *1109:14 2.93747e-05
20 *1107:75 *1109:46 0.000211855
21 *3499:A_N *3350:A 4.2573e-05
22 *3499:A_N *3499:B 9.84794e-05
23 *3585:C *3584:A 5.3304e-05
24 *3585:C *1107:36 8.60475e-05
25 *155:10 *1107:60 2.44913e-05
26 *155:10 *1107:75 3.22879e-05
27 *157:10 *1107:75 0.000141339
28 *244:8 *1107:10 1.83667e-05
29 *383:10 *3499:B 2.28331e-05
30 *383:10 *1107:10 5.86225e-05
31 *384:10 *1107:34 0.000163352
32 *384:10 *1107:51 0
33 *462:8 *1107:34 0
34 *507:73 *1107:34 0
35 *507:73 *1107:51 0.000243596
36 *511:15 *3584:A 1.59094e-05
37 *511:21 *1107:34 0
38 *511:34 *3584:A 1.41077e-05
39 *511:34 *1107:36 4.1657e-05
40 *511:34 *1107:60 7.41581e-05
41 *511:46 *1107:51 0
42 *513:6 *1107:36 4.6595e-05
43 *513:6 *1107:60 7.15126e-05
44 *513:14 *1107:36 3.22879e-05
45 *513:14 *1107:51 0.000137788
46 *515:23 *1107:75 0.000391318
47 *662:25 *1107:10 3.17202e-05
48 *901:30 *3350:A 5.50106e-05
49 *901:30 *3499:B 0.000177265
50 *903:94 *1107:51 4.21594e-06
*RES
1 *4025:Q *1107:10 45.4986 
2 *1107:10 *1107:12 15 
3 *1107:12 *3499:B 26.5214 
4 *1107:12 *3350:A 23.6214 
5 *1107:10 *1107:34 17.9621 
6 *1107:34 *1107:36 2.05071 
7 *1107:36 *3584:A 25.0714 
8 *1107:36 *1107:51 33.3143 
9 *1107:51 *3586:A 23 
10 *1107:34 *1107:60 3.02429 
11 *1107:60 *3583:A 23 
12 *1107:60 *1107:75 39.4871 
13 *1107:75 *3591:A 23 
*END

*D_NET *1108 0.00690787
*CONN
*I *3591:B I *D sky130_fd_sc_hd__and4_2
*I *3351:A I *D sky130_fd_sc_hd__inv_2
*I *3586:B I *D sky130_fd_sc_hd__and3_2
*I *3498:B I *D sky130_fd_sc_hd__or4b_2
*I *4026:Q O *D sky130_fd_sc_hd__dfrtp_2
*CAP
1 *3591:B 0
2 *3351:A 0.000184019
3 *3586:B 0
4 *3498:B 0.000314601
5 *4026:Q 0.000824493
6 *1108:49 0.000570834
7 *1108:22 0.000754853
8 *1108:8 0.000766049
9 *1108:6 0.00127594
10 *3351:A *1109:46 5.40762e-05
11 *3498:B *3498:C 0.000105934
12 *1108:6 *1110:14 9.52814e-06
13 *1108:49 *1109:14 7.44257e-05
14 *1108:49 *1109:16 6.17437e-06
15 *3500:C *3498:B 2.65879e-05
16 *4026:D *1108:6 5.08033e-05
17 *4027:CLK *1108:49 2.69866e-05
18 *155:10 *3351:A 0.000136486
19 *511:46 *1108:49 0.000190657
20 *515:8 *3498:B 9.58714e-05
21 *515:8 *1108:8 0.000431545
22 *515:23 *1108:6 6.17437e-06
23 *515:23 *1108:8 6.53382e-05
24 *515:23 *1108:49 0.00050486
25 *609:54 *1108:49 1.38306e-06
26 *609:75 *1108:49 0
27 *610:87 *3351:A 9.65791e-05
28 *610:87 *1108:49 6.48142e-05
29 *819:8 *1108:49 2.50227e-05
30 *901:30 *3351:A 5.50049e-05
31 *1107:75 *3351:A 0.000167443
32 *1107:75 *1108:49 2.13834e-05
*RES
1 *4026:Q *1108:6 33.15 
2 *1108:6 *1108:8 6.33857 
3 *1108:8 *3498:B 27.9093 
4 *1108:8 *3586:B 23 
5 *1108:6 *1108:22 15 
6 *1108:22 *3351:A 43.3443 
7 *1108:22 *1108:49 41.1084 
8 *1108:49 *3591:B 23 
*END

*D_NET *1109 0.00998764
*CONN
*I *3589:A I *D sky130_fd_sc_hd__or2_2
*I *3495:A_N I *D sky130_fd_sc_hd__and2b_2
*I *3496:B I *D sky130_fd_sc_hd__and2b_2
*I *3591:C I *D sky130_fd_sc_hd__and4_2
*I *3588:A I *D sky130_fd_sc_hd__nand2_2
*I *4027:Q O *D sky130_fd_sc_hd__dfrtp_2
*CAP
1 *3589:A 0.000249529
2 *3495:A_N 3.28208e-05
3 *3496:B 0.000255445
4 *3591:C 0
5 *3588:A 0
6 *4027:Q 0.000780333
7 *1109:46 0.00120804
8 *1109:40 0.0011693
9 *1109:28 0.000325547
10 *1109:16 0.000355004
11 *1109:14 0.00080979
12 *3589:A *1110:33 2.56004e-05
13 *1109:46 *1110:33 0.000120561
14 *3351:A *1109:46 5.40762e-05
15 *3352:A *1109:14 4.08664e-05
16 *3352:A *1109:16 4.08664e-05
17 *3352:A *1109:28 0.000178517
18 *3355:A *3495:A_N 9.5877e-05
19 *3486:A *3496:B 0.000222113
20 *3499:A_N *1109:46 0.000370199
21 *3590:B *1109:28 9.6103e-05
22 *3808:B1 *3496:B 0
23 *4027:CLK *1109:14 3.49677e-05
24 *155:10 *1109:46 0
25 *157:10 *1109:28 5.37348e-06
26 *157:10 *1109:46 0.000143504
27 *244:8 *1109:46 0
28 *384:10 *1109:46 3.46344e-05
29 *458:10 *1109:46 0.000171941
30 *459:8 *3496:B 0.000130685
31 *459:8 *1109:46 1.31651e-05
32 *507:56 *1109:28 7.73389e-05
33 *507:73 *1109:28 2.93747e-05
34 *511:46 *1109:46 0.000509233
35 *511:65 *3589:A 0.000138185
36 *515:23 *1109:46 0
37 *516:12 *1109:28 3.22879e-05
38 *517:10 *1109:28 9.80671e-05
39 *518:12 *3589:A 0.000113153
40 *518:12 *1109:16 1.24376e-05
41 *518:12 *1109:28 0.000137651
42 *518:27 *3589:A 0.000276784
43 *519:8 *1109:28 1.14452e-05
44 *660:31 *3496:B 0
45 *819:8 *3589:A 0.000136486
46 *819:8 *1109:46 3.47781e-05
47 *886:16 *3495:A_N 9.5877e-05
48 *903:94 *1109:28 0.000216721
49 *1068:19 *3496:B 0.000284553
50 *1068:19 *1109:46 0.000429611
51 *1069:18 *3496:B 6.69742e-05
52 *1107:10 *1109:46 0
53 *1107:34 *1109:46 0
54 *1107:75 *1109:14 2.93747e-05
55 *1107:75 *1109:46 0.000211855
56 *1108:49 *1109:14 7.44257e-05
57 *1108:49 *1109:16 6.17437e-06
*RES
1 *4027:Q *1109:14 36.2157 
2 *1109:14 *1109:16 0.621429 
3 *1109:16 *1109:28 38.99 
4 *1109:28 *3588:A 23 
5 *1109:16 *3591:C 23 
6 *1109:14 *1109:40 15 
7 *1109:40 *1109:46 23.0964 
8 *1109:46 *3496:B 45.4571 
9 *1109:46 *3495:A_N 39.0979 
10 *1109:40 *3589:A 44.4007 
*END

*D_NET *1110 0.00554676
*CONN
*I *4312:A I *D sky130_fd_sc_hd__dlygate4sd3_1
*I *3591:D I *D sky130_fd_sc_hd__and4_2
*I *3498:C I *D sky130_fd_sc_hd__or4b_2
*I *4028:Q O *D sky130_fd_sc_hd__dfrtp_2
*CAP
1 *4312:A 0.000273608
2 *3591:D 0
3 *3498:C 0.000374687
4 *4028:Q 0.000255955
5 *1110:33 0.00051137
6 *1110:14 0.0010385
7 *1110:10 0.000682006
8 *3498:B *3498:C 0.000105934
9 *3500:C *3498:C 0.000315852
10 *3589:A *1110:33 2.56004e-05
11 *3592:A1 *4312:A 0.000137359
12 *4026:D *1110:14 0.000308033
13 *4028:RESET_B *1110:10 5.00902e-05
14 *158:10 *1110:33 0.000111852
15 *511:46 *1110:33 0.000229038
16 *511:50 *4312:A 0.000182087
17 *515:8 *3498:C 0.000142982
18 *518:12 *4312:A 0.000113153
19 *518:12 *1110:33 1.14452e-05
20 *518:27 *4312:A 2.55642e-05
21 *609:43 *4312:A 0.000132665
22 *609:43 *1110:33 9.98727e-05
23 *609:75 *1110:10 4.08641e-05
24 *903:94 *3498:C 0.00014196
25 *903:94 *1110:14 5.78044e-05
26 *903:94 *1110:33 4.83941e-05
27 *1108:6 *1110:14 9.52814e-06
28 *1109:46 *1110:33 0.000120561
*RES
1 *4028:Q *1110:10 41.7286 
2 *1110:10 *1110:14 20.8621 
3 *1110:14 *3498:C 31.7621 
4 *1110:14 *1110:33 21.5457 
5 *1110:33 *3591:D 38 
6 *1110:33 *4312:A 44.3386 
*END

*D_NET *1111 0.00483869
*CONN
*I *3502:B I *D sky130_fd_sc_hd__or4_2
*I *3602:B I *D sky130_fd_sc_hd__and4_2
*I *3594:B1 I *D sky130_fd_sc_hd__a21oi_2
*I *3595:A I *D sky130_fd_sc_hd__and3_2
*I *4029:Q O *D sky130_fd_sc_hd__dfrtp_2
*CAP
1 *3502:B 0
2 *3602:B 0.000210787
3 *3594:B1 0.00021664
4 *3595:A 0.000269873
5 *4029:Q 0.000499823
6 *1111:47 7.8826e-05
7 *1111:19 0.000427427
8 *1111:8 0.000575707
9 *1111:6 0.000884482
10 *3602:B *1112:60 3.623e-05
11 *1111:47 *3597:A1 0.000111158
12 *3597:A2 *1111:47 9.03784e-05
13 *3601:A *3602:B 0
14 *3602:C *3602:B 3.33469e-05
15 *3838:B1 *1111:6 3.3577e-05
16 *4029:D *1111:8 0.000182826
17 *511:82 *3594:B1 0.000374713
18 *511:82 *3602:B 0.000142818
19 *518:27 *3594:B1 4.77164e-06
20 *520:10 *3594:B1 0.000157174
21 *520:10 *3602:B 2.84912e-05
22 *521:14 *3595:A 8.13397e-05
23 *521:33 *3595:A 3.06213e-05
24 *521:42 *3595:A 1.94693e-05
25 *521:42 *1111:6 1.59094e-05
26 *521:42 *1111:8 7.38136e-05
27 *521:55 *1111:47 0.000131744
28 *609:43 *3594:B1 0
29 *609:95 *3602:B 5.97612e-05
30 *1098:16 *3602:B 5.50049e-05
31 *1098:33 *3602:B 1.19796e-05
*RES
1 *4029:Q *1111:6 28.8621 
2 *1111:6 *1111:8 4.43286 
3 *1111:8 *3595:A 26.9771 
4 *1111:8 *1111:19 15 
5 *1111:19 *3594:B1 43.075 
6 *1111:19 *3602:B 43.1371 
7 *1111:6 *1111:47 32.9621 
8 *1111:47 *3502:B 23 
*END

*D_NET *1112 0.00619259
*CONN
*I *3599:A1 I *D sky130_fd_sc_hd__a21oi_2
*I *3502:A I *D sky130_fd_sc_hd__or4_2
*I *3602:A I *D sky130_fd_sc_hd__and4_2
*I *3600:A I *D sky130_fd_sc_hd__and3_2
*I *3597:A1 I *D sky130_fd_sc_hd__a21oi_2
*I *3598:A1 I *D sky130_fd_sc_hd__o21a_2
*I *4030:Q O *D sky130_fd_sc_hd__dfrtp_2
*CAP
1 *3599:A1 0.000248998
2 *3502:A 0
3 *3602:A 0
4 *3600:A 0
5 *3597:A1 0.000488935
6 *3598:A1 0
7 *4030:Q 0.000364023
8 *1112:60 0.000317878
9 *1112:46 0.000386977
10 *1112:44 6.90986e-05
11 *1112:27 0.000530651
12 *1112:25 0.000680495
13 *1112:14 0.000429277
14 *1112:10 0.000403519
15 *3502:D *1112:25 5.3304e-05
16 *3597:A2 *3597:A1 0.000108649
17 *3598:A2 *1112:25 7.27427e-05
18 *3598:B1 *3597:A1 0
19 *3598:B1 *1112:10 0
20 *3599:A2 *3597:A1 1.42006e-05
21 *3599:A2 *1112:10 0
22 *3599:B1 *3599:A1 5.3304e-05
23 *3600:B *1112:60 1.21972e-05
24 *3602:B *1112:60 3.623e-05
25 *3602:C *1112:25 5.3304e-05
26 *3602:C *1112:46 0.000268074
27 *3602:C *1112:60 1.32314e-05
28 *4030:RESET_B *1112:10 9.31892e-05
29 *248:8 *1112:10 0.000140949
30 *511:82 *3597:A1 0
31 *521:24 *1112:60 0.000139352
32 *521:55 *3597:A1 7.75329e-06
33 *609:86 *3597:A1 0
34 *609:95 *3597:A1 0
35 *609:95 *3599:A1 0
36 *609:95 *1112:60 2.24608e-05
37 *609:101 *3599:A1 0
38 *661:53 *3597:A1 5.67058e-05
39 *661:83 *1112:10 0.000166513
40 *661:94 *1112:10 0.00021382
41 *1098:16 *1112:25 9.24795e-06
42 *1098:16 *1112:46 0.000148688
43 *1098:16 *1112:60 1.94812e-05
44 *1098:33 *1112:60 1.14452e-05
45 *1099:14 *3597:A1 1.01436e-05
46 *1099:14 *3599:A1 0.000377181
47 *1099:14 *1112:27 5.94125e-05
48 *1111:47 *3597:A1 0.000111158
*RES
1 *4030:Q *1112:10 45.6021 
2 *1112:10 *1112:14 15.6214 
3 *1112:14 *3598:A1 23 
4 *1112:14 *1112:25 20.7586 
5 *1112:25 *1112:27 0.849286 
6 *1112:27 *3597:A1 48.3364 
7 *1112:27 *1112:44 15 
8 *1112:44 *1112:46 3.00357 
9 *1112:46 *1112:60 35.2407 
10 *1112:60 *3600:A 23 
11 *1112:46 *3602:A 23 
12 *1112:44 *3502:A 23 
13 *1112:25 *3599:A1 43.6964 
*END

*D_NET *1113 0.00500479
*CONN
*I *3604:A I *D sky130_fd_sc_hd__nor2_2
*I *4162:A I *D sky130_fd_sc_hd__clkdlybuf4s25_1
*I *4039:Q O *D sky130_fd_sc_hd__dfrtp_2
*CAP
1 *3604:A 0
2 *4162:A 0
3 *4039:Q 0.000130844
4 *1113:27 0.000988445
5 *1113:16 0.00121771
6 *1113:8 0.000360108
7 *3604:B *1113:27 7.00074e-05
8 *3607:A *1113:27 1.66821e-05
9 *3609:B *1113:27 0
10 *3829:A1 *1113:16 0.000315857
11 *3829:A2 *1113:16 2.4754e-05
12 *4283:A *1113:16 0.000139352
13 *466:12 *1113:27 0
14 *511:88 *1113:27 0.000107213
15 *518:35 *1113:27 0
16 *526:27 *1113:27 2.25493e-05
17 *607:97 *1113:27 0
18 *661:65 *1113:16 0.000379473
19 *661:65 *1113:27 9.6103e-05
20 *662:67 *1113:16 0.000731089
21 *662:67 *1113:27 7.53384e-06
22 *885:50 *1113:8 6.7177e-06
23 *899:60 *1113:8 7.03766e-05
24 *899:68 *1113:8 0
25 *903:6 *1113:27 4.75206e-05
26 *903:78 *1113:27 0.000272458
27 *1100:34 *1113:27 0
*RES
1 *4039:Q *1113:8 40.61 
2 *1113:8 *1113:16 26.745 
3 *1113:16 *4162:A 23 
4 *1113:16 *1113:27 35.1343 
5 *1113:27 *3604:A 38 
*END

*D_NET *1114 0.00439647
*CONN
*I *3422:A2_N I *D sky130_fd_sc_hd__o2bb2a_2
*I *3425:B1 I *D sky130_fd_sc_hd__a21oi_2
*I *3426:A2 I *D sky130_fd_sc_hd__a211oi_2
*I *3424:B1 I *D sky130_fd_sc_hd__a32o_2
*I *3928:Q O *D sky130_fd_sc_hd__dfstp_2
*CAP
1 *3422:A2_N 0.000226787
2 *3425:B1 7.74988e-05
3 *3426:A2 0
4 *3424:B1 0.000108728
5 *3928:Q 0
6 *1114:36 0.000666368
7 *1114:23 0.000203713
8 *1114:15 0.000732609
9 *1114:4 0.000275542
10 *3424:B1 *3517:B 2.25927e-05
11 *3425:B1 *1116:38 2.02872e-05
12 *1114:15 *3517:B 4.9662e-05
13 *1114:15 *1116:12 9.17998e-05
14 *1114:36 *1116:12 0.000511697
15 *3424:A1 *3424:B1 2.4754e-05
16 *3424:A2 *3424:B1 9.84794e-05
17 *3426:C1 *1114:36 1.47563e-05
18 *3517:A *3424:B1 2.26823e-05
19 *3778:B1 *3422:A2_N 0.000136738
20 *105:21 *3422:A2_N 0.000163352
21 *105:21 *1114:36 0.000179487
22 *187:8 *1114:36 6.48142e-05
23 *189:8 *3422:A2_N 0
24 *422:8 *3425:B1 5.50106e-05
25 *607:12 *1114:23 0.000119818
26 *607:16 *1114:23 7.8128e-05
27 *658:114 *1114:23 0.000200422
28 *688:12 *3424:B1 0
29 *692:14 *1114:23 5.50049e-05
30 *885:28 *1114:36 0
31 *911:20 *3424:B1 1.29152e-05
32 *1096:29 *3425:B1 0.000182826
*RES
1 *3928:Q *1114:4 23 
2 *1114:4 *3424:B1 25.6514 
3 *1114:4 *1114:15 3.00357 
4 *1114:15 *1114:23 36.0486 
5 *1114:23 *3426:A2 23 
6 *1114:15 *1114:36 24.4043 
7 *1114:36 *3425:B1 40.0507 
8 *1114:36 *3422:A2_N 41.8321 
*END

*D_NET *1115 0.0015365
*CONN
*I *4194:A I *D sky130_fd_sc_hd__dlygate4sd3_1
*I *4328:A I *D sky130_fd_sc_hd__dlygate4sd3_1
*I *3929:Q O *D sky130_fd_sc_hd__dfrtp_2
*CAP
1 *4194:A 4.47995e-05
2 *4328:A 0.00014903
3 *3929:Q 0.000161556
4 *1115:8 0.000355386
5 *4328:A *1116:29 0.000216721
6 *1115:8 *1116:29 0.000139647
7 *105:8 *4194:A 1.59094e-05
8 *360:82 *1115:8 0.000106527
9 *421:8 *4328:A 0.000110116
10 *421:8 *1115:8 9.27814e-05
11 *692:14 *4328:A 9.41704e-05
12 *1096:16 *1115:8 4.98543e-05
*RES
1 *3929:Q *1115:8 42.7229 
2 *1115:8 *4328:A 42.06 
3 *1115:8 *4194:A 38.6214 
*END

*D_NET *1116 0.00623127
*CONN
*I *3421:B I *D sky130_fd_sc_hd__and2b_2
*I *3425:A2 I *D sky130_fd_sc_hd__a21oi_2
*I *3423:B I *D sky130_fd_sc_hd__nand2_2
*I *3517:B I *D sky130_fd_sc_hd__nor2_2
*I *3930:Q O *D sky130_fd_sc_hd__dfrtp_2
*CAP
1 *3421:B 0.000117901
2 *3425:A2 2.34823e-05
3 *3423:B 0
4 *3517:B 0.000564214
5 *3930:Q 0
6 *1116:38 0.000463788
7 *1116:29 0.000239274
8 *1116:12 0.00135694
9 *1116:4 0.000875856
10 *3421:A_N *3421:B 3.22879e-05
11 *3421:A_N *1116:38 2.25927e-05
12 *3424:A2 *3517:B 4.5051e-05
13 *3424:B1 *3517:B 2.25927e-05
14 *3425:B1 *1116:38 2.02872e-05
15 *3426:C1 *1116:12 0.000435924
16 *3517:A *3517:B 0.000178893
17 *4328:A *1116:29 0.000216721
18 *187:8 *1116:12 2.60152e-05
19 *360:73 *1116:29 8.62783e-05
20 *360:82 *1116:29 0.00049338
21 *421:8 *1116:29 7.45536e-05
22 *422:8 *1116:38 9.84851e-05
23 *688:12 *3517:B 0
24 *1096:29 *1116:38 4.39488e-05
25 *1114:15 *3517:B 4.9662e-05
26 *1114:15 *1116:12 9.17998e-05
27 *1114:36 *1116:12 0.000511697
28 *1115:8 *1116:29 0.000139647
*RES
1 *3930:Q *1116:4 23 
2 *1116:4 *1116:12 41.165 
3 *1116:12 *3517:B 31.1614 
4 *1116:12 *1116:29 37.8921 
5 *1116:29 *3423:B 23 
6 *1116:4 *1116:38 4.45357 
7 *1116:38 *3425:A2 23.4971 
8 *1116:38 *3421:B 25.0507 
*END

*D_NET *1117 0.000879191
*CONN
*I *4176:A I *D sky130_fd_sc_hd__dlygate4sd3_1
*I *4047:Q O *D sky130_fd_sc_hd__dfrtp_2
*CAP
1 *4176:A 0.000300059
2 *4047:Q 7.52655e-05
3 *1117:8 0.000375324
4 *4130:A *4176:A 3.26241e-05
5 *4180:A *1117:8 6.24195e-05
6 *656:8 *1117:8 2.34077e-05
7 *751:10 *1117:8 1.0092e-05
*RES
1 *4047:Q *1117:8 39.9057 
2 *1117:8 *4176:A 43.3857 
*END

*D_NET *1118 0.00233869
*CONN
*I *4184:A I *D sky130_fd_sc_hd__dlygate4sd3_1
*I *3356:A I *D sky130_fd_sc_hd__inv_2
*I *4048:Q O *D sky130_fd_sc_hd__dfrtp_2
*CAP
1 *4184:A 0.000141707
2 *3356:A 2.18824e-05
3 *4048:Q 0.000480731
4 *1118:14 0.000194526
5 *1118:10 0.000511667
6 *3554:A1 *1118:14 5.82853e-05
7 *3554:A2 *1118:14 5.58003e-05
8 *4009:RESET_B *1118:10 0
9 *4048:CLK *1118:10 2.93845e-05
10 *272:30 *1118:10 0
11 *388:6 *4184:A 0.000353317
12 *656:8 *1118:10 8.57577e-05
13 *657:19 *1118:10 0
14 *881:23 *4184:A 2.50118e-05
15 *881:23 *1118:14 4.69521e-05
16 *896:31 *4184:A 0.000257981
17 *896:31 *1118:14 7.56848e-05
*RES
1 *4048:Q *1118:10 46.1614 
2 *1118:10 *1118:14 16.5743 
3 *1118:14 *3356:A 23.4971 
4 *1118:14 *4184:A 27.4329 
*END

*D_NET *1119 0.00175489
*CONN
*I *4161:A I *D sky130_fd_sc_hd__clkdlybuf4s25_1
*I *4046:Q O *D sky130_fd_sc_hd__dfrtp_2
*CAP
1 *4161:A 0
2 *4046:Q 0.000464265
3 *1119:10 0.000464265
4 *828:42 *1119:10 0.000781497
5 *910:20 *1119:10 0
6 *1072:8 *1119:10 4.48671e-05
*RES
1 *4046:Q *1119:10 49.455 
2 *1119:10 *4161:A 38 
*END
