*SPEF "ieee 1481-1999"
*DESIGN "i2c_master_controller_top"
*DATE "16:13:17 Monday April 13, 2026"
*VENDOR "The OpenROAD Project"
*PROGRAM "OpenROAD"
*VERSION "dcf36133a369abc8f3c5e5738cd4d82e4903c0e0"
*DESIGN_FLOW "NAME_SCOPE LOCAL" "PIN_CAP NONE"
*DIVIDER /
*DELIMITER :
*BUS_DELIMITER []
*T_UNIT 1 NS
*C_UNIT 1 PF
*R_UNIT 1 OHM
*L_UNIT 1 HENRY

*NAME_MAP
*3 i_byte_cnt_reg[0]
*4 i_byte_cnt_reg[1]
*5 i_byte_cnt_reg[2]
*6 i_byte_cnt_reg[3]
*7 i_byte_cnt_reg[4]
*8 i_byte_cnt_reg[5]
*9 i_byte_cnt_reg[6]
*10 i_byte_cnt_reg[7]
*11 i_clk
*12 i_clk_div_lsb[0]
*13 i_clk_div_lsb[1]
*14 i_clk_div_lsb[2]
*15 i_clk_div_lsb[3]
*16 i_clk_div_lsb[4]
*17 i_clk_div_lsb[5]
*18 i_clk_div_lsb[6]
*19 i_clk_div_lsb[7]
*20 i_config_reg[0]
*21 i_config_reg[1]
*22 i_config_reg[2]
*23 i_config_reg[3]
*24 i_config_reg[4]
*25 i_config_reg[5]
*26 i_mode_reg[0]
*27 i_mode_reg[1]
*28 i_mode_reg[2]
*29 i_mode_reg[3]
*30 i_mode_reg[4]
*31 i_mode_reg[5]
*32 i_mode_reg[6]
*33 i_mode_reg[7]
*34 i_rst_n
*35 i_slave_addr_reg[0]
*36 i_slave_addr_reg[1]
*37 i_slave_addr_reg[2]
*38 i_slave_addr_reg[3]
*39 i_slave_addr_reg[4]
*40 i_slave_addr_reg[5]
*41 i_slave_addr_reg[6]
*42 i_transmit_data[0]
*43 i_transmit_data[1]
*44 i_transmit_data[2]
*45 i_transmit_data[3]
*46 i_transmit_data[4]
*47 i_transmit_data[5]
*48 i_transmit_data[6]
*49 i_transmit_data[7]
*50 io_scl
*51 io_sda
*52 net130
*53 net131
*54 o_cmd_status_reg[2]
*55 o_cmd_status_reg[3]
*56 o_cmd_status_reg[4]
*57 o_cmd_status_reg[5]
*58 o_cmd_status_reg[6]
*59 o_cmd_status_reg[7]
*60 o_int_n
*61 o_receive_data[0]
*62 o_receive_data[1]
*63 o_receive_data[2]
*64 o_receive_data[3]
*65 o_receive_data[4]
*66 o_receive_data[5]
*67 o_receive_data[6]
*68 o_receive_data[7]
*69 o_received_data_valid
*70 o_start_ack
*71 o_transmit_data_request
*72 _0000_
*73 _0001_
*74 _0002_
*75 _0003_
*76 _0004_
*77 _0005_
*78 _0006_
*79 _0007_
*80 _0008_
*81 _0009_
*82 _0010_
*83 _0011_
*84 _0012_
*85 _0013_
*86 _0014_
*87 _0015_
*88 _0016_
*89 _0017_
*90 _0018_
*91 _0019_
*92 _0020_
*93 _0021_
*94 _0022_
*95 _0023_
*96 _0024_
*97 _0025_
*98 _0026_
*99 _0027_
*100 _0028_
*101 _0029_
*102 _0030_
*103 _0031_
*104 _0032_
*105 _0033_
*106 _0034_
*107 _0035_
*108 _0036_
*109 _0037_
*110 _0038_
*111 _0039_
*112 _0040_
*113 _0041_
*114 _0042_
*115 _0043_
*116 _0044_
*117 _0045_
*118 _0046_
*119 _0047_
*120 _0048_
*121 _0049_
*122 _0050_
*123 _0051_
*124 _0052_
*125 _0053_
*126 _0054_
*127 _0055_
*128 _0056_
*129 _0057_
*130 _0058_
*131 _0059_
*132 _0060_
*133 _0061_
*134 _0062_
*135 _0063_
*136 _0064_
*137 _0065_
*138 _0066_
*139 _0067_
*140 _0068_
*141 _0069_
*142 _0070_
*143 _0071_
*144 _0072_
*145 _0073_
*146 _0074_
*147 _0075_
*148 _0076_
*149 _0077_
*150 _0078_
*151 _0079_
*152 _0080_
*153 _0081_
*154 _0082_
*155 _0083_
*156 _0084_
*157 _0085_
*158 _0086_
*159 _0087_
*160 _0088_
*161 _0089_
*162 _0090_
*163 _0091_
*164 _0092_
*165 _0093_
*166 _0094_
*167 _0095_
*168 _0096_
*169 _0097_
*170 _0098_
*171 _0099_
*172 _0100_
*173 _0101_
*174 _0102_
*175 _0103_
*176 _0104_
*177 _0105_
*178 _0106_
*179 _0107_
*180 _0108_
*181 _0109_
*182 _0110_
*183 _0111_
*184 _0112_
*185 _0113_
*186 _0114_
*187 _0115_
*188 _0116_
*189 _0117_
*190 _0118_
*191 _0119_
*192 _0120_
*193 _0121_
*194 _0122_
*195 _0123_
*196 _0124_
*197 _0125_
*198 _0126_
*199 _0127_
*200 _0128_
*201 _0129_
*202 _0130_
*203 _0131_
*204 _0132_
*205 _0133_
*206 _0134_
*207 _0135_
*208 _0136_
*209 _0137_
*210 _0138_
*211 _0139_
*212 _0140_
*213 _0141_
*214 _0142_
*215 _0143_
*216 _0144_
*217 _0145_
*218 _0146_
*219 _0147_
*220 _0148_
*221 _0149_
*222 _0150_
*223 _0151_
*224 _0152_
*225 _0153_
*226 _0154_
*227 _0155_
*228 _0156_
*229 _0157_
*230 _0158_
*231 _0159_
*232 _0160_
*233 _0161_
*234 _0162_
*235 _0163_
*236 _0164_
*237 _0165_
*238 _0166_
*239 _0167_
*240 _0168_
*241 _0169_
*242 _0170_
*243 _0171_
*244 _0172_
*245 _0173_
*246 _0174_
*247 _0175_
*248 _0176_
*249 _0177_
*250 _0178_
*251 _0179_
*252 _0180_
*253 _0181_
*254 _0182_
*255 _0183_
*256 _0184_
*257 _0185_
*258 _0186_
*259 _0187_
*260 _0188_
*261 _0189_
*262 _0190_
*263 _0191_
*264 _0192_
*265 _0193_
*266 _0194_
*267 _0195_
*268 _0196_
*269 _0197_
*270 _0198_
*271 _0199_
*272 _0200_
*273 _0201_
*274 _0202_
*275 _0203_
*276 _0204_
*277 _0205_
*278 _0206_
*279 _0207_
*280 _0208_
*281 _0209_
*282 _0210_
*283 _0211_
*284 _0212_
*285 _0213_
*286 _0214_
*287 _0215_
*288 _0216_
*289 _0217_
*290 _0218_
*291 _0219_
*292 _0220_
*293 _0221_
*294 _0222_
*295 _0223_
*296 _0224_
*297 _0225_
*298 _0226_
*299 _0227_
*300 _0228_
*301 _0229_
*302 _0230_
*303 _0231_
*304 _0232_
*305 _0233_
*306 _0234_
*307 _0235_
*308 _0236_
*309 _0237_
*310 _0238_
*311 _0239_
*312 _0240_
*313 _0241_
*314 _0242_
*315 _0243_
*316 _0244_
*317 _0245_
*318 _0246_
*319 _0247_
*320 _0248_
*321 _0249_
*322 _0250_
*323 _0251_
*324 _0252_
*325 _0253_
*326 _0254_
*327 _0255_
*328 _0256_
*329 _0257_
*330 _0258_
*331 _0259_
*332 _0260_
*333 _0261_
*334 _0262_
*335 _0263_
*336 _0264_
*337 _0265_
*338 _0266_
*339 _0267_
*340 _0268_
*341 _0269_
*342 _0270_
*343 _0271_
*344 _0272_
*345 _0273_
*346 _0274_
*347 _0275_
*348 _0276_
*349 _0277_
*350 _0278_
*351 _0279_
*352 _0280_
*353 _0281_
*354 _0282_
*355 _0283_
*356 _0284_
*357 _0285_
*358 _0286_
*359 _0287_
*360 _0288_
*361 _0289_
*362 _0290_
*363 _0291_
*364 _0292_
*365 _0293_
*366 _0294_
*367 _0295_
*368 _0296_
*369 _0297_
*370 _0298_
*371 _0299_
*372 _0300_
*373 _0301_
*374 _0302_
*375 _0303_
*376 _0304_
*377 _0305_
*378 _0306_
*379 _0307_
*380 _0308_
*381 _0309_
*382 _0310_
*383 _0311_
*384 _0312_
*385 _0313_
*386 _0314_
*387 _0315_
*388 _0316_
*389 _0317_
*390 _0318_
*391 _0319_
*392 _0320_
*393 _0321_
*394 _0322_
*395 _0323_
*396 _0324_
*397 _0325_
*398 _0326_
*399 _0327_
*400 _0328_
*401 _0329_
*402 _0330_
*403 _0331_
*404 _0332_
*405 _0333_
*406 _0334_
*407 _0335_
*408 _0336_
*409 _0337_
*410 _0338_
*411 _0339_
*412 _0340_
*413 _0341_
*414 _0342_
*415 _0343_
*416 _0344_
*417 _0345_
*418 _0346_
*419 _0347_
*420 _0348_
*421 _0349_
*422 _0350_
*423 _0351_
*424 _0352_
*425 _0353_
*426 _0354_
*427 _0355_
*428 _0356_
*429 _0357_
*430 _0358_
*431 _0359_
*432 _0360_
*433 _0361_
*434 _0362_
*435 _0363_
*436 _0364_
*437 _0365_
*438 _0366_
*439 _0367_
*440 _0368_
*441 _0369_
*442 _0370_
*443 _0371_
*444 _0372_
*445 _0373_
*446 _0374_
*447 _0375_
*448 _0376_
*449 _0377_
*450 _0378_
*451 _0379_
*452 _0380_
*453 _0381_
*454 _0382_
*455 _0383_
*456 _0384_
*457 _0385_
*458 _0386_
*459 _0387_
*460 _0388_
*461 _0389_
*462 _0390_
*463 _0391_
*464 _0392_
*465 _0393_
*466 _0394_
*467 _0395_
*468 _0396_
*469 _0397_
*470 _0398_
*471 _0399_
*472 _0400_
*473 _0401_
*474 _0402_
*475 _0403_
*476 _0404_
*477 _0405_
*478 _0406_
*479 _0407_
*480 _0408_
*481 _0409_
*482 _0410_
*483 _0411_
*484 _0412_
*485 _0413_
*486 _0414_
*487 _0415_
*488 _0416_
*489 _0417_
*490 _0418_
*491 _0419_
*492 _0420_
*493 _0421_
*494 _0422_
*495 _0423_
*496 _0424_
*497 _0425_
*498 _0426_
*499 _0427_
*500 _0428_
*501 _0429_
*502 _0430_
*503 _0431_
*504 _0432_
*505 _0433_
*506 _0434_
*507 _0435_
*508 _0436_
*509 _0437_
*510 _0438_
*511 _0439_
*512 _0440_
*513 _0441_
*514 _0442_
*515 _0443_
*516 _0444_
*517 _0445_
*518 _0446_
*519 _0447_
*520 _0448_
*521 _0449_
*522 _0450_
*523 _0451_
*524 _0452_
*525 _0453_
*526 _0454_
*527 _0455_
*528 _0456_
*529 _0457_
*530 _0458_
*531 _0459_
*532 _0460_
*533 _0461_
*534 _0462_
*535 _0463_
*536 _0464_
*537 _0465_
*538 _0466_
*539 _0467_
*540 _0468_
*541 _0469_
*542 _0470_
*543 _0471_
*544 _0472_
*545 _0473_
*546 _0474_
*547 _0475_
*548 _0476_
*549 _0477_
*550 _0478_
*551 _0479_
*552 _0480_
*553 _0481_
*554 _0482_
*555 _0483_
*556 _0484_
*557 _0485_
*558 _0486_
*559 _0487_
*560 _0488_
*561 _0489_
*562 _0490_
*563 _0491_
*564 _0492_
*565 _0493_
*566 _0494_
*567 _0495_
*568 _0496_
*569 _0497_
*570 _0498_
*571 _0499_
*572 _0500_
*573 _0501_
*574 _0502_
*575 _0503_
*576 _0504_
*577 _0505_
*578 _0506_
*579 _0507_
*580 _0508_
*581 _0509_
*582 _0510_
*583 _0511_
*584 _0512_
*585 _0513_
*586 _0514_
*587 _0515_
*588 _0516_
*589 _0517_
*590 _0518_
*591 _0519_
*592 _0520_
*593 _0521_
*594 _0522_
*595 _0523_
*596 _0524_
*597 _0525_
*598 _0526_
*599 _0527_
*600 _0528_
*601 _0529_
*602 _0530_
*603 clknet_0_i_clk
*604 clknet_2_0__leaf_i_clk
*605 clknet_2_1__leaf_i_clk
*606 clknet_2_2__leaf_i_clk
*607 clknet_2_3__leaf_i_clk
*608 clknet_leaf_0_i_clk
*609 clknet_leaf_10_i_clk
*610 clknet_leaf_11_i_clk
*611 clknet_leaf_12_i_clk
*612 clknet_leaf_13_i_clk
*613 clknet_leaf_14_i_clk
*614 clknet_leaf_15_i_clk
*615 clknet_leaf_16_i_clk
*616 clknet_leaf_17_i_clk
*617 clknet_leaf_18_i_clk
*618 clknet_leaf_19_i_clk
*619 clknet_leaf_1_i_clk
*620 clknet_leaf_20_i_clk
*621 clknet_leaf_2_i_clk
*622 clknet_leaf_3_i_clk
*623 clknet_leaf_4_i_clk
*624 clknet_leaf_5_i_clk
*625 clknet_leaf_6_i_clk
*626 clknet_leaf_7_i_clk
*627 clknet_leaf_8_i_clk
*628 clknet_leaf_9_i_clk
*629 net
*630 net1
*631 net10
*632 net100
*633 net101
*634 net102
*635 net103
*636 net104
*637 net105
*638 net106
*639 net107
*640 net108
*641 net109
*642 net11
*643 net110
*644 net111
*645 net112
*646 net113
*647 net114
*648 net115
*649 net116
*650 net117
*651 net118
*652 net119
*653 net12
*654 net120
*655 net121
*656 net122
*657 net123
*658 net124
*659 net125
*660 net126
*661 net127
*662 net128
*663 net129
*664 net13
*665 net132
*666 net133
*667 net134
*668 net135
*669 net136
*670 net137
*671 net138
*672 net139
*673 net14
*674 net140
*675 net141
*676 net142
*677 net143
*678 net144
*679 net145
*680 net146
*681 net147
*682 net148
*683 net149
*684 net15
*685 net150
*686 net151
*687 net152
*688 net153
*689 net154
*690 net155
*691 net156
*692 net157
*693 net158
*694 net159
*695 net16
*696 net160
*697 net161
*698 net162
*699 net163
*700 net164
*701 net165
*702 net166
*703 net167
*704 net168
*705 net169
*706 net17
*707 net170
*708 net171
*709 net172
*710 net173
*711 net174
*712 net175
*713 net176
*714 net177
*715 net178
*716 net179
*717 net18
*718 net180
*719 net181
*720 net182
*721 net183
*722 net184
*723 net185
*724 net186
*725 net187
*726 net188
*727 net189
*728 net19
*729 net190
*730 net191
*731 net192
*732 net193
*733 net194
*734 net195
*735 net196
*736 net197
*737 net198
*738 net199
*739 net2
*740 net20
*741 net200
*742 net201
*743 net202
*744 net203
*745 net204
*746 net205
*747 net206
*748 net207
*749 net208
*750 net209
*751 net21
*752 net210
*753 net211
*754 net212
*755 net213
*756 net214
*757 net215
*758 net216
*759 net217
*760 net218
*761 net219
*762 net22
*763 net220
*764 net221
*765 net222
*766 net223
*767 net224
*768 net225
*769 net226
*770 net227
*771 net228
*772 net229
*773 net23
*774 net230
*775 net231
*776 net232
*777 net233
*778 net234
*779 net235
*780 net236
*781 net237
*782 net238
*783 net239
*784 net24
*785 net240
*786 net241
*787 net242
*788 net243
*789 net244
*790 net245
*791 net246
*792 net247
*793 net248
*794 net249
*795 net25
*796 net250
*797 net251
*798 net252
*799 net253
*800 net254
*801 net255
*802 net256
*803 net257
*804 net258
*805 net259
*806 net26
*807 net260
*808 net261
*809 net262
*810 net263
*811 net264
*812 net265
*813 net266
*814 net267
*815 net268
*816 net269
*817 net27
*818 net270
*819 net271
*820 net272
*821 net273
*822 net274
*823 net275
*824 net276
*825 net277
*826 net278
*827 net279
*828 net28
*829 net280
*830 net281
*831 net282
*832 net283
*833 net284
*834 net285
*835 net286
*836 net287
*837 net288
*838 net289
*839 net29
*840 net3
*841 net30
*842 net31
*843 net32
*844 net33
*845 net34
*846 net35
*847 net36
*848 net37
*849 net38
*850 net39
*851 net4
*852 net40
*853 net41
*854 net42
*855 net43
*856 net44
*857 net45
*858 net46
*859 net47
*860 net48
*861 net49
*862 net5
*863 net50
*864 net51
*865 net52
*866 net53
*867 net54
*868 net55
*869 net56
*870 net57
*871 net58
*872 net59
*873 net6
*874 net60
*875 net61
*876 net62
*877 net63
*878 net64
*879 net65
*880 net66
*881 net67
*882 net68
*883 net69
*884 net7
*885 net70
*886 net71
*887 net72
*888 net73
*889 net74
*890 net75
*891 net76
*892 net77
*893 net78
*894 net79
*895 net8
*896 net80
*897 net81
*898 net82
*899 net83
*900 net84
*901 net85
*902 net86
*903 net87
*904 net88
*905 net89
*906 net9
*907 net90
*908 net91
*909 net92
*910 net93
*911 net94
*912 net95
*913 net96
*914 net97
*915 net98
*916 net99
*917 u_i2c_master_controller\.bps_mode\[0\]
*918 u_i2c_master_controller\.bps_mode\[1\]
*919 u_i2c_master_controller\.cntrl_fsm\.abort_ack
*920 u_i2c_master_controller\.cntrl_fsm\.abort_ack_d1
*921 u_i2c_master_controller\.cntrl_fsm\.abort_ack_reg
*922 u_i2c_master_controller\.cntrl_fsm\.abort_reg
*923 u_i2c_master_controller\.cntrl_fsm\.abort_reg1
*924 u_i2c_master_controller\.cntrl_fsm\.adr_mode
*925 u_i2c_master_controller\.cntrl_fsm\.byte_cnt\[0\]
*926 u_i2c_master_controller\.cntrl_fsm\.byte_cnt\[1\]
*927 u_i2c_master_controller\.cntrl_fsm\.byte_cnt\[2\]
*928 u_i2c_master_controller\.cntrl_fsm\.byte_cnt\[3\]
*929 u_i2c_master_controller\.cntrl_fsm\.byte_cnt\[4\]
*930 u_i2c_master_controller\.cntrl_fsm\.byte_cnt\[5\]
*931 u_i2c_master_controller\.cntrl_fsm\.byte_cnt\[6\]
*932 u_i2c_master_controller\.cntrl_fsm\.byte_cnt\[7\]
*933 u_i2c_master_controller\.cntrl_fsm\.byte_rx_done
*934 u_i2c_master_controller\.cntrl_fsm\.byte_rx_fsm\.i_i2c_master_falling_scl_detect
*935 u_i2c_master_controller\.cntrl_fsm\.byte_rx_fsm\.i_rx_en
*936 u_i2c_master_controller\.cntrl_fsm\.byte_rx_fsm\.i_transaction_complete
*937 u_i2c_master_controller\.cntrl_fsm\.byte_rx_fsm\.o_rx_ack_sda
*938 u_i2c_master_controller\.cntrl_fsm\.byte_rx_fsm\.state\[0\]
*939 u_i2c_master_controller\.cntrl_fsm\.byte_rx_fsm\.state\[1\]
*940 u_i2c_master_controller\.cntrl_fsm\.byte_rx_fsm\.state\[2\]
*941 u_i2c_master_controller\.cntrl_fsm\.byte_rx_fsm\.state\[3\]
*942 u_i2c_master_controller\.cntrl_fsm\.byte_rx_fsm\.state\[4\]
*943 u_i2c_master_controller\.cntrl_fsm\.byte_rx_fsm\.state\[5\]
*944 u_i2c_master_controller\.cntrl_fsm\.byte_rx_fsm\.state\[6\]
*945 u_i2c_master_controller\.cntrl_fsm\.byte_rx_fsm\.state\[7\]
*946 u_i2c_master_controller\.cntrl_fsm\.byte_rx_fsm\.state\[8\]
*947 u_i2c_master_controller\.cntrl_fsm\.byte_rx_fsm\.state\[9\]
*948 u_i2c_master_controller\.cntrl_fsm\.byte_tx_done
*949 u_i2c_master_controller\.cntrl_fsm\.byte_tx_err
*950 u_i2c_master_controller\.cntrl_fsm\.byte_tx_fsm\.i_tx_data\[0\]
*951 u_i2c_master_controller\.cntrl_fsm\.byte_tx_fsm\.i_tx_data\[1\]
*952 u_i2c_master_controller\.cntrl_fsm\.byte_tx_fsm\.i_tx_data\[2\]
*953 u_i2c_master_controller\.cntrl_fsm\.byte_tx_fsm\.i_tx_data\[3\]
*954 u_i2c_master_controller\.cntrl_fsm\.byte_tx_fsm\.i_tx_data\[4\]
*955 u_i2c_master_controller\.cntrl_fsm\.byte_tx_fsm\.i_tx_data\[5\]
*956 u_i2c_master_controller\.cntrl_fsm\.byte_tx_fsm\.i_tx_data\[6\]
*957 u_i2c_master_controller\.cntrl_fsm\.byte_tx_fsm\.i_tx_data\[7\]
*958 u_i2c_master_controller\.cntrl_fsm\.byte_tx_fsm\.i_tx_en
*959 u_i2c_master_controller\.cntrl_fsm\.byte_tx_fsm\.o_byte_tx_sda
*960 u_i2c_master_controller\.cntrl_fsm\.byte_tx_fsm\.state\[0\]
*961 u_i2c_master_controller\.cntrl_fsm\.byte_tx_fsm\.state\[1\]
*962 u_i2c_master_controller\.cntrl_fsm\.byte_tx_fsm\.state\[2\]
*963 u_i2c_master_controller\.cntrl_fsm\.byte_tx_fsm\.state\[3\]
*964 u_i2c_master_controller\.cntrl_fsm\.byte_tx_fsm\.state\[4\]
*965 u_i2c_master_controller\.cntrl_fsm\.byte_tx_fsm\.state\[5\]
*966 u_i2c_master_controller\.cntrl_fsm\.byte_tx_fsm\.state\[6\]
*967 u_i2c_master_controller\.cntrl_fsm\.byte_tx_fsm\.state\[7\]
*968 u_i2c_master_controller\.cntrl_fsm\.byte_tx_fsm\.state\[8\]
*969 u_i2c_master_controller\.cntrl_fsm\.byte_tx_fsm\.state\[9\]
*970 u_i2c_master_controller\.cntrl_fsm\.cntrl_fsm\.byte_count_i\[0\]
*971 u_i2c_master_controller\.cntrl_fsm\.cntrl_fsm\.byte_count_i\[1\]
*972 u_i2c_master_controller\.cntrl_fsm\.cntrl_fsm\.byte_count_i\[2\]
*973 u_i2c_master_controller\.cntrl_fsm\.cntrl_fsm\.byte_count_i\[3\]
*974 u_i2c_master_controller\.cntrl_fsm\.cntrl_fsm\.byte_count_i\[4\]
*975 u_i2c_master_controller\.cntrl_fsm\.cntrl_fsm\.byte_count_i\[5\]
*976 u_i2c_master_controller\.cntrl_fsm\.cntrl_fsm\.byte_count_i\[6\]
*977 u_i2c_master_controller\.cntrl_fsm\.cntrl_fsm\.byte_count_i\[7\]
*978 u_i2c_master_controller\.cntrl_fsm\.cntrl_fsm\.i2cbus_busy_i
*979 u_i2c_master_controller\.cntrl_fsm\.cntrl_fsm\.i_i2c_master_start_detect
*980 u_i2c_master_controller\.cntrl_fsm\.cntrl_fsm\.i_i2c_master_stop_detect
*981 u_i2c_master_controller\.cntrl_fsm\.cntrl_fsm\.i_rw_mode
*982 u_i2c_master_controller\.cntrl_fsm\.cntrl_fsm\.i_slave_addr\[1\]
*983 u_i2c_master_controller\.cntrl_fsm\.cntrl_fsm\.i_slave_addr\[2\]
*984 u_i2c_master_controller\.cntrl_fsm\.cntrl_fsm\.i_slave_addr\[3\]
*985 u_i2c_master_controller\.cntrl_fsm\.cntrl_fsm\.i_slave_addr\[4\]
*986 u_i2c_master_controller\.cntrl_fsm\.cntrl_fsm\.i_slave_addr\[5\]
*987 u_i2c_master_controller\.cntrl_fsm\.cntrl_fsm\.i_slave_addr\[6\]
*988 u_i2c_master_controller\.cntrl_fsm\.cntrl_fsm\.i_slave_addr\[7\]
*989 u_i2c_master_controller\.cntrl_fsm\.cntrl_fsm\.i_slave_changed
*990 u_i2c_master_controller\.cntrl_fsm\.cntrl_fsm\.i_start
*991 u_i2c_master_controller\.cntrl_fsm\.cntrl_fsm\.i_start_gen_ack
*992 u_i2c_master_controller\.cntrl_fsm\.cntrl_fsm\.o_config_latch_en
*993 u_i2c_master_controller\.cntrl_fsm\.cntrl_fsm\.o_enable_scl
*994 u_i2c_master_controller\.cntrl_fsm\.cntrl_fsm\.o_i2c_busy
*995 u_i2c_master_controller\.cntrl_fsm\.cntrl_fsm\.o_rx_done
*996 u_i2c_master_controller\.cntrl_fsm\.cntrl_fsm\.o_start_gen_en
*997 u_i2c_master_controller\.cntrl_fsm\.cntrl_fsm\.o_stop_gen_en
*998 u_i2c_master_controller\.cntrl_fsm\.cntrl_fsm\.o_tx_done
*999 u_i2c_master_controller\.cntrl_fsm\.cntrl_fsm\.rx_en
*1000 u_i2c_master_controller\.cntrl_fsm\.cntrl_fsm\.state\[0\]
*1001 u_i2c_master_controller\.cntrl_fsm\.cntrl_fsm\.state\[1\]
*1002 u_i2c_master_controller\.cntrl_fsm\.cntrl_fsm\.state\[2\]
*1003 u_i2c_master_controller\.cntrl_fsm\.cntrl_fsm\.state\[3\]
*1004 u_i2c_master_controller\.cntrl_fsm\.cntrl_fsm\.state\[4\]
*1005 u_i2c_master_controller\.cntrl_fsm\.cntrl_fsm\.state\[5\]
*1006 u_i2c_master_controller\.cntrl_fsm\.cntrl_fsm\.state\[6\]
*1007 u_i2c_master_controller\.cntrl_fsm\.cntrl_fsm\.state\[7\]
*1008 u_i2c_master_controller\.cntrl_fsm\.cntrl_fsm\.state\[8\]
*1009 u_i2c_master_controller\.cntrl_fsm\.cntrl_fsm\.state\[9\]
*1010 u_i2c_master_controller\.cntrl_fsm\.intr_clr_reg
*1011 u_i2c_master_controller\.cntrl_fsm\.intr_clr_reg1
*1012 u_i2c_master_controller\.cntrl_fsm\.intr_clr_reg2
*1013 u_i2c_master_controller\.cntrl_fsm\.o_int_out
*1014 u_i2c_master_controller\.cntrl_fsm\.rx_done_d1
*1015 u_i2c_master_controller\.cntrl_fsm\.rx_done_reg
*1016 u_i2c_master_controller\.cntrl_fsm\.rx_err
*1017 u_i2c_master_controller\.cntrl_fsm\.rx_err_d1
*1018 u_i2c_master_controller\.cntrl_fsm\.rx_err_reg
*1019 u_i2c_master_controller\.cntrl_fsm\.rxintr_en
*1020 u_i2c_master_controller\.cntrl_fsm\.start_reg1
*1021 u_i2c_master_controller\.cntrl_fsm\.tx_done_d1
*1022 u_i2c_master_controller\.cntrl_fsm\.tx_done_reg
*1023 u_i2c_master_controller\.cntrl_fsm\.tx_err
*1024 u_i2c_master_controller\.cntrl_fsm\.tx_err_d1
*1025 u_i2c_master_controller\.cntrl_fsm\.tx_err_reg
*1026 u_i2c_master_controller\.cntrl_fsm\.txintr_en
*1027 u_i2c_master_controller\.filter_scl\.in_d1
*1028 u_i2c_master_controller\.filter_scl\.in_d2
*1029 u_i2c_master_controller\.filter_scl\.in_d3
*1030 u_i2c_master_controller\.filter_scl\.out_n
*1031 u_i2c_master_controller\.filter_sda\.in_d1
*1032 u_i2c_master_controller\.filter_sda\.in_d2
*1033 u_i2c_master_controller\.filter_sda\.in_d3
*1034 u_i2c_master_controller\.filter_sda\.out_n
*1035 u_i2c_master_controller\.i2cbus_cntrl_fsm\.falling_scl_detect\.state\[0\]
*1036 u_i2c_master_controller\.i2cbus_cntrl_fsm\.falling_scl_detect\.state\[1\]
*1037 u_i2c_master_controller\.i2cbus_cntrl_fsm\.falling_scl_detect\.state\[2\]
*1038 u_i2c_master_controller\.i2cbus_cntrl_fsm\.i2c_master_start_sda_i
*1039 u_i2c_master_controller\.i2cbus_cntrl_fsm\.i2c_master_stop_sda_i
*1040 u_i2c_master_controller\.i2cbus_cntrl_fsm\.o_i2c_master_scl
*1041 u_i2c_master_controller\.i2cbus_cntrl_fsm\.scl_gen\.count\[0\]
*1042 u_i2c_master_controller\.i2cbus_cntrl_fsm\.scl_gen\.count\[1\]
*1043 u_i2c_master_controller\.i2cbus_cntrl_fsm\.scl_gen\.count\[2\]
*1044 u_i2c_master_controller\.i2cbus_cntrl_fsm\.scl_gen\.count\[3\]
*1045 u_i2c_master_controller\.i2cbus_cntrl_fsm\.scl_gen\.count\[4\]
*1046 u_i2c_master_controller\.i2cbus_cntrl_fsm\.scl_gen\.count\[5\]
*1047 u_i2c_master_controller\.i2cbus_cntrl_fsm\.scl_gen\.count\[6\]
*1048 u_i2c_master_controller\.i2cbus_cntrl_fsm\.scl_gen\.count\[7\]
*1049 u_i2c_master_controller\.i2cbus_cntrl_fsm\.scl_gen\.count\[8\]
*1050 u_i2c_master_controller\.i2cbus_cntrl_fsm\.scl_gen\.count_en
*1051 u_i2c_master_controller\.i2cbus_cntrl_fsm\.scl_gen\.count_eq_modby2
*1052 u_i2c_master_controller\.i2cbus_cntrl_fsm\.scl_gen\.count_reset
*1053 u_i2c_master_controller\.i2cbus_cntrl_fsm\.scl_gen\.modulus\[0\]
*1054 u_i2c_master_controller\.i2cbus_cntrl_fsm\.scl_gen\.modulus\[1\]
*1055 u_i2c_master_controller\.i2cbus_cntrl_fsm\.scl_gen\.modulus\[2\]
*1056 u_i2c_master_controller\.i2cbus_cntrl_fsm\.scl_gen\.modulus\[3\]
*1057 u_i2c_master_controller\.i2cbus_cntrl_fsm\.scl_gen\.modulus\[4\]
*1058 u_i2c_master_controller\.i2cbus_cntrl_fsm\.scl_gen\.modulus\[5\]
*1059 u_i2c_master_controller\.i2cbus_cntrl_fsm\.scl_gen\.modulus\[6\]
*1060 u_i2c_master_controller\.i2cbus_cntrl_fsm\.scl_gen\.modulus\[7\]
*1061 u_i2c_master_controller\.i2cbus_cntrl_fsm\.scl_gen\.modulus\[8\]
*1062 u_i2c_master_controller\.i2cbus_cntrl_fsm\.scl_gen\.state\[0\]
*1063 u_i2c_master_controller\.i2cbus_cntrl_fsm\.scl_gen\.state\[1\]
*1064 u_i2c_master_controller\.i2cbus_cntrl_fsm\.scl_gen\.state\[2\]
*1065 u_i2c_master_controller\.i2cbus_cntrl_fsm\.scl_gen\.state\[3\]
*1066 u_i2c_master_controller\.i2cbus_cntrl_fsm\.start_detect\.state
*1067 u_i2c_master_controller\.i2cbus_cntrl_fsm\.start_detect\.state_next
*1068 u_i2c_master_controller\.i2cbus_cntrl_fsm\.start_gen\.count_threshold\[4\]
*1069 u_i2c_master_controller\.i2cbus_cntrl_fsm\.start_gen\.count_threshold\[6\]
*1070 u_i2c_master_controller\.i2cbus_cntrl_fsm\.start_gen\.delay_done
*1071 u_i2c_master_controller\.i2cbus_cntrl_fsm\.start_gen\.delay_gen\.count\[0\]
*1072 u_i2c_master_controller\.i2cbus_cntrl_fsm\.start_gen\.delay_gen\.count\[10\]
*1073 u_i2c_master_controller\.i2cbus_cntrl_fsm\.start_gen\.delay_gen\.count\[11\]
*1074 u_i2c_master_controller\.i2cbus_cntrl_fsm\.start_gen\.delay_gen\.count\[12\]
*1075 u_i2c_master_controller\.i2cbus_cntrl_fsm\.start_gen\.delay_gen\.count\[13\]
*1076 u_i2c_master_controller\.i2cbus_cntrl_fsm\.start_gen\.delay_gen\.count\[14\]
*1077 u_i2c_master_controller\.i2cbus_cntrl_fsm\.start_gen\.delay_gen\.count\[15\]
*1078 u_i2c_master_controller\.i2cbus_cntrl_fsm\.start_gen\.delay_gen\.count\[1\]
*1079 u_i2c_master_controller\.i2cbus_cntrl_fsm\.start_gen\.delay_gen\.count\[2\]
*1080 u_i2c_master_controller\.i2cbus_cntrl_fsm\.start_gen\.delay_gen\.count\[3\]
*1081 u_i2c_master_controller\.i2cbus_cntrl_fsm\.start_gen\.delay_gen\.count\[4\]
*1082 u_i2c_master_controller\.i2cbus_cntrl_fsm\.start_gen\.delay_gen\.count\[5\]
*1083 u_i2c_master_controller\.i2cbus_cntrl_fsm\.start_gen\.delay_gen\.count\[6\]
*1084 u_i2c_master_controller\.i2cbus_cntrl_fsm\.start_gen\.delay_gen\.count\[7\]
*1085 u_i2c_master_controller\.i2cbus_cntrl_fsm\.start_gen\.delay_gen\.count\[8\]
*1086 u_i2c_master_controller\.i2cbus_cntrl_fsm\.start_gen\.delay_gen\.count\[9\]
*1087 u_i2c_master_controller\.i2cbus_cntrl_fsm\.start_gen\.delay_gen\.start_delay
*1088 u_i2c_master_controller\.i2cbus_cntrl_fsm\.start_gen\.state\[0\]
*1089 u_i2c_master_controller\.i2cbus_cntrl_fsm\.start_gen\.state\[1\]
*1090 u_i2c_master_controller\.i2cbus_cntrl_fsm\.start_gen\.state\[2\]
*1091 u_i2c_master_controller\.i2cbus_cntrl_fsm\.start_gen\.state\[3\]
*1092 u_i2c_master_controller\.i2cbus_cntrl_fsm\.start_gen\.state\[4\]
*1093 u_i2c_master_controller\.i2cbus_cntrl_fsm\.start_gen\.state\[5\]
*1094 u_i2c_master_controller\.i2cbus_cntrl_fsm\.start_gen\.state\[6\]
*1095 u_i2c_master_controller\.i2cbus_cntrl_fsm\.stop_detect\.state
*1096 u_i2c_master_controller\.i2cbus_cntrl_fsm\.stop_gen\.delay_done
*1097 u_i2c_master_controller\.i2cbus_cntrl_fsm\.stop_gen\.delay_gen\.count\[0\]
*1098 u_i2c_master_controller\.i2cbus_cntrl_fsm\.stop_gen\.delay_gen\.count\[10\]
*1099 u_i2c_master_controller\.i2cbus_cntrl_fsm\.stop_gen\.delay_gen\.count\[11\]
*1100 u_i2c_master_controller\.i2cbus_cntrl_fsm\.stop_gen\.delay_gen\.count\[12\]
*1101 u_i2c_master_controller\.i2cbus_cntrl_fsm\.stop_gen\.delay_gen\.count\[13\]
*1102 u_i2c_master_controller\.i2cbus_cntrl_fsm\.stop_gen\.delay_gen\.count\[14\]
*1103 u_i2c_master_controller\.i2cbus_cntrl_fsm\.stop_gen\.delay_gen\.count\[15\]
*1104 u_i2c_master_controller\.i2cbus_cntrl_fsm\.stop_gen\.delay_gen\.count\[1\]
*1105 u_i2c_master_controller\.i2cbus_cntrl_fsm\.stop_gen\.delay_gen\.count\[2\]
*1106 u_i2c_master_controller\.i2cbus_cntrl_fsm\.stop_gen\.delay_gen\.count\[3\]
*1107 u_i2c_master_controller\.i2cbus_cntrl_fsm\.stop_gen\.delay_gen\.count\[4\]
*1108 u_i2c_master_controller\.i2cbus_cntrl_fsm\.stop_gen\.delay_gen\.count\[5\]
*1109 u_i2c_master_controller\.i2cbus_cntrl_fsm\.stop_gen\.delay_gen\.count\[6\]
*1110 u_i2c_master_controller\.i2cbus_cntrl_fsm\.stop_gen\.delay_gen\.count\[7\]
*1111 u_i2c_master_controller\.i2cbus_cntrl_fsm\.stop_gen\.delay_gen\.count\[8\]
*1112 u_i2c_master_controller\.i2cbus_cntrl_fsm\.stop_gen\.delay_gen\.count\[9\]
*1113 u_i2c_master_controller\.i2cbus_cntrl_fsm\.stop_gen\.delay_gen\.start_delay
*1114 u_i2c_master_controller\.i2cbus_cntrl_fsm\.stop_gen\.state\[0\]
*1115 u_i2c_master_controller\.i2cbus_cntrl_fsm\.stop_gen\.state\[1\]
*1116 u_i2c_master_controller\.i2cbus_cntrl_fsm\.stop_gen\.state\[2\]
*1117 u_i2c_master_controller\.soft_reset_d1
*1118 u_i2c_master_controller\.soft_reset_d2
*1119 u_i2c_master_controller\.soft_reset_d3
*1120 FILLER_0_113
*1121 FILLER_0_131
*1122 FILLER_0_141
*1123 FILLER_0_144
*1124 FILLER_0_166
*1125 FILLER_0_185
*1126 FILLER_0_221
*1127 FILLER_0_249
*1128 FILLER_0_253
*1129 FILLER_0_26
*1130 FILLER_0_276
*1131 FILLER_0_279
*1132 FILLER_0_29
*1133 FILLER_0_297
*1134 FILLER_0_3
*1135 FILLER_0_300
*1136 FILLER_0_303
*1137 FILLER_0_306
*1138 FILLER_0_57
*1139 FILLER_0_6
*1140 FILLER_0_60
*1141 FILLER_0_63
*1142 FILLER_0_81
*1143 FILLER_0_85
*1144 FILLER_10_105
*1145 FILLER_10_108
*1146 FILLER_10_111
*1147 FILLER_10_114
*1148 FILLER_10_117
*1149 FILLER_10_12
*1150 FILLER_10_132
*1151 FILLER_10_147
*1152 FILLER_10_15
*1153 FILLER_10_156
*1154 FILLER_10_18
*1155 FILLER_10_180
*1156 FILLER_10_183
*1157 FILLER_10_193
*1158 FILLER_10_21
*1159 FILLER_10_239
*1160 FILLER_10_24
*1161 FILLER_10_247
*1162 FILLER_10_250
*1163 FILLER_10_260
*1164 FILLER_10_263
*1165 FILLER_10_266
*1166 FILLER_10_27
*1167 FILLER_10_29
*1168 FILLER_10_3
*1169 FILLER_10_305
*1170 FILLER_10_6
*1171 FILLER_10_72
*1172 FILLER_10_75
*1173 FILLER_10_78
*1174 FILLER_10_81
*1175 FILLER_10_9
*1176 FILLER_10_94
*1177 FILLER_11_100
*1178 FILLER_11_103
*1179 FILLER_11_106
*1180 FILLER_11_109
*1181 FILLER_11_11
*1182 FILLER_11_113
*1183 FILLER_11_116
*1184 FILLER_11_147
*1185 FILLER_11_150
*1186 FILLER_11_153
*1187 FILLER_11_156
*1188 FILLER_11_159
*1189 FILLER_11_169
*1190 FILLER_11_172
*1191 FILLER_11_175
*1192 FILLER_11_193
*1193 FILLER_11_196
*1194 FILLER_11_220
*1195 FILLER_11_223
*1196 FILLER_11_225
*1197 FILLER_11_228
*1198 FILLER_11_259
*1199 FILLER_11_262
*1200 FILLER_11_265
*1201 FILLER_11_268
*1202 FILLER_11_271
*1203 FILLER_11_305
*1204 FILLER_11_74
*1205 FILLER_11_97
*1206 FILLER_12_115
*1207 FILLER_12_139
*1208 FILLER_12_144
*1209 FILLER_12_147
*1210 FILLER_12_150
*1211 FILLER_12_174
*1212 FILLER_12_177
*1213 FILLER_12_18
*1214 FILLER_12_204
*1215 FILLER_12_207
*1216 FILLER_12_217
*1217 FILLER_12_220
*1218 FILLER_12_223
*1219 FILLER_12_226
*1220 FILLER_12_229
*1221 FILLER_12_253
*1222 FILLER_12_256
*1223 FILLER_12_259
*1224 FILLER_12_262
*1225 FILLER_12_265
*1226 FILLER_12_268
*1227 FILLER_12_27
*1228 FILLER_12_271
*1229 FILLER_12_3
*1230 FILLER_12_302
*1231 FILLER_12_305
*1232 FILLER_12_6
*1233 FILLER_12_69
*1234 FILLER_12_72
*1235 FILLER_12_85
*1236 FILLER_13_106
*1237 FILLER_13_109
*1238 FILLER_13_125
*1239 FILLER_13_128
*1240 FILLER_13_131
*1241 FILLER_13_141
*1242 FILLER_13_144
*1243 FILLER_13_147
*1244 FILLER_13_164
*1245 FILLER_13_167
*1246 FILLER_13_169
*1247 FILLER_13_172
*1248 FILLER_13_175
*1249 FILLER_13_225
*1250 FILLER_13_228
*1251 FILLER_13_231
*1252 FILLER_13_234
*1253 FILLER_13_256
*1254 FILLER_13_259
*1255 FILLER_13_262
*1256 FILLER_13_265
*1257 FILLER_13_268
*1258 FILLER_13_275
*1259 FILLER_13_278
*1260 FILLER_13_28
*1261 FILLER_13_289
*1262 FILLER_13_292
*1263 FILLER_13_3
*1264 FILLER_13_300
*1265 FILLER_13_303
*1266 FILLER_13_306
*1267 FILLER_13_31
*1268 FILLER_13_34
*1269 FILLER_13_57
*1270 FILLER_13_6
*1271 FILLER_13_60
*1272 FILLER_13_63
*1273 FILLER_14_158
*1274 FILLER_14_161
*1275 FILLER_14_164
*1276 FILLER_14_167
*1277 FILLER_14_170
*1278 FILLER_14_173
*1279 FILLER_14_176
*1280 FILLER_14_197
*1281 FILLER_14_219
*1282 FILLER_14_222
*1283 FILLER_14_225
*1284 FILLER_14_228
*1285 FILLER_14_231
*1286 FILLER_14_234
*1287 FILLER_14_253
*1288 FILLER_14_26
*1289 FILLER_14_265
*1290 FILLER_14_268
*1291 FILLER_14_271
*1292 FILLER_14_274
*1293 FILLER_14_3
*1294 FILLER_14_304
*1295 FILLER_14_307
*1296 FILLER_14_46
*1297 FILLER_14_49
*1298 FILLER_14_52
*1299 FILLER_14_62
*1300 FILLER_14_65
*1301 FILLER_14_85
*1302 FILLER_14_88
*1303 FILLER_15_100
*1304 FILLER_15_148
*1305 FILLER_15_157
*1306 FILLER_15_165
*1307 FILLER_15_169
*1308 FILLER_15_172
*1309 FILLER_15_187
*1310 FILLER_15_214
*1311 FILLER_15_225
*1312 FILLER_15_228
*1313 FILLER_15_251
*1314 FILLER_15_259
*1315 FILLER_15_274
*1316 FILLER_15_277
*1317 FILLER_15_288
*1318 FILLER_15_291
*1319 FILLER_15_294
*1320 FILLER_15_297
*1321 FILLER_15_3
*1322 FILLER_15_300
*1323 FILLER_15_303
*1324 FILLER_15_306
*1325 FILLER_15_39
*1326 FILLER_15_42
*1327 FILLER_15_45
*1328 FILLER_15_48
*1329 FILLER_15_51
*1330 FILLER_15_54
*1331 FILLER_15_57
*1332 FILLER_15_6
*1333 FILLER_15_60
*1334 FILLER_15_63
*1335 FILLER_15_66
*1336 FILLER_15_9
*1337 FILLER_15_97
*1338 FILLER_16_100
*1339 FILLER_16_103
*1340 FILLER_16_138
*1341 FILLER_16_149
*1342 FILLER_16_197
*1343 FILLER_16_200
*1344 FILLER_16_230
*1345 FILLER_16_264
*1346 FILLER_16_267
*1347 FILLER_16_270
*1348 FILLER_16_280
*1349 FILLER_16_283
*1350 FILLER_16_286
*1351 FILLER_16_289
*1352 FILLER_16_29
*1353 FILLER_16_299
*1354 FILLER_16_3
*1355 FILLER_16_302
*1356 FILLER_16_305
*1357 FILLER_16_32
*1358 FILLER_16_35
*1359 FILLER_16_49
*1360 FILLER_16_52
*1361 FILLER_16_55
*1362 FILLER_16_58
*1363 FILLER_16_6
*1364 FILLER_16_61
*1365 FILLER_16_64
*1366 FILLER_16_67
*1367 FILLER_16_70
*1368 FILLER_16_85
*1369 FILLER_16_88
*1370 FILLER_16_91
*1371 FILLER_16_94
*1372 FILLER_16_97
*1373 FILLER_17_113
*1374 FILLER_17_169
*1375 FILLER_17_199
*1376 FILLER_17_202
*1377 FILLER_17_21
*1378 FILLER_17_222
*1379 FILLER_17_225
*1380 FILLER_17_228
*1381 FILLER_17_231
*1382 FILLER_17_234
*1383 FILLER_17_237
*1384 FILLER_17_240
*1385 FILLER_17_243
*1386 FILLER_17_251
*1387 FILLER_17_254
*1388 FILLER_17_257
*1389 FILLER_17_260
*1390 FILLER_17_263
*1391 FILLER_17_266
*1392 FILLER_17_269
*1393 FILLER_17_277
*1394 FILLER_17_281
*1395 FILLER_17_284
*1396 FILLER_17_287
*1397 FILLER_17_290
*1398 FILLER_17_3
*1399 FILLER_17_300
*1400 FILLER_17_303
*1401 FILLER_17_306
*1402 FILLER_17_35
*1403 FILLER_17_51
*1404 FILLER_17_54
*1405 FILLER_17_57
*1406 FILLER_17_60
*1407 FILLER_17_63
*1408 FILLER_17_82
*1409 FILLER_17_85
*1410 FILLER_17_88
*1411 FILLER_17_91
*1412 FILLER_17_94
*1413 FILLER_17_97
*1414 FILLER_18_11
*1415 FILLER_18_110
*1416 FILLER_18_184
*1417 FILLER_18_193
*1418 FILLER_18_205
*1419 FILLER_18_208
*1420 FILLER_18_211
*1421 FILLER_18_214
*1422 FILLER_18_217
*1423 FILLER_18_220
*1424 FILLER_18_223
*1425 FILLER_18_226
*1426 FILLER_18_229
*1427 FILLER_18_232
*1428 FILLER_18_235
*1429 FILLER_18_238
*1430 FILLER_18_253
*1431 FILLER_18_256
*1432 FILLER_18_259
*1433 FILLER_18_262
*1434 FILLER_18_265
*1435 FILLER_18_268
*1436 FILLER_18_27
*1437 FILLER_18_29
*1438 FILLER_18_306
*1439 FILLER_18_52
*1440 FILLER_18_55
*1441 FILLER_18_85
*1442 FILLER_18_88
*1443 FILLER_19_113
*1444 FILLER_19_133
*1445 FILLER_19_136
*1446 FILLER_19_139
*1447 FILLER_19_164
*1448 FILLER_19_167
*1449 FILLER_19_169
*1450 FILLER_19_172
*1451 FILLER_19_182
*1452 FILLER_19_185
*1453 FILLER_19_188
*1454 FILLER_19_19
*1455 FILLER_19_191
*1456 FILLER_19_194
*1457 FILLER_19_22
*1458 FILLER_19_223
*1459 FILLER_19_225
*1460 FILLER_19_228
*1461 FILLER_19_231
*1462 FILLER_19_247
*1463 FILLER_19_250
*1464 FILLER_19_263
*1465 FILLER_19_266
*1466 FILLER_19_269
*1467 FILLER_19_272
*1468 FILLER_19_275
*1469 FILLER_19_302
*1470 FILLER_19_305
*1471 FILLER_19_51
*1472 FILLER_19_54
*1473 FILLER_1_111
*1474 FILLER_1_113
*1475 FILLER_1_123
*1476 FILLER_1_132
*1477 FILLER_1_135
*1478 FILLER_1_166
*1479 FILLER_1_169
*1480 FILLER_1_204
*1481 FILLER_1_214
*1482 FILLER_1_246
*1483 FILLER_1_276
*1484 FILLER_1_279
*1485 FILLER_1_297
*1486 FILLER_1_3
*1487 FILLER_1_300
*1488 FILLER_1_303
*1489 FILLER_1_306
*1490 FILLER_1_35
*1491 FILLER_1_38
*1492 FILLER_1_66
*1493 FILLER_1_88
*1494 FILLER_1_91
*1495 FILLER_20_100
*1496 FILLER_20_103
*1497 FILLER_20_11
*1498 FILLER_20_134
*1499 FILLER_20_14
*1500 FILLER_20_141
*1501 FILLER_20_187
*1502 FILLER_20_223
*1503 FILLER_20_261
*1504 FILLER_20_264
*1505 FILLER_20_267
*1506 FILLER_20_270
*1507 FILLER_20_289
*1508 FILLER_20_29
*1509 FILLER_20_292
*1510 FILLER_20_295
*1511 FILLER_20_298
*1512 FILLER_20_36
*1513 FILLER_20_53
*1514 FILLER_20_85
*1515 FILLER_21_100
*1516 FILLER_21_139
*1517 FILLER_21_169
*1518 FILLER_21_177
*1519 FILLER_21_180
*1520 FILLER_21_189
*1521 FILLER_21_211
*1522 FILLER_21_214
*1523 FILLER_21_225
*1524 FILLER_21_272
*1525 FILLER_21_292
*1526 FILLER_21_3
*1527 FILLER_21_300
*1528 FILLER_21_303
*1529 FILLER_21_306
*1530 FILLER_21_33
*1531 FILLER_21_55
*1532 FILLER_21_57
*1533 FILLER_21_6
*1534 FILLER_21_60
*1535 FILLER_21_68
*1536 FILLER_21_83
*1537 FILLER_21_94
*1538 FILLER_21_97
*1539 FILLER_22_134
*1540 FILLER_22_137
*1541 FILLER_22_141
*1542 FILLER_22_151
*1543 FILLER_22_189
*1544 FILLER_22_192
*1545 FILLER_22_195
*1546 FILLER_22_197
*1547 FILLER_22_200
*1548 FILLER_22_232
*1549 FILLER_22_249
*1550 FILLER_22_261
*1551 FILLER_22_264
*1552 FILLER_22_27
*1553 FILLER_22_3
*1554 FILLER_22_303
*1555 FILLER_22_306
*1556 FILLER_22_50
*1557 FILLER_22_53
*1558 FILLER_22_56
*1559 FILLER_22_68
*1560 FILLER_22_71
*1561 FILLER_22_81
*1562 FILLER_22_85
*1563 FILLER_22_88
*1564 FILLER_22_91
*1565 FILLER_23_100
*1566 FILLER_23_103
*1567 FILLER_23_106
*1568 FILLER_23_109
*1569 FILLER_23_121
*1570 FILLER_23_124
*1571 FILLER_23_127
*1572 FILLER_23_130
*1573 FILLER_23_133
*1574 FILLER_23_164
*1575 FILLER_23_167
*1576 FILLER_23_198
*1577 FILLER_23_208
*1578 FILLER_23_211
*1579 FILLER_23_214
*1580 FILLER_23_217
*1581 FILLER_23_220
*1582 FILLER_23_223
*1583 FILLER_23_225
*1584 FILLER_23_228
*1585 FILLER_23_231
*1586 FILLER_23_234
*1587 FILLER_23_237
*1588 FILLER_23_240
*1589 FILLER_23_243
*1590 FILLER_23_252
*1591 FILLER_23_255
*1592 FILLER_23_265
*1593 FILLER_23_268
*1594 FILLER_23_27
*1595 FILLER_23_276
*1596 FILLER_23_292
*1597 FILLER_23_300
*1598 FILLER_23_303
*1599 FILLER_23_306
*1600 FILLER_23_37
*1601 FILLER_23_46
*1602 FILLER_23_49
*1603 FILLER_23_52
*1604 FILLER_23_55
*1605 FILLER_23_57
*1606 FILLER_23_60
*1607 FILLER_23_82
*1608 FILLER_23_85
*1609 FILLER_23_88
*1610 FILLER_23_91
*1611 FILLER_23_94
*1612 FILLER_23_97
*1613 FILLER_24_100
*1614 FILLER_24_108
*1615 FILLER_24_111
*1616 FILLER_24_114
*1617 FILLER_24_117
*1618 FILLER_24_120
*1619 FILLER_24_123
*1620 FILLER_24_126
*1621 FILLER_24_129
*1622 FILLER_24_132
*1623 FILLER_24_135
*1624 FILLER_24_146
*1625 FILLER_24_176
*1626 FILLER_24_179
*1627 FILLER_24_182
*1628 FILLER_24_185
*1629 FILLER_24_188
*1630 FILLER_24_200
*1631 FILLER_24_219
*1632 FILLER_24_222
*1633 FILLER_24_225
*1634 FILLER_24_228
*1635 FILLER_24_231
*1636 FILLER_24_234
*1637 FILLER_24_237
*1638 FILLER_24_251
*1639 FILLER_24_261
*1640 FILLER_24_264
*1641 FILLER_24_267
*1642 FILLER_24_27
*1643 FILLER_24_270
*1644 FILLER_24_273
*1645 FILLER_24_276
*1646 FILLER_24_279
*1647 FILLER_24_29
*1648 FILLER_24_302
*1649 FILLER_24_305
*1650 FILLER_24_32
*1651 FILLER_24_35
*1652 FILLER_24_42
*1653 FILLER_24_45
*1654 FILLER_24_48
*1655 FILLER_24_51
*1656 FILLER_24_54
*1657 FILLER_24_57
*1658 FILLER_24_81
*1659 FILLER_24_85
*1660 FILLER_24_88
*1661 FILLER_24_91
*1662 FILLER_24_94
*1663 FILLER_24_97
*1664 FILLER_25_121
*1665 FILLER_25_124
*1666 FILLER_25_127
*1667 FILLER_25_157
*1668 FILLER_25_167
*1669 FILLER_25_175
*1670 FILLER_25_178
*1671 FILLER_25_18
*1672 FILLER_25_181
*1673 FILLER_25_184
*1674 FILLER_25_187
*1675 FILLER_25_216
*1676 FILLER_25_225
*1677 FILLER_25_228
*1678 FILLER_25_231
*1679 FILLER_25_262
*1680 FILLER_25_265
*1681 FILLER_25_281
*1682 FILLER_25_284
*1683 FILLER_25_292
*1684 FILLER_25_295
*1685 FILLER_25_298
*1686 FILLER_25_3
*1687 FILLER_25_301
*1688 FILLER_25_304
*1689 FILLER_25_307
*1690 FILLER_25_34
*1691 FILLER_25_57
*1692 FILLER_25_6
*1693 FILLER_25_60
*1694 FILLER_26_130
*1695 FILLER_26_141
*1696 FILLER_26_158
*1697 FILLER_26_168
*1698 FILLER_26_195
*1699 FILLER_26_197
*1700 FILLER_26_227
*1701 FILLER_26_230
*1702 FILLER_26_26
*1703 FILLER_26_260
*1704 FILLER_26_263
*1705 FILLER_26_266
*1706 FILLER_26_269
*1707 FILLER_26_272
*1708 FILLER_26_275
*1709 FILLER_26_278
*1710 FILLER_26_29
*1711 FILLER_26_292
*1712 FILLER_26_295
*1713 FILLER_26_298
*1714 FILLER_26_3
*1715 FILLER_26_32
*1716 FILLER_26_61
*1717 FILLER_26_64
*1718 FILLER_26_83
*1719 FILLER_26_85
*1720 FILLER_26_96
*1721 FILLER_26_99
*1722 FILLER_27_106
*1723 FILLER_27_109
*1724 FILLER_27_113
*1725 FILLER_27_166
*1726 FILLER_27_169
*1727 FILLER_27_172
*1728 FILLER_27_175
*1729 FILLER_27_184
*1730 FILLER_27_193
*1731 FILLER_27_222
*1732 FILLER_27_225
*1733 FILLER_27_228
*1734 FILLER_27_237
*1735 FILLER_27_240
*1736 FILLER_27_254
*1737 FILLER_27_257
*1738 FILLER_27_260
*1739 FILLER_27_263
*1740 FILLER_27_281
*1741 FILLER_27_3
*1742 FILLER_27_301
*1743 FILLER_27_304
*1744 FILLER_27_307
*1745 FILLER_27_46
*1746 FILLER_27_49
*1747 FILLER_27_52
*1748 FILLER_27_55
*1749 FILLER_27_57
*1750 FILLER_27_60
*1751 FILLER_27_78
*1752 FILLER_28_107
*1753 FILLER_28_110
*1754 FILLER_28_141
*1755 FILLER_28_193
*1756 FILLER_28_239
*1757 FILLER_28_242
*1758 FILLER_28_245
*1759 FILLER_28_248
*1760 FILLER_28_251
*1761 FILLER_28_253
*1762 FILLER_28_256
*1763 FILLER_28_259
*1764 FILLER_28_3
*1765 FILLER_28_303
*1766 FILLER_28_306
*1767 FILLER_28_55
*1768 FILLER_28_58
*1769 FILLER_28_6
*1770 FILLER_28_85
*1771 FILLER_28_97
*1772 FILLER_29_102
*1773 FILLER_29_111
*1774 FILLER_29_113
*1775 FILLER_29_116
*1776 FILLER_29_119
*1777 FILLER_29_164
*1778 FILLER_29_167
*1779 FILLER_29_169
*1780 FILLER_29_177
*1781 FILLER_29_19
*1782 FILLER_29_210
*1783 FILLER_29_213
*1784 FILLER_29_22
*1785 FILLER_29_221
*1786 FILLER_29_225
*1787 FILLER_29_228
*1788 FILLER_29_231
*1789 FILLER_29_240
*1790 FILLER_29_243
*1791 FILLER_29_246
*1792 FILLER_29_249
*1793 FILLER_29_252
*1794 FILLER_29_255
*1795 FILLER_29_258
*1796 FILLER_29_261
*1797 FILLER_29_281
*1798 FILLER_29_3
*1799 FILLER_29_54
*1800 FILLER_29_57
*1801 FILLER_29_6
*1802 FILLER_29_9
*1803 FILLER_2_130
*1804 FILLER_2_141
*1805 FILLER_2_144
*1806 FILLER_2_147
*1807 FILLER_2_157
*1808 FILLER_2_160
*1809 FILLER_2_194
*1810 FILLER_2_251
*1811 FILLER_2_3
*1812 FILLER_2_300
*1813 FILLER_2_303
*1814 FILLER_2_38
*1815 FILLER_2_41
*1816 FILLER_2_6
*1817 FILLER_2_85
*1818 FILLER_30_100
*1819 FILLER_30_103
*1820 FILLER_30_106
*1821 FILLER_30_109
*1822 FILLER_30_112
*1823 FILLER_30_139
*1824 FILLER_30_160
*1825 FILLER_30_163
*1826 FILLER_30_166
*1827 FILLER_30_169
*1828 FILLER_30_172
*1829 FILLER_30_175
*1830 FILLER_30_178
*1831 FILLER_30_189
*1832 FILLER_30_197
*1833 FILLER_30_200
*1834 FILLER_30_222
*1835 FILLER_30_225
*1836 FILLER_30_228
*1837 FILLER_30_231
*1838 FILLER_30_239
*1839 FILLER_30_247
*1840 FILLER_30_250
*1841 FILLER_30_253
*1842 FILLER_30_256
*1843 FILLER_30_259
*1844 FILLER_30_26
*1845 FILLER_30_276
*1846 FILLER_30_3
*1847 FILLER_30_40
*1848 FILLER_30_51
*1849 FILLER_30_54
*1850 FILLER_30_6
*1851 FILLER_30_80
*1852 FILLER_30_85
*1853 FILLER_30_97
*1854 FILLER_31_100
*1855 FILLER_31_103
*1856 FILLER_31_134
*1857 FILLER_31_137
*1858 FILLER_31_160
*1859 FILLER_31_169
*1860 FILLER_31_172
*1861 FILLER_31_175
*1862 FILLER_31_178
*1863 FILLER_31_181
*1864 FILLER_31_184
*1865 FILLER_31_187
*1866 FILLER_31_215
*1867 FILLER_31_218
*1868 FILLER_31_221
*1869 FILLER_31_246
*1870 FILLER_31_249
*1871 FILLER_31_252
*1872 FILLER_31_255
*1873 FILLER_31_258
*1874 FILLER_31_261
*1875 FILLER_31_264
*1876 FILLER_31_275
*1877 FILLER_31_278
*1878 FILLER_31_289
*1879 FILLER_31_3
*1880 FILLER_31_301
*1881 FILLER_31_304
*1882 FILLER_31_307
*1883 FILLER_31_32
*1884 FILLER_31_55
*1885 FILLER_31_57
*1886 FILLER_31_6
*1887 FILLER_31_60
*1888 FILLER_31_91
*1889 FILLER_31_94
*1890 FILLER_31_97
*1891 FILLER_32_134
*1892 FILLER_32_162
*1893 FILLER_32_171
*1894 FILLER_32_174
*1895 FILLER_32_177
*1896 FILLER_32_180
*1897 FILLER_32_197
*1898 FILLER_32_219
*1899 FILLER_32_222
*1900 FILLER_32_248
*1901 FILLER_32_251
*1902 FILLER_32_253
*1903 FILLER_32_256
*1904 FILLER_32_259
*1905 FILLER_32_262
*1906 FILLER_32_294
*1907 FILLER_32_3
*1908 FILLER_32_304
*1909 FILLER_32_307
*1910 FILLER_32_37
*1911 FILLER_32_40
*1912 FILLER_32_49
*1913 FILLER_32_59
*1914 FILLER_32_62
*1915 FILLER_32_70
*1916 FILLER_32_93
*1917 FILLER_32_96
*1918 FILLER_33_128
*1919 FILLER_33_131
*1920 FILLER_33_177
*1921 FILLER_33_221
*1922 FILLER_33_24
*1923 FILLER_33_253
*1924 FILLER_33_256
*1925 FILLER_33_259
*1926 FILLER_33_262
*1927 FILLER_33_275
*1928 FILLER_33_289
*1929 FILLER_33_292
*1930 FILLER_33_3
*1931 FILLER_33_48
*1932 FILLER_33_51
*1933 FILLER_33_54
*1934 FILLER_33_57
*1935 FILLER_33_60
*1936 FILLER_33_69
*1937 FILLER_34_100
*1938 FILLER_34_132
*1939 FILLER_34_141
*1940 FILLER_34_171
*1941 FILLER_34_195
*1942 FILLER_34_197
*1943 FILLER_34_226
*1944 FILLER_34_24
*1945 FILLER_34_251
*1946 FILLER_34_253
*1947 FILLER_34_256
*1948 FILLER_34_259
*1949 FILLER_34_262
*1950 FILLER_34_27
*1951 FILLER_34_280
*1952 FILLER_34_29
*1953 FILLER_34_290
*1954 FILLER_34_3
*1955 FILLER_34_53
*1956 FILLER_34_6
*1957 FILLER_34_69
*1958 FILLER_34_72
*1959 FILLER_34_75
*1960 FILLER_35_107
*1961 FILLER_35_110
*1962 FILLER_35_113
*1963 FILLER_35_128
*1964 FILLER_35_131
*1965 FILLER_35_134
*1966 FILLER_35_137
*1967 FILLER_35_140
*1968 FILLER_35_163
*1969 FILLER_35_166
*1970 FILLER_35_169
*1971 FILLER_35_172
*1972 FILLER_35_175
*1973 FILLER_35_178
*1974 FILLER_35_221
*1975 FILLER_35_230
*1976 FILLER_35_233
*1977 FILLER_35_241
*1978 FILLER_35_260
*1979 FILLER_35_263
*1980 FILLER_35_281
*1981 FILLER_35_3
*1982 FILLER_35_303
*1983 FILLER_35_306
*1984 FILLER_35_32
*1985 FILLER_35_57
*1986 FILLER_35_79
*1987 FILLER_36_116
*1988 FILLER_36_138
*1989 FILLER_36_141
*1990 FILLER_36_144
*1991 FILLER_36_161
*1992 FILLER_36_164
*1993 FILLER_36_167
*1994 FILLER_36_170
*1995 FILLER_36_173
*1996 FILLER_36_176
*1997 FILLER_36_179
*1998 FILLER_36_182
*1999 FILLER_36_185
*2000 FILLER_36_213
*2001 FILLER_36_216
*2002 FILLER_36_219
*2003 FILLER_36_222
*2004 FILLER_36_225
*2005 FILLER_36_228
*2006 FILLER_36_234
*2007 FILLER_36_237
*2008 FILLER_36_240
*2009 FILLER_36_243
*2010 FILLER_36_246
*2011 FILLER_36_249
*2012 FILLER_36_25
*2013 FILLER_36_253
*2014 FILLER_36_256
*2015 FILLER_36_259
*2016 FILLER_36_301
*2017 FILLER_36_304
*2018 FILLER_36_307
*2019 FILLER_36_67
*2020 FILLER_36_70
*2021 FILLER_36_79
*2022 FILLER_36_82
*2023 FILLER_36_85
*2024 FILLER_37_109
*2025 FILLER_37_113
*2026 FILLER_37_116
*2027 FILLER_37_138
*2028 FILLER_37_141
*2029 FILLER_37_158
*2030 FILLER_37_166
*2031 FILLER_37_169
*2032 FILLER_37_172
*2033 FILLER_37_175
*2034 FILLER_37_178
*2035 FILLER_37_181
*2036 FILLER_37_184
*2037 FILLER_37_187
*2038 FILLER_37_217
*2039 FILLER_37_220
*2040 FILLER_37_223
*2041 FILLER_37_225
*2042 FILLER_37_233
*2043 FILLER_37_236
*2044 FILLER_37_245
*2045 FILLER_37_248
*2046 FILLER_37_251
*2047 FILLER_37_254
*2048 FILLER_37_257
*2049 FILLER_37_260
*2050 FILLER_37_279
*2051 FILLER_37_3
*2052 FILLER_37_302
*2053 FILLER_37_305
*2054 FILLER_37_46
*2055 FILLER_37_57
*2056 FILLER_37_6
*2057 FILLER_37_67
*2058 FILLER_37_70
*2059 FILLER_37_73
*2060 FILLER_37_96
*2061 FILLER_37_99
*2062 FILLER_38_104
*2063 FILLER_38_107
*2064 FILLER_38_130
*2065 FILLER_38_144
*2066 FILLER_38_147
*2067 FILLER_38_156
*2068 FILLER_38_159
*2069 FILLER_38_175
*2070 FILLER_38_178
*2071 FILLER_38_181
*2072 FILLER_38_184
*2073 FILLER_38_192
*2074 FILLER_38_195
*2075 FILLER_38_197
*2076 FILLER_38_25
*2077 FILLER_38_250
*2078 FILLER_38_253
*2079 FILLER_38_256
*2080 FILLER_38_259
*2081 FILLER_38_262
*2082 FILLER_38_265
*2083 FILLER_38_268
*2084 FILLER_38_276
*2085 FILLER_38_285
*2086 FILLER_38_288
*2087 FILLER_38_298
*2088 FILLER_38_3
*2089 FILLER_38_301
*2090 FILLER_38_304
*2091 FILLER_38_307
*2092 FILLER_38_37
*2093 FILLER_38_58
*2094 FILLER_38_6
*2095 FILLER_38_61
*2096 FILLER_38_64
*2097 FILLER_38_67
*2098 FILLER_38_85
*2099 FILLER_38_88
*2100 FILLER_39_111
*2101 FILLER_39_17
*2102 FILLER_39_177
*2103 FILLER_39_199
*2104 FILLER_39_20
*2105 FILLER_39_210
*2106 FILLER_39_213
*2107 FILLER_39_216
*2108 FILLER_39_219
*2109 FILLER_39_222
*2110 FILLER_39_225
*2111 FILLER_39_233
*2112 FILLER_39_250
*2113 FILLER_39_253
*2114 FILLER_39_256
*2115 FILLER_39_259
*2116 FILLER_39_262
*2117 FILLER_39_265
*2118 FILLER_39_268
*2119 FILLER_39_271
*2120 FILLER_39_274
*2121 FILLER_39_281
*2122 FILLER_39_284
*2123 FILLER_39_287
*2124 FILLER_39_290
*2125 FILLER_39_293
*2126 FILLER_39_296
*2127 FILLER_39_299
*2128 FILLER_39_3
*2129 FILLER_39_302
*2130 FILLER_39_305
*2131 FILLER_39_54
*2132 FILLER_39_57
*2133 FILLER_39_6
*2134 FILLER_39_60
*2135 FILLER_3_242
*2136 FILLER_3_278
*2137 FILLER_3_289
*2138 FILLER_3_299
*2139 FILLER_3_32
*2140 FILLER_3_35
*2141 FILLER_3_57
*2142 FILLER_3_6
*2143 FILLER_3_9
*2144 FILLER_40_106
*2145 FILLER_40_129
*2146 FILLER_40_132
*2147 FILLER_40_169
*2148 FILLER_40_172
*2149 FILLER_40_197
*2150 FILLER_40_206
*2151 FILLER_40_209
*2152 FILLER_40_212
*2153 FILLER_40_215
*2154 FILLER_40_218
*2155 FILLER_40_221
*2156 FILLER_40_224
*2157 FILLER_40_227
*2158 FILLER_40_230
*2159 FILLER_40_233
*2160 FILLER_40_250
*2161 FILLER_40_253
*2162 FILLER_40_256
*2163 FILLER_40_259
*2164 FILLER_40_26
*2165 FILLER_40_262
*2166 FILLER_40_265
*2167 FILLER_40_268
*2168 FILLER_40_285
*2169 FILLER_40_288
*2170 FILLER_40_291
*2171 FILLER_40_3
*2172 FILLER_40_300
*2173 FILLER_40_303
*2174 FILLER_40_306
*2175 FILLER_40_64
*2176 FILLER_40_67
*2177 FILLER_40_93
*2178 FILLER_40_96
*2179 FILLER_41_100
*2180 FILLER_41_103
*2181 FILLER_41_106
*2182 FILLER_41_109
*2183 FILLER_41_113
*2184 FILLER_41_122
*2185 FILLER_41_137
*2186 FILLER_41_140
*2187 FILLER_41_154
*2188 FILLER_41_157
*2189 FILLER_41_160
*2190 FILLER_41_163
*2191 FILLER_41_166
*2192 FILLER_41_177
*2193 FILLER_41_180
*2194 FILLER_41_207
*2195 FILLER_41_210
*2196 FILLER_41_213
*2197 FILLER_41_216
*2198 FILLER_41_219
*2199 FILLER_41_222
*2200 FILLER_41_225
*2201 FILLER_41_228
*2202 FILLER_41_231
*2203 FILLER_41_255
*2204 FILLER_41_258
*2205 FILLER_41_276
*2206 FILLER_41_279
*2207 FILLER_41_302
*2208 FILLER_41_305
*2209 FILLER_41_70
*2210 FILLER_41_94
*2211 FILLER_41_97
*2212 FILLER_42_102
*2213 FILLER_42_105
*2214 FILLER_42_108
*2215 FILLER_42_111
*2216 FILLER_42_114
*2217 FILLER_42_117
*2218 FILLER_42_120
*2219 FILLER_42_123
*2220 FILLER_42_126
*2221 FILLER_42_129
*2222 FILLER_42_132
*2223 FILLER_42_135
*2224 FILLER_42_138
*2225 FILLER_42_141
*2226 FILLER_42_144
*2227 FILLER_42_147
*2228 FILLER_42_150
*2229 FILLER_42_153
*2230 FILLER_42_156
*2231 FILLER_42_159
*2232 FILLER_42_162
*2233 FILLER_42_165
*2234 FILLER_42_168
*2235 FILLER_42_171
*2236 FILLER_42_174
*2237 FILLER_42_177
*2238 FILLER_42_187
*2239 FILLER_42_205
*2240 FILLER_42_208
*2241 FILLER_42_224
*2242 FILLER_42_227
*2243 FILLER_42_240
*2244 FILLER_42_243
*2245 FILLER_42_253
*2246 FILLER_42_26
*2247 FILLER_42_307
*2248 FILLER_42_36
*2249 FILLER_42_39
*2250 FILLER_42_42
*2251 FILLER_42_45
*2252 FILLER_42_61
*2253 FILLER_42_64
*2254 FILLER_42_67
*2255 FILLER_42_70
*2256 FILLER_42_73
*2257 FILLER_42_76
*2258 FILLER_42_90
*2259 FILLER_42_93
*2260 FILLER_42_96
*2261 FILLER_42_99
*2262 FILLER_43_102
*2263 FILLER_43_105
*2264 FILLER_43_108
*2265 FILLER_43_11
*2266 FILLER_43_111
*2267 FILLER_43_120
*2268 FILLER_43_123
*2269 FILLER_43_126
*2270 FILLER_43_148
*2271 FILLER_43_157
*2272 FILLER_43_165
*2273 FILLER_43_169
*2274 FILLER_43_172
*2275 FILLER_43_175
*2276 FILLER_43_178
*2277 FILLER_43_195
*2278 FILLER_43_198
*2279 FILLER_43_201
*2280 FILLER_43_225
*2281 FILLER_43_228
*2282 FILLER_43_244
*2283 FILLER_43_26
*2284 FILLER_43_279
*2285 FILLER_43_29
*2286 FILLER_43_295
*2287 FILLER_43_298
*2288 FILLER_43_301
*2289 FILLER_43_304
*2290 FILLER_43_307
*2291 FILLER_43_32
*2292 FILLER_43_35
*2293 FILLER_43_38
*2294 FILLER_43_41
*2295 FILLER_43_44
*2296 FILLER_43_54
*2297 FILLER_43_57
*2298 FILLER_43_60
*2299 FILLER_43_63
*2300 FILLER_43_66
*2301 FILLER_43_69
*2302 FILLER_43_72
*2303 FILLER_43_75
*2304 FILLER_43_78
*2305 FILLER_43_81
*2306 FILLER_43_84
*2307 FILLER_43_87
*2308 FILLER_43_90
*2309 FILLER_43_93
*2310 FILLER_43_96
*2311 FILLER_43_99
*2312 FILLER_44_138
*2313 FILLER_44_148
*2314 FILLER_44_170
*2315 FILLER_44_194
*2316 FILLER_44_197
*2317 FILLER_44_200
*2318 FILLER_44_250
*2319 FILLER_44_258
*2320 FILLER_44_26
*2321 FILLER_44_261
*2322 FILLER_44_271
*2323 FILLER_44_302
*2324 FILLER_44_305
*2325 FILLER_44_34
*2326 FILLER_44_58
*2327 FILLER_44_74
*2328 FILLER_44_77
*2329 FILLER_44_80
*2330 FILLER_44_83
*2331 FILLER_44_85
*2332 FILLER_44_88
*2333 FILLER_44_96
*2334 FILLER_44_99
*2335 FILLER_45_106
*2336 FILLER_45_109
*2337 FILLER_45_113
*2338 FILLER_45_116
*2339 FILLER_45_142
*2340 FILLER_45_152
*2341 FILLER_45_155
*2342 FILLER_45_158
*2343 FILLER_45_161
*2344 FILLER_45_166
*2345 FILLER_45_169
*2346 FILLER_45_186
*2347 FILLER_45_189
*2348 FILLER_45_192
*2349 FILLER_45_195
*2350 FILLER_45_198
*2351 FILLER_45_201
*2352 FILLER_45_222
*2353 FILLER_45_233
*2354 FILLER_45_236
*2355 FILLER_45_246
*2356 FILLER_45_249
*2357 FILLER_45_252
*2358 FILLER_45_255
*2359 FILLER_45_258
*2360 FILLER_45_261
*2361 FILLER_45_271
*2362 FILLER_45_274
*2363 FILLER_45_277
*2364 FILLER_45_288
*2365 FILLER_45_291
*2366 FILLER_45_300
*2367 FILLER_45_303
*2368 FILLER_45_306
*2369 FILLER_45_40
*2370 FILLER_45_43
*2371 FILLER_45_46
*2372 FILLER_45_49
*2373 FILLER_45_52
*2374 FILLER_45_55
*2375 FILLER_45_57
*2376 FILLER_45_77
*2377 FILLER_45_80
*2378 FILLER_45_83
*2379 FILLER_46_104
*2380 FILLER_46_110
*2381 FILLER_46_141
*2382 FILLER_46_149
*2383 FILLER_46_152
*2384 FILLER_46_155
*2385 FILLER_46_158
*2386 FILLER_46_161
*2387 FILLER_46_192
*2388 FILLER_46_195
*2389 FILLER_46_197
*2390 FILLER_46_200
*2391 FILLER_46_203
*2392 FILLER_46_206
*2393 FILLER_46_209
*2394 FILLER_46_212
*2395 FILLER_46_220
*2396 FILLER_46_223
*2397 FILLER_46_226
*2398 FILLER_46_229
*2399 FILLER_46_232
*2400 FILLER_46_235
*2401 FILLER_46_238
*2402 FILLER_46_241
*2403 FILLER_46_244
*2404 FILLER_46_247
*2405 FILLER_46_250
*2406 FILLER_46_253
*2407 FILLER_46_256
*2408 FILLER_46_26
*2409 FILLER_46_287
*2410 FILLER_46_29
*2411 FILLER_46_290
*2412 FILLER_46_293
*2413 FILLER_46_296
*2414 FILLER_46_299
*2415 FILLER_46_302
*2416 FILLER_46_305
*2417 FILLER_46_44
*2418 FILLER_46_47
*2419 FILLER_46_50
*2420 FILLER_46_53
*2421 FILLER_46_68
*2422 FILLER_46_71
*2423 FILLER_46_74
*2424 FILLER_46_78
*2425 FILLER_46_81
*2426 FILLER_46_85
*2427 FILLER_46_93
*2428 FILLER_47_111
*2429 FILLER_47_113
*2430 FILLER_47_116
*2431 FILLER_47_129
*2432 FILLER_47_132
*2433 FILLER_47_141
*2434 FILLER_47_144
*2435 FILLER_47_147
*2436 FILLER_47_150
*2437 FILLER_47_153
*2438 FILLER_47_156
*2439 FILLER_47_159
*2440 FILLER_47_162
*2441 FILLER_47_165
*2442 FILLER_47_175
*2443 FILLER_47_178
*2444 FILLER_47_181
*2445 FILLER_47_184
*2446 FILLER_47_187
*2447 FILLER_47_190
*2448 FILLER_47_193
*2449 FILLER_47_196
*2450 FILLER_47_199
*2451 FILLER_47_202
*2452 FILLER_47_205
*2453 FILLER_47_208
*2454 FILLER_47_211
*2455 FILLER_47_214
*2456 FILLER_47_217
*2457 FILLER_47_220
*2458 FILLER_47_223
*2459 FILLER_47_225
*2460 FILLER_47_228
*2461 FILLER_47_231
*2462 FILLER_47_234
*2463 FILLER_47_237
*2464 FILLER_47_240
*2465 FILLER_47_243
*2466 FILLER_47_246
*2467 FILLER_47_249
*2468 FILLER_47_252
*2469 FILLER_47_255
*2470 FILLER_47_258
*2471 FILLER_47_261
*2472 FILLER_47_264
*2473 FILLER_47_274
*2474 FILLER_47_277
*2475 FILLER_47_281
*2476 FILLER_47_284
*2477 FILLER_47_287
*2478 FILLER_47_290
*2479 FILLER_47_293
*2480 FILLER_47_296
*2481 FILLER_47_299
*2482 FILLER_47_3
*2483 FILLER_47_302
*2484 FILLER_47_305
*2485 FILLER_47_42
*2486 FILLER_47_45
*2487 FILLER_47_57
*2488 FILLER_47_6
*2489 FILLER_47_95
*2490 FILLER_48_106
*2491 FILLER_48_11
*2492 FILLER_48_136
*2493 FILLER_48_139
*2494 FILLER_48_14
*2495 FILLER_48_141
*2496 FILLER_48_144
*2497 FILLER_48_147
*2498 FILLER_48_150
*2499 FILLER_48_153
*2500 FILLER_48_156
*2501 FILLER_48_159
*2502 FILLER_48_162
*2503 FILLER_48_165
*2504 FILLER_48_168
*2505 FILLER_48_171
*2506 FILLER_48_174
*2507 FILLER_48_177
*2508 FILLER_48_180
*2509 FILLER_48_183
*2510 FILLER_48_186
*2511 FILLER_48_189
*2512 FILLER_48_192
*2513 FILLER_48_195
*2514 FILLER_48_197
*2515 FILLER_48_200
*2516 FILLER_48_203
*2517 FILLER_48_206
*2518 FILLER_48_209
*2519 FILLER_48_212
*2520 FILLER_48_215
*2521 FILLER_48_218
*2522 FILLER_48_221
*2523 FILLER_48_224
*2524 FILLER_48_227
*2525 FILLER_48_230
*2526 FILLER_48_233
*2527 FILLER_48_236
*2528 FILLER_48_239
*2529 FILLER_48_242
*2530 FILLER_48_245
*2531 FILLER_48_248
*2532 FILLER_48_251
*2533 FILLER_48_253
*2534 FILLER_48_256
*2535 FILLER_48_259
*2536 FILLER_48_262
*2537 FILLER_48_265
*2538 FILLER_48_268
*2539 FILLER_48_271
*2540 FILLER_48_274
*2541 FILLER_48_277
*2542 FILLER_48_280
*2543 FILLER_48_283
*2544 FILLER_48_286
*2545 FILLER_48_289
*2546 FILLER_48_29
*2547 FILLER_48_292
*2548 FILLER_48_295
*2549 FILLER_48_298
*2550 FILLER_48_301
*2551 FILLER_48_304
*2552 FILLER_48_307
*2553 FILLER_48_39
*2554 FILLER_48_71
*2555 FILLER_48_74
*2556 FILLER_49_102
*2557 FILLER_49_105
*2558 FILLER_49_108
*2559 FILLER_49_111
*2560 FILLER_49_113
*2561 FILLER_49_142
*2562 FILLER_49_145
*2563 FILLER_49_148
*2564 FILLER_49_151
*2565 FILLER_49_154
*2566 FILLER_49_157
*2567 FILLER_49_160
*2568 FILLER_49_163
*2569 FILLER_49_166
*2570 FILLER_49_169
*2571 FILLER_49_172
*2572 FILLER_49_175
*2573 FILLER_49_178
*2574 FILLER_49_181
*2575 FILLER_49_184
*2576 FILLER_49_187
*2577 FILLER_49_190
*2578 FILLER_49_193
*2579 FILLER_49_196
*2580 FILLER_49_199
*2581 FILLER_49_202
*2582 FILLER_49_205
*2583 FILLER_49_208
*2584 FILLER_49_211
*2585 FILLER_49_214
*2586 FILLER_49_217
*2587 FILLER_49_220
*2588 FILLER_49_223
*2589 FILLER_49_225
*2590 FILLER_49_228
*2591 FILLER_49_231
*2592 FILLER_49_234
*2593 FILLER_49_237
*2594 FILLER_49_240
*2595 FILLER_49_243
*2596 FILLER_49_246
*2597 FILLER_49_249
*2598 FILLER_49_252
*2599 FILLER_49_255
*2600 FILLER_49_258
*2601 FILLER_49_261
*2602 FILLER_49_264
*2603 FILLER_49_267
*2604 FILLER_49_270
*2605 FILLER_49_273
*2606 FILLER_49_276
*2607 FILLER_49_279
*2608 FILLER_49_281
*2609 FILLER_49_284
*2610 FILLER_49_287
*2611 FILLER_49_290
*2612 FILLER_49_293
*2613 FILLER_49_296
*2614 FILLER_49_299
*2615 FILLER_49_302
*2616 FILLER_49_305
*2617 FILLER_49_44
*2618 FILLER_49_70
*2619 FILLER_49_73
*2620 FILLER_49_76
*2621 FILLER_49_99
*2622 FILLER_4_101
*2623 FILLER_4_120
*2624 FILLER_4_123
*2625 FILLER_4_126
*2626 FILLER_4_129
*2627 FILLER_4_141
*2628 FILLER_4_144
*2629 FILLER_4_182
*2630 FILLER_4_185
*2631 FILLER_4_195
*2632 FILLER_4_204
*2633 FILLER_4_240
*2634 FILLER_4_249
*2635 FILLER_4_25
*2636 FILLER_4_261
*2637 FILLER_4_29
*2638 FILLER_4_3
*2639 FILLER_4_304
*2640 FILLER_4_307
*2641 FILLER_4_69
*2642 FILLER_4_78
*2643 FILLER_4_81
*2644 FILLER_50_100
*2645 FILLER_50_103
*2646 FILLER_50_106
*2647 FILLER_50_109
*2648 FILLER_50_133
*2649 FILLER_50_136
*2650 FILLER_50_139
*2651 FILLER_50_141
*2652 FILLER_50_144
*2653 FILLER_50_147
*2654 FILLER_50_150
*2655 FILLER_50_153
*2656 FILLER_50_156
*2657 FILLER_50_159
*2658 FILLER_50_162
*2659 FILLER_50_165
*2660 FILLER_50_168
*2661 FILLER_50_171
*2662 FILLER_50_174
*2663 FILLER_50_177
*2664 FILLER_50_180
*2665 FILLER_50_183
*2666 FILLER_50_186
*2667 FILLER_50_189
*2668 FILLER_50_192
*2669 FILLER_50_195
*2670 FILLER_50_197
*2671 FILLER_50_200
*2672 FILLER_50_203
*2673 FILLER_50_206
*2674 FILLER_50_209
*2675 FILLER_50_212
*2676 FILLER_50_215
*2677 FILLER_50_218
*2678 FILLER_50_221
*2679 FILLER_50_224
*2680 FILLER_50_227
*2681 FILLER_50_23
*2682 FILLER_50_230
*2683 FILLER_50_233
*2684 FILLER_50_236
*2685 FILLER_50_239
*2686 FILLER_50_242
*2687 FILLER_50_245
*2688 FILLER_50_248
*2689 FILLER_50_251
*2690 FILLER_50_253
*2691 FILLER_50_256
*2692 FILLER_50_259
*2693 FILLER_50_26
*2694 FILLER_50_262
*2695 FILLER_50_265
*2696 FILLER_50_268
*2697 FILLER_50_271
*2698 FILLER_50_274
*2699 FILLER_50_277
*2700 FILLER_50_280
*2701 FILLER_50_283
*2702 FILLER_50_286
*2703 FILLER_50_289
*2704 FILLER_50_292
*2705 FILLER_50_295
*2706 FILLER_50_298
*2707 FILLER_50_3
*2708 FILLER_50_301
*2709 FILLER_50_304
*2710 FILLER_50_307
*2711 FILLER_50_50
*2712 FILLER_50_53
*2713 FILLER_50_56
*2714 FILLER_50_59
*2715 FILLER_50_62
*2716 FILLER_50_65
*2717 FILLER_50_68
*2718 FILLER_50_71
*2719 FILLER_50_74
*2720 FILLER_50_77
*2721 FILLER_50_80
*2722 FILLER_50_83
*2723 FILLER_51_100
*2724 FILLER_51_103
*2725 FILLER_51_106
*2726 FILLER_51_109
*2727 FILLER_51_11
*2728 FILLER_51_113
*2729 FILLER_51_116
*2730 FILLER_51_119
*2731 FILLER_51_122
*2732 FILLER_51_125
*2733 FILLER_51_134
*2734 FILLER_51_137
*2735 FILLER_51_14
*2736 FILLER_51_141
*2737 FILLER_51_144
*2738 FILLER_51_147
*2739 FILLER_51_150
*2740 FILLER_51_153
*2741 FILLER_51_156
*2742 FILLER_51_159
*2743 FILLER_51_162
*2744 FILLER_51_165
*2745 FILLER_51_169
*2746 FILLER_51_17
*2747 FILLER_51_172
*2748 FILLER_51_175
*2749 FILLER_51_178
*2750 FILLER_51_181
*2751 FILLER_51_184
*2752 FILLER_51_187
*2753 FILLER_51_190
*2754 FILLER_51_193
*2755 FILLER_51_197
*2756 FILLER_51_20
*2757 FILLER_51_200
*2758 FILLER_51_203
*2759 FILLER_51_206
*2760 FILLER_51_209
*2761 FILLER_51_212
*2762 FILLER_51_215
*2763 FILLER_51_218
*2764 FILLER_51_221
*2765 FILLER_51_225
*2766 FILLER_51_228
*2767 FILLER_51_23
*2768 FILLER_51_231
*2769 FILLER_51_234
*2770 FILLER_51_237
*2771 FILLER_51_240
*2772 FILLER_51_243
*2773 FILLER_51_246
*2774 FILLER_51_249
*2775 FILLER_51_253
*2776 FILLER_51_256
*2777 FILLER_51_259
*2778 FILLER_51_26
*2779 FILLER_51_262
*2780 FILLER_51_265
*2781 FILLER_51_268
*2782 FILLER_51_271
*2783 FILLER_51_274
*2784 FILLER_51_277
*2785 FILLER_51_281
*2786 FILLER_51_284
*2787 FILLER_51_287
*2788 FILLER_51_29
*2789 FILLER_51_290
*2790 FILLER_51_293
*2791 FILLER_51_296
*2792 FILLER_51_299
*2793 FILLER_51_3
*2794 FILLER_51_302
*2795 FILLER_51_305
*2796 FILLER_51_46
*2797 FILLER_51_49
*2798 FILLER_51_52
*2799 FILLER_51_55
*2800 FILLER_51_57
*2801 FILLER_51_60
*2802 FILLER_51_63
*2803 FILLER_51_66
*2804 FILLER_51_69
*2805 FILLER_51_72
*2806 FILLER_51_75
*2807 FILLER_51_78
*2808 FILLER_51_81
*2809 FILLER_51_97
*2810 FILLER_5_100
*2811 FILLER_5_108
*2812 FILLER_5_111
*2813 FILLER_5_120
*2814 FILLER_5_123
*2815 FILLER_5_146
*2816 FILLER_5_149
*2817 FILLER_5_167
*2818 FILLER_5_169
*2819 FILLER_5_172
*2820 FILLER_5_18
*2821 FILLER_5_203
*2822 FILLER_5_27
*2823 FILLER_5_281
*2824 FILLER_5_3
*2825 FILLER_5_30
*2826 FILLER_5_39
*2827 FILLER_5_91
*2828 FILLER_6_101
*2829 FILLER_6_104
*2830 FILLER_6_128
*2831 FILLER_6_141
*2832 FILLER_6_144
*2833 FILLER_6_147
*2834 FILLER_6_150
*2835 FILLER_6_153
*2836 FILLER_6_156
*2837 FILLER_6_166
*2838 FILLER_6_19
*2839 FILLER_6_195
*2840 FILLER_6_204
*2841 FILLER_6_251
*2842 FILLER_6_269
*2843 FILLER_6_281
*2844 FILLER_6_284
*2845 FILLER_6_29
*2846 FILLER_6_32
*2847 FILLER_6_54
*2848 FILLER_7_108
*2849 FILLER_7_111
*2850 FILLER_7_113
*2851 FILLER_7_116
*2852 FILLER_7_119
*2853 FILLER_7_122
*2854 FILLER_7_133
*2855 FILLER_7_143
*2856 FILLER_7_146
*2857 FILLER_7_149
*2858 FILLER_7_157
*2859 FILLER_7_160
*2860 FILLER_7_163
*2861 FILLER_7_166
*2862 FILLER_7_169
*2863 FILLER_7_17
*2864 FILLER_7_182
*2865 FILLER_7_192
*2866 FILLER_7_195
*2867 FILLER_7_204
*2868 FILLER_7_220
*2869 FILLER_7_223
*2870 FILLER_7_233
*2871 FILLER_7_263
*2872 FILLER_7_271
*2873 FILLER_7_3
*2874 FILLER_7_307
*2875 FILLER_7_53
*2876 FILLER_7_6
*2877 FILLER_7_65
*2878 FILLER_7_68
*2879 FILLER_7_90
*2880 FILLER_7_99
*2881 FILLER_8_107
*2882 FILLER_8_110
*2883 FILLER_8_113
*2884 FILLER_8_116
*2885 FILLER_8_119
*2886 FILLER_8_12
*2887 FILLER_8_15
*2888 FILLER_8_162
*2889 FILLER_8_165
*2890 FILLER_8_168
*2891 FILLER_8_18
*2892 FILLER_8_180
*2893 FILLER_8_183
*2894 FILLER_8_186
*2895 FILLER_8_197
*2896 FILLER_8_21
*2897 FILLER_8_220
*2898 FILLER_8_223
*2899 FILLER_8_226
*2900 FILLER_8_246
*2901 FILLER_8_249
*2902 FILLER_8_260
*2903 FILLER_8_263
*2904 FILLER_8_266
*2905 FILLER_8_269
*2906 FILLER_8_29
*2907 FILLER_8_3
*2908 FILLER_8_6
*2909 FILLER_8_60
*2910 FILLER_8_70
*2911 FILLER_8_79
*2912 FILLER_8_82
*2913 FILLER_8_85
*2914 FILLER_8_9
*2915 FILLER_9_113
*2916 FILLER_9_12
*2917 FILLER_9_15
*2918 FILLER_9_18
*2919 FILLER_9_191
*2920 FILLER_9_21
*2921 FILLER_9_221
*2922 FILLER_9_225
*2923 FILLER_9_228
*2924 FILLER_9_231
*2925 FILLER_9_234
*2926 FILLER_9_24
*2927 FILLER_9_263
*2928 FILLER_9_266
*2929 FILLER_9_269
*2930 FILLER_9_27
*2931 FILLER_9_272
*2932 FILLER_9_281
*2933 FILLER_9_3
*2934 FILLER_9_303
*2935 FILLER_9_306
*2936 FILLER_9_46
*2937 FILLER_9_6
*2938 FILLER_9_65
*2939 FILLER_9_68
*2940 FILLER_9_71
*2941 FILLER_9_74
*2942 FILLER_9_85
*2943 FILLER_9_88
*2944 FILLER_9_9
*2945 PHY_EDGE_ROW_0_Left_52
*2946 PHY_EDGE_ROW_0_Right_0
*2947 PHY_EDGE_ROW_10_Left_62
*2948 PHY_EDGE_ROW_10_Right_10
*2949 PHY_EDGE_ROW_11_Left_63
*2950 PHY_EDGE_ROW_11_Right_11
*2951 PHY_EDGE_ROW_12_Left_64
*2952 PHY_EDGE_ROW_12_Right_12
*2953 PHY_EDGE_ROW_13_Left_65
*2954 PHY_EDGE_ROW_13_Right_13
*2955 PHY_EDGE_ROW_14_Left_66
*2956 PHY_EDGE_ROW_14_Right_14
*2957 PHY_EDGE_ROW_15_Left_67
*2958 PHY_EDGE_ROW_15_Right_15
*2959 PHY_EDGE_ROW_16_Left_68
*2960 PHY_EDGE_ROW_16_Right_16
*2961 PHY_EDGE_ROW_17_Left_69
*2962 PHY_EDGE_ROW_17_Right_17
*2963 PHY_EDGE_ROW_18_Left_70
*2964 PHY_EDGE_ROW_18_Right_18
*2965 PHY_EDGE_ROW_19_Left_71
*2966 PHY_EDGE_ROW_19_Right_19
*2967 PHY_EDGE_ROW_1_Left_53
*2968 PHY_EDGE_ROW_1_Right_1
*2969 PHY_EDGE_ROW_20_Left_72
*2970 PHY_EDGE_ROW_20_Right_20
*2971 PHY_EDGE_ROW_21_Left_73
*2972 PHY_EDGE_ROW_21_Right_21
*2973 PHY_EDGE_ROW_22_Left_74
*2974 PHY_EDGE_ROW_22_Right_22
*2975 PHY_EDGE_ROW_23_Left_75
*2976 PHY_EDGE_ROW_23_Right_23
*2977 PHY_EDGE_ROW_24_Left_76
*2978 PHY_EDGE_ROW_24_Right_24
*2979 PHY_EDGE_ROW_25_Left_77
*2980 PHY_EDGE_ROW_25_Right_25
*2981 PHY_EDGE_ROW_26_Left_78
*2982 PHY_EDGE_ROW_26_Right_26
*2983 PHY_EDGE_ROW_27_Left_79
*2984 PHY_EDGE_ROW_27_Right_27
*2985 PHY_EDGE_ROW_28_Left_80
*2986 PHY_EDGE_ROW_28_Right_28
*2987 PHY_EDGE_ROW_29_Left_81
*2988 PHY_EDGE_ROW_29_Right_29
*2989 PHY_EDGE_ROW_2_Left_54
*2990 PHY_EDGE_ROW_2_Right_2
*2991 PHY_EDGE_ROW_30_Left_82
*2992 PHY_EDGE_ROW_30_Right_30
*2993 PHY_EDGE_ROW_31_Left_83
*2994 PHY_EDGE_ROW_31_Right_31
*2995 PHY_EDGE_ROW_32_Left_84
*2996 PHY_EDGE_ROW_32_Right_32
*2997 PHY_EDGE_ROW_33_Left_85
*2998 PHY_EDGE_ROW_33_Right_33
*2999 PHY_EDGE_ROW_34_Left_86
*3000 PHY_EDGE_ROW_34_Right_34
*3001 PHY_EDGE_ROW_35_Left_87
*3002 PHY_EDGE_ROW_35_Right_35
*3003 PHY_EDGE_ROW_36_Left_88
*3004 PHY_EDGE_ROW_36_Right_36
*3005 PHY_EDGE_ROW_37_Left_89
*3006 PHY_EDGE_ROW_37_Right_37
*3007 PHY_EDGE_ROW_38_Left_90
*3008 PHY_EDGE_ROW_38_Right_38
*3009 PHY_EDGE_ROW_39_Left_91
*3010 PHY_EDGE_ROW_39_Right_39
*3011 PHY_EDGE_ROW_3_Left_55
*3012 PHY_EDGE_ROW_3_Right_3
*3013 PHY_EDGE_ROW_40_Left_92
*3014 PHY_EDGE_ROW_40_Right_40
*3015 PHY_EDGE_ROW_41_Left_93
*3016 PHY_EDGE_ROW_41_Right_41
*3017 PHY_EDGE_ROW_42_Left_94
*3018 PHY_EDGE_ROW_42_Right_42
*3019 PHY_EDGE_ROW_43_Left_95
*3020 PHY_EDGE_ROW_43_Right_43
*3021 PHY_EDGE_ROW_44_Left_96
*3022 PHY_EDGE_ROW_44_Right_44
*3023 PHY_EDGE_ROW_45_Left_97
*3024 PHY_EDGE_ROW_45_Right_45
*3025 PHY_EDGE_ROW_46_Left_98
*3026 PHY_EDGE_ROW_46_Right_46
*3027 PHY_EDGE_ROW_47_Left_99
*3028 PHY_EDGE_ROW_47_Right_47
*3029 PHY_EDGE_ROW_48_Left_100
*3030 PHY_EDGE_ROW_48_Right_48
*3031 PHY_EDGE_ROW_49_Left_101
*3032 PHY_EDGE_ROW_49_Right_49
*3033 PHY_EDGE_ROW_4_Left_56
*3034 PHY_EDGE_ROW_4_Right_4
*3035 PHY_EDGE_ROW_50_Left_102
*3036 PHY_EDGE_ROW_50_Right_50
*3037 PHY_EDGE_ROW_51_Left_103
*3038 PHY_EDGE_ROW_51_Right_51
*3039 PHY_EDGE_ROW_5_Left_57
*3040 PHY_EDGE_ROW_5_Right_5
*3041 PHY_EDGE_ROW_6_Left_58
*3042 PHY_EDGE_ROW_6_Right_6
*3043 PHY_EDGE_ROW_7_Left_59
*3044 PHY_EDGE_ROW_7_Right_7
*3045 PHY_EDGE_ROW_8_Left_60
*3046 PHY_EDGE_ROW_8_Right_8
*3047 PHY_EDGE_ROW_9_Left_61
*3048 PHY_EDGE_ROW_9_Right_9
*3049 TAP_TAPCELL_ROW_0_104
*3050 TAP_TAPCELL_ROW_0_105
*3051 TAP_TAPCELL_ROW_0_106
*3052 TAP_TAPCELL_ROW_0_107
*3053 TAP_TAPCELL_ROW_0_108
*3054 TAP_TAPCELL_ROW_0_109
*3055 TAP_TAPCELL_ROW_0_110
*3056 TAP_TAPCELL_ROW_0_111
*3057 TAP_TAPCELL_ROW_0_112
*3058 TAP_TAPCELL_ROW_0_113
*3059 TAP_TAPCELL_ROW_10_159
*3060 TAP_TAPCELL_ROW_10_160
*3061 TAP_TAPCELL_ROW_10_161
*3062 TAP_TAPCELL_ROW_10_162
*3063 TAP_TAPCELL_ROW_10_163
*3064 TAP_TAPCELL_ROW_11_164
*3065 TAP_TAPCELL_ROW_11_165
*3066 TAP_TAPCELL_ROW_11_166
*3067 TAP_TAPCELL_ROW_11_167
*3068 TAP_TAPCELL_ROW_11_168
*3069 TAP_TAPCELL_ROW_12_169
*3070 TAP_TAPCELL_ROW_12_170
*3071 TAP_TAPCELL_ROW_12_171
*3072 TAP_TAPCELL_ROW_12_172
*3073 TAP_TAPCELL_ROW_12_173
*3074 TAP_TAPCELL_ROW_13_174
*3075 TAP_TAPCELL_ROW_13_175
*3076 TAP_TAPCELL_ROW_13_176
*3077 TAP_TAPCELL_ROW_13_177
*3078 TAP_TAPCELL_ROW_13_178
*3079 TAP_TAPCELL_ROW_14_179
*3080 TAP_TAPCELL_ROW_14_180
*3081 TAP_TAPCELL_ROW_14_181
*3082 TAP_TAPCELL_ROW_14_182
*3083 TAP_TAPCELL_ROW_14_183
*3084 TAP_TAPCELL_ROW_15_184
*3085 TAP_TAPCELL_ROW_15_185
*3086 TAP_TAPCELL_ROW_15_186
*3087 TAP_TAPCELL_ROW_15_187
*3088 TAP_TAPCELL_ROW_15_188
*3089 TAP_TAPCELL_ROW_16_189
*3090 TAP_TAPCELL_ROW_16_190
*3091 TAP_TAPCELL_ROW_16_191
*3092 TAP_TAPCELL_ROW_16_192
*3093 TAP_TAPCELL_ROW_16_193
*3094 TAP_TAPCELL_ROW_17_194
*3095 TAP_TAPCELL_ROW_17_195
*3096 TAP_TAPCELL_ROW_17_196
*3097 TAP_TAPCELL_ROW_17_197
*3098 TAP_TAPCELL_ROW_17_198
*3099 TAP_TAPCELL_ROW_18_199
*3100 TAP_TAPCELL_ROW_18_200
*3101 TAP_TAPCELL_ROW_18_201
*3102 TAP_TAPCELL_ROW_18_202
*3103 TAP_TAPCELL_ROW_18_203
*3104 TAP_TAPCELL_ROW_19_204
*3105 TAP_TAPCELL_ROW_19_205
*3106 TAP_TAPCELL_ROW_19_206
*3107 TAP_TAPCELL_ROW_19_207
*3108 TAP_TAPCELL_ROW_19_208
*3109 TAP_TAPCELL_ROW_1_114
*3110 TAP_TAPCELL_ROW_1_115
*3111 TAP_TAPCELL_ROW_1_116
*3112 TAP_TAPCELL_ROW_1_117
*3113 TAP_TAPCELL_ROW_1_118
*3114 TAP_TAPCELL_ROW_20_209
*3115 TAP_TAPCELL_ROW_20_210
*3116 TAP_TAPCELL_ROW_20_211
*3117 TAP_TAPCELL_ROW_20_212
*3118 TAP_TAPCELL_ROW_20_213
*3119 TAP_TAPCELL_ROW_21_214
*3120 TAP_TAPCELL_ROW_21_215
*3121 TAP_TAPCELL_ROW_21_216
*3122 TAP_TAPCELL_ROW_21_217
*3123 TAP_TAPCELL_ROW_21_218
*3124 TAP_TAPCELL_ROW_22_219
*3125 TAP_TAPCELL_ROW_22_220
*3126 TAP_TAPCELL_ROW_22_221
*3127 TAP_TAPCELL_ROW_22_222
*3128 TAP_TAPCELL_ROW_22_223
*3129 TAP_TAPCELL_ROW_23_224
*3130 TAP_TAPCELL_ROW_23_225
*3131 TAP_TAPCELL_ROW_23_226
*3132 TAP_TAPCELL_ROW_23_227
*3133 TAP_TAPCELL_ROW_23_228
*3134 TAP_TAPCELL_ROW_24_229
*3135 TAP_TAPCELL_ROW_24_230
*3136 TAP_TAPCELL_ROW_24_231
*3137 TAP_TAPCELL_ROW_24_232
*3138 TAP_TAPCELL_ROW_24_233
*3139 TAP_TAPCELL_ROW_25_234
*3140 TAP_TAPCELL_ROW_25_235
*3141 TAP_TAPCELL_ROW_25_236
*3142 TAP_TAPCELL_ROW_25_237
*3143 TAP_TAPCELL_ROW_25_238
*3144 TAP_TAPCELL_ROW_26_239
*3145 TAP_TAPCELL_ROW_26_240
*3146 TAP_TAPCELL_ROW_26_241
*3147 TAP_TAPCELL_ROW_26_242
*3148 TAP_TAPCELL_ROW_26_243
*3149 TAP_TAPCELL_ROW_27_244
*3150 TAP_TAPCELL_ROW_27_245
*3151 TAP_TAPCELL_ROW_27_246
*3152 TAP_TAPCELL_ROW_27_247
*3153 TAP_TAPCELL_ROW_27_248
*3154 TAP_TAPCELL_ROW_28_249
*3155 TAP_TAPCELL_ROW_28_250
*3156 TAP_TAPCELL_ROW_28_251
*3157 TAP_TAPCELL_ROW_28_252
*3158 TAP_TAPCELL_ROW_28_253
*3159 TAP_TAPCELL_ROW_29_254
*3160 TAP_TAPCELL_ROW_29_255
*3161 TAP_TAPCELL_ROW_29_256
*3162 TAP_TAPCELL_ROW_29_257
*3163 TAP_TAPCELL_ROW_29_258
*3164 TAP_TAPCELL_ROW_2_119
*3165 TAP_TAPCELL_ROW_2_120
*3166 TAP_TAPCELL_ROW_2_121
*3167 TAP_TAPCELL_ROW_2_122
*3168 TAP_TAPCELL_ROW_2_123
*3169 TAP_TAPCELL_ROW_30_259
*3170 TAP_TAPCELL_ROW_30_260
*3171 TAP_TAPCELL_ROW_30_261
*3172 TAP_TAPCELL_ROW_30_262
*3173 TAP_TAPCELL_ROW_30_263
*3174 TAP_TAPCELL_ROW_31_264
*3175 TAP_TAPCELL_ROW_31_265
*3176 TAP_TAPCELL_ROW_31_266
*3177 TAP_TAPCELL_ROW_31_267
*3178 TAP_TAPCELL_ROW_31_268
*3179 TAP_TAPCELL_ROW_32_269
*3180 TAP_TAPCELL_ROW_32_270
*3181 TAP_TAPCELL_ROW_32_271
*3182 TAP_TAPCELL_ROW_32_272
*3183 TAP_TAPCELL_ROW_32_273
*3184 TAP_TAPCELL_ROW_33_274
*3185 TAP_TAPCELL_ROW_33_275
*3186 TAP_TAPCELL_ROW_33_276
*3187 TAP_TAPCELL_ROW_33_277
*3188 TAP_TAPCELL_ROW_33_278
*3189 TAP_TAPCELL_ROW_34_279
*3190 TAP_TAPCELL_ROW_34_280
*3191 TAP_TAPCELL_ROW_34_281
*3192 TAP_TAPCELL_ROW_34_282
*3193 TAP_TAPCELL_ROW_34_283
*3194 TAP_TAPCELL_ROW_35_284
*3195 TAP_TAPCELL_ROW_35_285
*3196 TAP_TAPCELL_ROW_35_286
*3197 TAP_TAPCELL_ROW_35_287
*3198 TAP_TAPCELL_ROW_35_288
*3199 TAP_TAPCELL_ROW_36_289
*3200 TAP_TAPCELL_ROW_36_290
*3201 TAP_TAPCELL_ROW_36_291
*3202 TAP_TAPCELL_ROW_36_292
*3203 TAP_TAPCELL_ROW_36_293
*3204 TAP_TAPCELL_ROW_37_294
*3205 TAP_TAPCELL_ROW_37_295
*3206 TAP_TAPCELL_ROW_37_296
*3207 TAP_TAPCELL_ROW_37_297
*3208 TAP_TAPCELL_ROW_37_298
*3209 TAP_TAPCELL_ROW_38_299
*3210 TAP_TAPCELL_ROW_38_300
*3211 TAP_TAPCELL_ROW_38_301
*3212 TAP_TAPCELL_ROW_38_302
*3213 TAP_TAPCELL_ROW_38_303
*3214 TAP_TAPCELL_ROW_39_304
*3215 TAP_TAPCELL_ROW_39_305
*3216 TAP_TAPCELL_ROW_39_306
*3217 TAP_TAPCELL_ROW_39_307
*3218 TAP_TAPCELL_ROW_39_308
*3219 TAP_TAPCELL_ROW_3_124
*3220 TAP_TAPCELL_ROW_3_125
*3221 TAP_TAPCELL_ROW_3_126
*3222 TAP_TAPCELL_ROW_3_127
*3223 TAP_TAPCELL_ROW_3_128
*3224 TAP_TAPCELL_ROW_40_309
*3225 TAP_TAPCELL_ROW_40_310
*3226 TAP_TAPCELL_ROW_40_311
*3227 TAP_TAPCELL_ROW_40_312
*3228 TAP_TAPCELL_ROW_40_313
*3229 TAP_TAPCELL_ROW_41_314
*3230 TAP_TAPCELL_ROW_41_315
*3231 TAP_TAPCELL_ROW_41_316
*3232 TAP_TAPCELL_ROW_41_317
*3233 TAP_TAPCELL_ROW_41_318
*3234 TAP_TAPCELL_ROW_42_319
*3235 TAP_TAPCELL_ROW_42_320
*3236 TAP_TAPCELL_ROW_42_321
*3237 TAP_TAPCELL_ROW_42_322
*3238 TAP_TAPCELL_ROW_42_323
*3239 TAP_TAPCELL_ROW_43_324
*3240 TAP_TAPCELL_ROW_43_325
*3241 TAP_TAPCELL_ROW_43_326
*3242 TAP_TAPCELL_ROW_43_327
*3243 TAP_TAPCELL_ROW_43_328
*3244 TAP_TAPCELL_ROW_44_329
*3245 TAP_TAPCELL_ROW_44_330
*3246 TAP_TAPCELL_ROW_44_331
*3247 TAP_TAPCELL_ROW_44_332
*3248 TAP_TAPCELL_ROW_44_333
*3249 TAP_TAPCELL_ROW_45_334
*3250 TAP_TAPCELL_ROW_45_335
*3251 TAP_TAPCELL_ROW_45_336
*3252 TAP_TAPCELL_ROW_45_337
*3253 TAP_TAPCELL_ROW_45_338
*3254 TAP_TAPCELL_ROW_46_339
*3255 TAP_TAPCELL_ROW_46_340
*3256 TAP_TAPCELL_ROW_46_341
*3257 TAP_TAPCELL_ROW_46_342
*3258 TAP_TAPCELL_ROW_46_343
*3259 TAP_TAPCELL_ROW_47_344
*3260 TAP_TAPCELL_ROW_47_345
*3261 TAP_TAPCELL_ROW_47_346
*3262 TAP_TAPCELL_ROW_47_347
*3263 TAP_TAPCELL_ROW_47_348
*3264 TAP_TAPCELL_ROW_48_349
*3265 TAP_TAPCELL_ROW_48_350
*3266 TAP_TAPCELL_ROW_48_351
*3267 TAP_TAPCELL_ROW_48_352
*3268 TAP_TAPCELL_ROW_48_353
*3269 TAP_TAPCELL_ROW_49_354
*3270 TAP_TAPCELL_ROW_49_355
*3271 TAP_TAPCELL_ROW_49_356
*3272 TAP_TAPCELL_ROW_49_357
*3273 TAP_TAPCELL_ROW_49_358
*3274 TAP_TAPCELL_ROW_4_129
*3275 TAP_TAPCELL_ROW_4_130
*3276 TAP_TAPCELL_ROW_4_131
*3277 TAP_TAPCELL_ROW_4_132
*3278 TAP_TAPCELL_ROW_4_133
*3279 TAP_TAPCELL_ROW_50_359
*3280 TAP_TAPCELL_ROW_50_360
*3281 TAP_TAPCELL_ROW_50_361
*3282 TAP_TAPCELL_ROW_50_362
*3283 TAP_TAPCELL_ROW_50_363
*3284 TAP_TAPCELL_ROW_51_364
*3285 TAP_TAPCELL_ROW_51_365
*3286 TAP_TAPCELL_ROW_51_366
*3287 TAP_TAPCELL_ROW_51_367
*3288 TAP_TAPCELL_ROW_51_368
*3289 TAP_TAPCELL_ROW_51_369
*3290 TAP_TAPCELL_ROW_51_370
*3291 TAP_TAPCELL_ROW_51_371
*3292 TAP_TAPCELL_ROW_51_372
*3293 TAP_TAPCELL_ROW_51_373
*3294 TAP_TAPCELL_ROW_5_134
*3295 TAP_TAPCELL_ROW_5_135
*3296 TAP_TAPCELL_ROW_5_136
*3297 TAP_TAPCELL_ROW_5_137
*3298 TAP_TAPCELL_ROW_5_138
*3299 TAP_TAPCELL_ROW_6_139
*3300 TAP_TAPCELL_ROW_6_140
*3301 TAP_TAPCELL_ROW_6_141
*3302 TAP_TAPCELL_ROW_6_142
*3303 TAP_TAPCELL_ROW_6_143
*3304 TAP_TAPCELL_ROW_7_144
*3305 TAP_TAPCELL_ROW_7_145
*3306 TAP_TAPCELL_ROW_7_146
*3307 TAP_TAPCELL_ROW_7_147
*3308 TAP_TAPCELL_ROW_7_148
*3309 TAP_TAPCELL_ROW_8_149
*3310 TAP_TAPCELL_ROW_8_150
*3311 TAP_TAPCELL_ROW_8_151
*3312 TAP_TAPCELL_ROW_8_152
*3313 TAP_TAPCELL_ROW_8_153
*3314 TAP_TAPCELL_ROW_9_154
*3315 TAP_TAPCELL_ROW_9_155
*3316 TAP_TAPCELL_ROW_9_156
*3317 TAP_TAPCELL_ROW_9_157
*3318 TAP_TAPCELL_ROW_9_158
*3319 _0533_
*3320 _0534_
*3321 _0535_
*3322 _0536_
*3323 _0537_
*3324 _0538_
*3325 _0539_
*3326 _0540_
*3327 _0541_
*3328 _0542_
*3329 _0543_
*3330 _0544_
*3331 _0545_
*3332 _0546_
*3333 _0547_
*3334 _0548_
*3335 _0549_
*3336 _0550_
*3337 _0551_
*3338 _0552_
*3339 _0553_
*3340 _0554_
*3341 _0555_
*3342 _0556_
*3343 _0557_
*3344 _0558_
*3345 _0559_
*3346 _0560_
*3347 _0561_
*3348 _0562_
*3349 _0563_
*3350 _0564_
*3351 _0565_
*3352 _0566_
*3353 _0567_
*3354 _0568_
*3355 _0569_
*3356 _0570_
*3357 _0571_
*3358 _0572_
*3359 _0573_
*3360 _0574_
*3361 _0575_
*3362 _0576_
*3363 _0577_
*3364 _0578_
*3365 _0579_
*3366 _0580_
*3367 _0581_
*3368 _0582_
*3369 _0583_
*3370 _0584_
*3371 _0585_
*3372 _0586_
*3373 _0587_
*3374 _0588_
*3375 _0589_
*3376 _0590_
*3377 _0591_
*3378 _0592_
*3379 _0593_
*3380 _0594_
*3381 _0595_
*3382 _0596_
*3383 _0597_
*3384 _0598_
*3385 _0599_
*3386 _0600_
*3387 _0601_
*3388 _0602_
*3389 _0603_
*3390 _0604_
*3391 _0605_
*3392 _0606_
*3393 _0607_
*3394 _0608_
*3395 _0609_
*3396 _0610_
*3397 _0611_
*3398 _0612_
*3399 _0613_
*3400 _0614_
*3401 _0615_
*3402 _0616_
*3403 _0617_
*3404 _0618_
*3405 _0619_
*3406 _0620_
*3407 _0621_
*3408 _0622_
*3409 _0623_
*3410 _0624_
*3411 _0625_
*3412 _0626_
*3413 _0627_
*3414 _0628_
*3415 _0629_
*3416 _0630_
*3417 _0631_
*3418 _0632_
*3419 _0633_
*3420 _0634_
*3421 _0635_
*3422 _0636_
*3423 _0637_
*3424 _0638_
*3425 _0639_
*3426 _0640_
*3427 _0641_
*3428 _0642_
*3429 _0643_
*3430 _0644_
*3431 _0645_
*3432 _0646_
*3433 _0647_
*3434 _0648_
*3435 _0649_
*3436 _0650_
*3437 _0651_
*3438 _0652_
*3439 _0653_
*3440 _0654_
*3441 _0655_
*3442 _0656_
*3443 _0657_
*3444 _0658_
*3445 _0659_
*3446 _0660_
*3447 _0661_
*3448 _0662_
*3449 _0663_
*3450 _0664_
*3451 _0665_
*3452 _0666_
*3453 _0667_
*3454 _0668_
*3455 _0669_
*3456 _0670_
*3457 _0671_
*3458 _0672_
*3459 _0673_
*3460 _0674_
*3461 _0675_
*3462 _0676_
*3463 _0677_
*3464 _0678_
*3465 _0679_
*3466 _0680_
*3467 _0681_
*3468 _0682_
*3469 _0683_
*3470 _0684_
*3471 _0685_
*3472 _0686_
*3473 _0687_
*3474 _0688_
*3475 _0689_
*3476 _0690_
*3477 _0691_
*3478 _0692_
*3479 _0693_
*3480 _0694_
*3481 _0695_
*3482 _0696_
*3483 _0697_
*3484 _0698_
*3485 _0699_
*3486 _0700_
*3487 _0701_
*3488 _0702_
*3489 _0703_
*3490 _0704_
*3491 _0705_
*3492 _0706_
*3493 _0707_
*3494 _0708_
*3495 _0709_
*3496 _0710_
*3497 _0711_
*3498 _0712_
*3499 _0713_
*3500 _0714_
*3501 _0715_
*3502 _0716_
*3503 _0717_
*3504 _0718_
*3505 _0719_
*3506 _0720_
*3507 _0721_
*3508 _0722_
*3509 _0723_
*3510 _0724_
*3511 _0725_
*3512 _0726_
*3513 _0727_
*3514 _0728_
*3515 _0729_
*3516 _0730_
*3517 _0731_
*3518 _0732_
*3519 _0733_
*3520 _0734_
*3521 _0735_
*3522 _0736_
*3523 _0737_
*3524 _0738_
*3525 _0739_
*3526 _0740_
*3527 _0741_
*3528 _0742_
*3529 _0743_
*3530 _0744_
*3531 _0745_
*3532 _0746_
*3533 _0747_
*3534 _0748_
*3535 _0749_
*3536 _0750_
*3537 _0751_
*3538 _0752_
*3539 _0753_
*3540 _0754_
*3541 _0755_
*3542 _0756_
*3543 _0757_
*3544 _0758_
*3545 _0759_
*3546 _0760_
*3547 _0761_
*3548 _0762_
*3549 _0763_
*3550 _0764_
*3551 _0765_
*3552 _0766_
*3553 _0767_
*3554 _0768_
*3555 _0769_
*3556 _0770_
*3557 _0771_
*3558 _0772_
*3559 _0773_
*3560 _0774_
*3561 _0775_
*3562 _0776_
*3563 _0777_
*3564 _0778_
*3565 _0779_
*3566 _0780_
*3567 _0781_
*3568 _0782_
*3569 _0783_
*3570 _0784_
*3571 _0785_
*3572 _0786_
*3573 _0787_
*3574 _0788_
*3575 _0789_
*3576 _0790_
*3577 _0791_
*3578 _0792_
*3579 _0793_
*3580 _0794_
*3581 _0795_
*3582 _0796_
*3583 _0797_
*3584 _0798_
*3585 _0799_
*3586 _0800_
*3587 _0801_
*3588 _0802_
*3589 _0803_
*3590 _0804_
*3591 _0805_
*3592 _0806_
*3593 _0807_
*3594 _0808_
*3595 _0809_
*3596 _0810_
*3597 _0811_
*3598 _0812_
*3599 _0813_
*3600 _0814_
*3601 _0815_
*3602 _0816_
*3603 _0817_
*3604 _0818_
*3605 _0819_
*3606 _0820_
*3607 _0821_
*3608 _0822_
*3609 _0823_
*3610 _0824_
*3611 _0825_
*3612 _0826_
*3613 _0827_
*3614 _0828_
*3615 _0829_
*3616 _0830_
*3617 _0831_
*3618 _0832_
*3619 _0833_
*3620 _0834_
*3621 _0835_
*3622 _0836_
*3623 _0837_
*3624 _0838_
*3625 _0839_
*3626 _0840_
*3627 _0841_
*3628 _0842_
*3629 _0843_
*3630 _0844_
*3631 _0845_
*3632 _0846_
*3633 _0847_
*3634 _0848_
*3635 _0849_
*3636 _0850_
*3637 _0851_
*3638 _0852_
*3639 _0853_
*3640 _0854_
*3641 _0855_
*3642 _0856_
*3643 _0857_
*3644 _0858_
*3645 _0859_
*3646 _0860_
*3647 _0861_
*3648 _0862_
*3649 _0863_
*3650 _0864_
*3651 _0865_
*3652 _0866_
*3653 _0867_
*3654 _0868_
*3655 _0869_
*3656 _0870_
*3657 _0871_
*3658 _0872_
*3659 _0873_
*3660 _0874_
*3661 _0875_
*3662 _0876_
*3663 _0877_
*3664 _0878_
*3665 _0879_
*3666 _0880_
*3667 _0881_
*3668 _0882_
*3669 _0883_
*3670 _0884_
*3671 _0885_
*3672 _0886_
*3673 _0887_
*3674 _0888_
*3675 _0889_
*3676 _0890_
*3677 _0891_
*3678 _0892_
*3679 _0893_
*3680 _0894_
*3681 _0895_
*3682 _0896_
*3683 _0897_
*3684 _0898_
*3685 _0899_
*3686 _0900_
*3687 _0901_
*3688 _0902_
*3689 _0903_
*3690 _0904_
*3691 _0905_
*3692 _0906_
*3693 _0907_
*3694 _0908_
*3695 _0909_
*3696 _0910_
*3697 _0911_
*3698 _0912_
*3699 _0913_
*3700 _0914_
*3701 _0915_
*3702 _0916_
*3703 _0917_
*3704 _0918_
*3705 _0919_
*3706 _0920_
*3707 _0921_
*3708 _0922_
*3709 _0923_
*3710 _0924_
*3711 _0925_
*3712 _0926_
*3713 _0927_
*3714 _0928_
*3715 _0929_
*3716 _0930_
*3717 _0931_
*3718 _0932_
*3719 _0933_
*3720 _0934_
*3721 _0935_
*3722 _0936_
*3723 _0937_
*3724 _0938_
*3725 _0939_
*3726 _0940_
*3727 _0941_
*3728 _0942_
*3729 _0943_
*3730 _0944_
*3731 _0945_
*3732 _0946_
*3733 _0947_
*3734 _0948_
*3735 _0949_
*3736 _0950_
*3737 _0951_
*3738 _0952_
*3739 _0953_
*3740 _0954_
*3741 _0955_
*3742 _0956_
*3743 _0957_
*3744 _0958_
*3745 _0959_
*3746 _0960_
*3747 _0961_
*3748 _0962_
*3749 _0963_
*3750 _0964_
*3751 _0965_
*3752 _0966_
*3753 _0967_
*3754 _0968_
*3755 _0969_
*3756 _0970_
*3757 _0971_
*3758 _0972_
*3759 _0973_
*3760 _0974_
*3761 _0975_
*3762 _0976_
*3763 _0977_
*3764 _0978_
*3765 _0979_
*3766 _0980_
*3767 _0981_
*3768 _0982_
*3769 _0983_
*3770 _0984_
*3771 _0985_
*3772 _0986_
*3773 _0987_
*3774 _0988_
*3775 _0989_
*3776 _0990_
*3777 _0991_
*3778 _0992_
*3779 _0993_
*3780 _0994_
*3781 _0995_
*3782 _0996_
*3783 _0997_
*3784 _0998_
*3785 _0999_
*3786 _1000_
*3787 _1001_
*3788 _1002_
*3789 _1003_
*3790 _1004_
*3791 _1005_
*3792 _1006_
*3793 _1007_
*3794 _1008_
*3795 _1009_
*3796 _1010_
*3797 _1011_
*3798 _1012_
*3799 _1013_
*3800 _1014_
*3801 _1015_
*3802 _1016_
*3803 _1017_
*3804 _1018_
*3805 _1019_
*3806 _1020_
*3807 _1021_
*3808 _1022_
*3809 _1023_
*3810 _1024_
*3811 _1025_
*3812 _1026_
*3813 _1027_
*3814 _1028_
*3815 _1029_
*3816 _1030_
*3817 _1031_
*3818 _1032_
*3819 _1033_
*3820 _1034_
*3821 _1035_
*3822 _1036_
*3823 _1037_
*3824 _1038_
*3825 _1039_
*3826 _1040_
*3827 _1041_
*3828 _1042_
*3829 _1043_
*3830 _1044_
*3831 _1045_
*3832 _1046_
*3833 _1047_
*3834 _1048_
*3835 _1049_
*3836 _1050_
*3837 _1051_
*3838 _1052_
*3839 _1053_
*3840 _1054_
*3841 _1055_
*3842 _1056_
*3843 _1057_
*3844 _1058_
*3845 _1059_
*3846 _1060_
*3847 _1061_
*3848 _1062_
*3849 _1063_
*3850 _1064_
*3851 _1065_
*3852 _1066_
*3853 _1067_
*3854 _1068_
*3855 _1069_
*3856 _1070_
*3857 _1071_
*3858 _1072_
*3859 _1073_
*3860 _1074_
*3861 _1075_
*3862 _1076_
*3863 _1077_
*3864 _1078_
*3865 _1079_
*3866 _1080_
*3867 _1081_
*3868 _1082_
*3869 _1083_
*3870 _1084_
*3871 _1085_
*3872 _1086_
*3873 _1087_
*3874 _1088_
*3875 _1089_
*3876 _1090_
*3877 _1091_
*3878 _1092_
*3879 _1093_
*3880 _1094_
*3881 _1095_
*3882 _1096_
*3883 _1097_
*3884 _1098_
*3885 _1099_
*3886 _1100_
*3887 _1101_
*3888 _1102_
*3889 _1103_
*3890 _1104_
*3891 _1105_
*3892 _1106_
*3893 _1107_
*3894 _1108_
*3895 _1109_
*3896 _1110_
*3897 _1111_
*3898 _1112_
*3899 _1113_
*3900 _1114_
*3901 _1115_
*3902 _1116_
*3903 _1117_
*3904 _1118_
*3905 _1119_
*3906 _1120_
*3907 _1121_
*3908 _1122_
*3909 _1123_
*3910 _1124_
*3911 _1125_
*3912 _1126_
*3913 _1127_
*3914 _1128_
*3915 _1129_
*3916 _1130_
*3917 _1131_
*3918 _1132_
*3919 _1133_
*3920 _1134_
*3921 _1135_
*3922 _1136_
*3923 _1137_
*3924 _1138_
*3925 _1139_
*3926 _1140_
*3927 _1141_
*3928 _1142_
*3929 _1143_
*3930 _1144_
*3931 _1145_
*3932 _1146_
*3933 _1147_
*3934 _1148_
*3935 _1149_
*3936 _1150_
*3937 _1151_
*3938 _1152_
*3939 _1153_
*3940 _1154_
*3941 _1155_
*3942 _1156_
*3943 _1157_
*3944 _1158_
*3945 _1159_
*3946 _1160_
*3947 _1161_
*3948 _1162_
*3949 _1163_
*3950 _1164_
*3951 _1165_
*3952 _1166_
*3953 _1167_
*3954 _1168_
*3955 _1169_
*3956 _1170_
*3957 _1171_
*3958 _1172_
*3959 _1173_
*3960 _1174_
*3961 _1175_
*3962 _1176_
*3963 _1177_
*3964 _1178_
*3965 _1179_
*3966 _1180_
*3967 _1181_
*3968 _1182_
*3969 _1183_
*3970 _1184_
*3971 _1185_
*3972 _1186_
*3973 _1187_
*3974 _1188_
*3975 _1189_
*3976 _1190_
*3977 _1191_
*3978 _1192_
*3979 _1193_
*3980 _1194_
*3981 _1195_
*3982 _1196_
*3983 _1197_
*3984 _1198_
*3985 _1199_
*3986 _1200_
*3987 _1201_
*3988 _1202_
*3989 _1203_
*3990 _1204_
*3991 _1205_
*3992 _1206_
*3993 _1207_
*3994 _1208_
*3995 _1209_
*3996 _1210_
*3997 _1211_
*3998 _1212_
*3999 _1213_
*4000 _1214_
*4001 _1215_
*4002 _1216_
*4003 _1217_
*4004 _1218_
*4005 _1219_
*4006 _1220_
*4007 _1221_
*4008 _1222_
*4009 _1223_
*4010 _1224_
*4011 _1225_
*4012 _1226_
*4013 _1227_
*4014 _1228_
*4015 _1229_
*4016 _1230_
*4017 _1231_
*4018 _1232_
*4019 _1233_
*4020 _1234_
*4021 _1235_
*4022 _1236_
*4023 _1237_
*4024 _1238_
*4025 _1239_
*4026 _1240_
*4027 _1241_
*4028 _1242_
*4029 _1243_
*4030 _1244_
*4031 _1245_
*4032 _1246_
*4033 _1247_
*4034 _1248_
*4035 _1249_
*4036 _1250_
*4037 _1251_
*4038 _1252_
*4039 _1253_
*4040 _1254_
*4041 _1255_
*4042 _1256_
*4043 _1257_
*4044 _1258_
*4045 _1259_
*4046 _1260_
*4047 _1261_
*4048 _1262_
*4049 _1263_
*4050 _1264_
*4051 _1265_
*4052 _1266_
*4053 _1267_
*4054 _1268_
*4055 _1269_
*4056 _1270_
*4057 _1271_
*4058 _1272_
*4059 _1273_
*4060 _1274_
*4061 _1275_
*4062 _1276_
*4063 _1277_
*4064 _1278_
*4065 _1283_
*4066 _1284_
*4067 _1285_
*4068 _1286_
*4069 _1287_
*4070 _1288_
*4071 _1289_
*4072 _1289__129
*4073 _1290_
*4074 _1290__130
*4075 clkbuf_0_i_clk
*4076 clkbuf_2_0__f_i_clk
*4077 clkbuf_2_1__f_i_clk
*4078 clkbuf_2_2__f_i_clk
*4079 clkbuf_2_3__f_i_clk
*4080 clkbuf_leaf_0_i_clk
*4081 clkbuf_leaf_10_i_clk
*4082 clkbuf_leaf_11_i_clk
*4083 clkbuf_leaf_12_i_clk
*4084 clkbuf_leaf_13_i_clk
*4085 clkbuf_leaf_14_i_clk
*4086 clkbuf_leaf_15_i_clk
*4087 clkbuf_leaf_16_i_clk
*4088 clkbuf_leaf_17_i_clk
*4089 clkbuf_leaf_18_i_clk
*4090 clkbuf_leaf_19_i_clk
*4091 clkbuf_leaf_1_i_clk
*4092 clkbuf_leaf_20_i_clk
*4093 clkbuf_leaf_2_i_clk
*4094 clkbuf_leaf_3_i_clk
*4095 clkbuf_leaf_4_i_clk
*4096 clkbuf_leaf_5_i_clk
*4097 clkbuf_leaf_6_i_clk
*4098 clkbuf_leaf_7_i_clk
*4099 clkbuf_leaf_8_i_clk
*4100 clkbuf_leaf_9_i_clk
*4101 clkload0
*4102 clkload1
*4103 clkload10
*4104 clkload11
*4105 clkload2
*4106 clkload3
*4107 clkload4
*4108 clkload5
*4109 clkload6
*4110 clkload7
*4111 clkload8
*4112 clkload9
*4113 fanout100
*4114 fanout101
*4115 fanout103
*4116 fanout105
*4117 fanout106
*4118 fanout107
*4119 fanout109
*4120 fanout110
*4121 fanout111
*4122 fanout112
*4123 fanout113
*4124 fanout114
*4125 fanout116
*4126 fanout118
*4127 fanout119
*4128 fanout120
*4129 fanout121
*4130 fanout122
*4131 fanout123
*4132 fanout124
*4133 fanout125
*4134 fanout126
*4135 fanout127
*4136 fanout128
*4137 fanout62
*4138 fanout63
*4139 fanout64
*4140 fanout65
*4141 fanout66
*4142 fanout67
*4143 fanout68
*4144 fanout69
*4145 fanout70
*4146 fanout71
*4147 fanout72
*4148 fanout73
*4149 fanout74
*4150 fanout75
*4151 fanout76
*4152 fanout77
*4153 fanout78
*4154 fanout79
*4155 fanout80
*4156 fanout81
*4157 fanout82
*4158 fanout83
*4159 fanout84
*4160 fanout85
*4161 fanout86
*4162 fanout87
*4163 fanout88
*4164 fanout89
*4165 fanout90
*4166 fanout91
*4167 fanout92
*4168 fanout93
*4169 fanout94
*4170 fanout95
*4171 fanout97
*4172 fanout98
*4173 hold132
*4174 hold133
*4175 hold134
*4176 hold135
*4177 hold136
*4178 hold137
*4179 hold138
*4180 hold139
*4181 hold140
*4182 hold141
*4183 hold142
*4184 hold143
*4185 hold144
*4186 hold145
*4187 hold146
*4188 hold147
*4189 hold148
*4190 hold149
*4191 hold150
*4192 hold151
*4193 hold152
*4194 hold153
*4195 hold154
*4196 hold155
*4197 hold156
*4198 hold157
*4199 hold158
*4200 hold159
*4201 hold160
*4202 hold161
*4203 hold162
*4204 hold163
*4205 hold164
*4206 hold165
*4207 hold166
*4208 hold167
*4209 hold168
*4210 hold169
*4211 hold170
*4212 hold171
*4213 hold172
*4214 hold173
*4215 hold174
*4216 hold175
*4217 hold176
*4218 hold177
*4219 hold178
*4220 hold179
*4221 hold180
*4222 hold181
*4223 hold182
*4224 hold183
*4225 hold184
*4226 hold185
*4227 hold186
*4228 hold187
*4229 hold188
*4230 hold189
*4231 hold190
*4232 hold191
*4233 hold192
*4234 hold193
*4235 hold194
*4236 hold195
*4237 hold196
*4238 hold197
*4239 hold198
*4240 hold199
*4241 hold200
*4242 hold201
*4243 hold202
*4244 hold203
*4245 hold204
*4246 hold205
*4247 hold206
*4248 hold207
*4249 hold208
*4250 hold209
*4251 hold210
*4252 hold211
*4253 hold212
*4254 hold213
*4255 hold214
*4256 hold215
*4257 hold216
*4258 hold217
*4259 hold218
*4260 hold219
*4261 hold220
*4262 hold221
*4263 hold222
*4264 hold223
*4265 hold224
*4266 hold225
*4267 hold226
*4268 hold227
*4269 hold228
*4270 hold229
*4271 hold230
*4272 hold231
*4273 hold232
*4274 hold233
*4275 hold234
*4276 hold235
*4277 hold236
*4278 hold237
*4279 hold238
*4280 hold239
*4281 hold240
*4282 hold241
*4283 hold242
*4284 hold243
*4285 hold244
*4286 hold245
*4287 hold246
*4288 hold247
*4289 hold248
*4290 hold249
*4291 hold250
*4292 hold251
*4293 hold252
*4294 hold253
*4295 hold254
*4296 hold255
*4297 hold256
*4298 hold257
*4299 hold258
*4300 hold259
*4301 hold260
*4302 hold261
*4303 hold262
*4304 hold263
*4305 hold264
*4306 hold265
*4307 hold266
*4308 hold267
*4309 hold268
*4310 hold269
*4311 hold270
*4312 hold271
*4313 hold272
*4314 hold273
*4315 hold274
*4316 hold275
*4317 hold276
*4318 hold277
*4319 hold278
*4320 hold279
*4321 hold280
*4322 hold281
*4323 hold282
*4324 hold283
*4325 hold284
*4326 hold285
*4327 hold286
*4328 hold287
*4329 hold288
*4330 hold289
*4331 i2c_master_controller_top
*4332 i2c_master_controller_top_131
*4333 input1
*4334 input10
*4335 input11
*4336 input12
*4337 input13
*4338 input14
*4339 input15
*4340 input16
*4341 input17
*4342 input18
*4343 input19
*4344 input2
*4345 input20
*4346 input21
*4347 input22
*4348 input23
*4349 input24
*4350 input25
*4351 input26
*4352 input27
*4353 input28
*4354 input29
*4355 input3
*4356 input30
*4357 input31
*4358 input32
*4359 input33
*4360 input34
*4361 input35
*4362 input36
*4363 input37
*4364 input38
*4365 input39
*4366 input4
*4367 input40
*4368 input41
*4369 input42
*4370 input43
*4371 input5
*4372 input6
*4373 input7
*4374 input8
*4375 input9
*4376 load_slew102
*4377 load_slew104
*4378 load_slew108
*4379 load_slew115
*4380 load_slew117
*4381 load_slew96
*4382 load_slew99
*4383 output44
*4384 output45
*4385 output46
*4386 output47
*4387 output48
*4388 output49
*4389 output50
*4390 output51
*4391 output52
*4392 output53
*4393 output54
*4394 output55
*4395 output56
*4396 output57
*4397 output58
*4398 output59
*4399 output60
*4400 output61

*PORTS
i_byte_cnt_reg[0] I
i_byte_cnt_reg[1] I
i_byte_cnt_reg[2] I
i_byte_cnt_reg[3] I
i_byte_cnt_reg[4] I
i_byte_cnt_reg[5] I
i_byte_cnt_reg[6] I
i_byte_cnt_reg[7] I
i_clk I
i_clk_div_lsb[0] I
i_clk_div_lsb[1] I
i_clk_div_lsb[2] I
i_clk_div_lsb[3] I
i_clk_div_lsb[4] I
i_clk_div_lsb[5] I
i_clk_div_lsb[6] I
i_clk_div_lsb[7] I
i_config_reg[0] I
i_config_reg[1] I
i_config_reg[2] I
i_config_reg[3] I
i_config_reg[4] I
i_config_reg[5] I
i_mode_reg[0] I
i_mode_reg[1] I
i_mode_reg[2] I
i_mode_reg[3] I
i_mode_reg[4] I
i_mode_reg[5] I
i_mode_reg[6] I
i_mode_reg[7] I
i_rst_n I
i_slave_addr_reg[0] I
i_slave_addr_reg[1] I
i_slave_addr_reg[2] I
i_slave_addr_reg[3] I
i_slave_addr_reg[4] I
i_slave_addr_reg[5] I
i_slave_addr_reg[6] I
i_transmit_data[0] I
i_transmit_data[1] I
i_transmit_data[2] I
i_transmit_data[3] I
i_transmit_data[4] I
i_transmit_data[5] I
i_transmit_data[6] I
i_transmit_data[7] I
io_scl I
io_sda I
o_cmd_status_reg[0] O
o_cmd_status_reg[1] O
o_cmd_status_reg[2] O
o_cmd_status_reg[3] O
o_cmd_status_reg[4] O
o_cmd_status_reg[5] O
o_cmd_status_reg[6] O
o_cmd_status_reg[7] O
o_int_n O
o_receive_data[0] O
o_receive_data[1] O
o_receive_data[2] O
o_receive_data[3] O
o_receive_data[4] O
o_receive_data[5] O
o_receive_data[6] O
o_receive_data[7] O
o_received_data_valid O
o_start_ack O
o_transmit_data_request O

*D_NET *3 0.00195564
*CONN
*P i_byte_cnt_reg[0] I
*I *4333:A I *D sky130_fd_sc_hd__clkdlybuf4s25_1
*CAP
1 i_byte_cnt_reg[0] 0.000705212
2 *4333:A 0.000705212
3 *4333:A *3642:A1 7.23602e-05
4 *4333:A *3646:A1 7.33378e-05
5 *4333:A *3868:D 0.00019116
6 *4333:A *3870:CLK 0
7 *4333:A *3870:D 3.97211e-05
8 *4333:A *4355:A 0.000168635
9 *4333:A *4373:A 0
10 *4333:A *909:63 0
*RES
1 i_byte_cnt_reg[0] *4333:A 10.5278 
*END

*D_NET *4 0.00205545
*CONN
*P i_byte_cnt_reg[1] I
*I *4344:A I *D sky130_fd_sc_hd__clkdlybuf4s25_1
*CAP
1 i_byte_cnt_reg[1] 0.000738413
2 *4344:A 0.000738413
3 *4344:A o_receive_data[6] 6.97202e-05
4 *4344:A o_receive_data[7] 0.000235927
5 *4344:A *4372:A 0.000235927
6 *4344:A *4374:A 0
7 *4344:A *4396:A 3.70488e-05
*RES
1 i_byte_cnt_reg[1] *4344:A 15.9953 
*END

*D_NET *5 0.000945099
*CONN
*P i_byte_cnt_reg[2] I
*I *4355:A I *D sky130_fd_sc_hd__clkdlybuf4s25_1
*CAP
1 i_byte_cnt_reg[2] 0.000388232
2 *4355:A 0.000388232
3 *4355:A *4373:A 0
4 *4333:A *4355:A 0.000168635
*RES
1 i_byte_cnt_reg[2] *4355:A 9.1455 
*END

*D_NET *6 0.00176897
*CONN
*P i_byte_cnt_reg[3] I
*I *4366:A I *D sky130_fd_sc_hd__clkdlybuf4s25_1
*CAP
1 i_byte_cnt_reg[3] 0.000515226
2 *4366:A 0.000515226
3 *4366:A o_receive_data[6] 0.000385063
4 *4366:A *3647:A1 0
5 *4366:A *3875:D 0
6 *4366:A *4374:A 0.000353461
*RES
1 i_byte_cnt_reg[3] *4366:A 11.5466 
*END

*D_NET *7 0.00154992
*CONN
*P i_byte_cnt_reg[4] I
*I *4371:A I *D sky130_fd_sc_hd__clkdlybuf4s25_1
*CAP
1 i_byte_cnt_reg[4] 0.000704011
2 *4371:A 0.000704011
3 *4371:A *4373:A 0.0001419
*RES
1 i_byte_cnt_reg[4] *4371:A 15.0422 
*END

*D_NET *8 0.00368055
*CONN
*P i_byte_cnt_reg[5] I
*I *4372:A I *D sky130_fd_sc_hd__clkdlybuf4s25_1
*CAP
1 i_byte_cnt_reg[5] 0.000808137
2 *4372:A 0.000808137
3 *4372:A o_receive_data[6] 0.000593063
4 *4372:A o_receive_data[7] 7.50183e-05
5 *4372:A *3645:A1 0
6 *4372:A *3647:A1 0
7 *4372:A *3870:CLK 0.000105849
8 *4372:A *3873:CLK 0.000184423
9 *4372:A *4374:A 0.000647559
10 *4372:A *619:59 0.00011562
11 *4372:A *623:33 0.000106819
12 *4344:A *4372:A 0.000235927
*RES
1 i_byte_cnt_reg[5] *4372:A 21.6832 
*END

*D_NET *9 0.00170485
*CONN
*P i_byte_cnt_reg[6] I
*I *4373:A I *D sky130_fd_sc_hd__clkdlybuf4s25_1
*CAP
1 i_byte_cnt_reg[6] 0.000749985
2 *4373:A 0.000749985
3 *4373:A *3868:D 0
4 *4373:A *3870:CLK 0
5 *4373:A *4303:A 6.29758e-05
6 *4333:A *4373:A 0
7 *4355:A *4373:A 0
8 *4371:A *4373:A 0.0001419
*RES
1 i_byte_cnt_reg[6] *4373:A 13.1216 
*END

*D_NET *10 0.00245594
*CONN
*P i_byte_cnt_reg[7] I
*I *4374:A I *D sky130_fd_sc_hd__clkdlybuf4s25_1
*CAP
1 i_byte_cnt_reg[7] 0.000544987
2 *4374:A 0.000544987
3 *4374:A o_receive_data[6] 3.63701e-06
4 *4374:A *3873:CLK 0.000186083
5 *4374:A *623:33 0.000175229
6 *4344:A *4374:A 0
7 *4366:A *4374:A 0.000353461
8 *4372:A *4374:A 0.000647559
*RES
1 i_byte_cnt_reg[7] *4374:A 15.4166 
*END

*D_NET *11 0.0168552
*CONN
*P i_clk I
*I *4075:A I *D sky130_fd_sc_hd__clkbuf_16
*CAP
1 i_clk 0.00252762
2 *4075:A 0.000110179
3 *11:14 0.00142622
4 *11:10 0.00350757
5 *11:8 0.00471915
6 *4075:A *3361:A 0
7 *4075:A *120:12 1.86315e-05
8 *11:8 *3505:A 0.000106897
9 *11:8 *4347:A 0.000346313
10 *11:10 *3359:A 1.04903e-05
11 *11:10 *3367:B 4.06273e-05
12 *11:10 *3377:B1 1.1545e-05
13 *11:10 *3381:B1 0
14 *11:10 *3677:B 1.04858e-05
15 *11:10 *3678:S 0
16 *11:10 *3716:A 7.08148e-05
17 *11:10 *3717:B1 0.000157154
18 *11:10 *3745:A1 5.86455e-06
19 *11:10 *3748:A1 0.000351191
20 *11:10 *3749:A1 0
21 *11:10 *3766:A1 0.000105648
22 *11:10 *3766:A2 0
23 *11:10 *3850:A1 3.94899e-06
24 *11:10 *3850:A2 9.83935e-05
25 *11:10 *3917:RESET_B 0.000212793
26 *11:10 *3918:CLK 0
27 *11:10 *3918:D 7.48967e-05
28 *11:10 *3919:D 7.10414e-05
29 *11:10 *3921:CLK 0.000314532
30 *11:10 *3982:CLK 1.3941e-05
31 *11:10 *4041:CLK 1.16667e-05
32 *11:10 *4041:D 0
33 *11:10 *4042:CLK 0
34 *11:10 *4042:RESET_B 7.1837e-05
35 *11:10 *4052:D 7.37738e-05
36 *11:10 *4053:RESET_B 0
37 *11:10 *4094:A 0
38 *11:10 *4175:A 0
39 *11:10 *4229:A 7.02257e-05
40 *11:10 *51:12 0.000149347
41 *11:10 *392:10 0.000175322
42 *11:10 *392:25 0.000211997
43 *11:10 *392:29 0.000226491
44 *11:10 *392:44 0.000100745
45 *11:10 *396:24 2.95392e-06
46 *11:10 *396:57 4.86948e-06
47 *11:10 *622:78 3.13596e-06
48 *11:10 *622:80 1.97449e-06
49 *11:10 *625:86 9.37403e-05
50 *11:10 *877:14 0
51 *11:10 *890:27 0
52 *11:10 *891:10 0.000108139
53 *11:10 *891:34 0.000275488
54 *11:10 *907:32 0
55 *11:10 *943:21 8.04571e-05
56 *11:10 *1042:10 4.25561e-05
57 *11:10 *1042:25 3.5724e-05
58 *11:14 *3361:A 0.000419205
59 *11:14 *3909:CLK 0.00013497
60 *11:14 *72:10 2.92299e-05
61 *11:14 *120:12 1.87227e-05
62 *11:14 *907:32 0.000196702
*RES
1 i_clk *11:8 6.27853 
2 *11:8 *11:10 50.9775 
3 *11:10 *11:14 22.0662 
4 *11:14 *4075:A 3.40375 
*END

*D_NET *13 0.00229191
*CONN
*P i_clk_div_lsb[1] I
*I *4375:A I *D sky130_fd_sc_hd__clkdlybuf4s25_1
*CAP
1 i_clk_div_lsb[1] 0.00065575
2 *4375:A 0.00065575
3 *4375:A *3405:A 0
4 *4375:A *3410:A1 5.25737e-05
5 *4375:A *3410:A2 0
6 *4375:A *3410:D1 0.000137458
7 *4375:A *4334:A 0.000367261
8 *4375:A *4335:A 1.96305e-05
9 *4375:A *4336:A 0
10 *4375:A *4337:A 0
11 *4375:A *4391:A 0.00011733
12 *4375:A *4392:A 8.75474e-05
13 *4375:A *631:27 0.00010294
14 *4375:A *642:14 1.16423e-05
15 *4375:A *906:12 8.40269e-05
*RES
1 i_clk_div_lsb[1] *4375:A 10.781 
*END

*D_NET *14 0.00250588
*CONN
*P i_clk_div_lsb[2] I
*I *4334:A I *D sky130_fd_sc_hd__clkdlybuf4s25_1
*CAP
1 i_clk_div_lsb[2] 0.000443812
2 *4334:A 0.000443812
3 *4334:A o_receive_data[1] 0.000475213
4 *4334:A o_receive_data[4] 0.000276316
5 *4334:A *4335:A 0.000499467
6 *4375:A *4334:A 0.000367261
*RES
1 i_clk_div_lsb[2] *4334:A 13.6299 
*END

*D_NET *15 0.00299374
*CONN
*P i_clk_div_lsb[3] I
*I *4335:A I *D sky130_fd_sc_hd__clkdlybuf4s25_1
*CAP
1 i_clk_div_lsb[3] 0.000489501
2 *4335:A 0.000489501
3 *4335:A o_receive_data[1] 0.000390046
4 *4335:A *4337:A 0.000934834
5 *4335:A *4338:A 0.000124895
6 *4335:A *4394:A 4.58651e-05
7 *4335:A *414:23 0
8 *4335:A *642:14 0
9 *4334:A *4335:A 0.000499467
10 *4375:A *4335:A 1.96305e-05
*RES
1 i_clk_div_lsb[3] *4335:A 15.2014 
*END

*D_NET *16 0.0018786
*CONN
*P i_clk_div_lsb[4] I
*I *4336:A I *D sky130_fd_sc_hd__clkdlybuf4s25_1
*CAP
1 i_clk_div_lsb[4] 0.000481589
2 *4336:A 0.000481589
3 *4336:A *4337:A 0.000433708
4 *4336:A *4391:A 0.000239681
5 *4336:A *642:14 0.000242036
6 *4375:A *4336:A 0
*RES
1 i_clk_div_lsb[4] *4336:A 8.23277 
*END

*D_NET *17 0.00254158
*CONN
*P i_clk_div_lsb[5] I
*I *4337:A I *D sky130_fd_sc_hd__clkdlybuf4s25_1
*CAP
1 i_clk_div_lsb[5] 0.000454141
2 *4337:A 0.000454141
3 *4337:A *4391:A 6.5265e-05
4 *4337:A *4394:A 0.000169447
5 *4337:A *631:10 3.00381e-05
6 *4337:A *642:14 0
7 *4335:A *4337:A 0.000934834
8 *4336:A *4337:A 0.000433708
9 *4375:A *4337:A 0
*RES
1 i_clk_div_lsb[5] *4337:A 12.7997 
*END

*D_NET *18 0.00139521
*CONN
*P i_clk_div_lsb[6] I
*I *4338:A I *D sky130_fd_sc_hd__clkdlybuf4s25_1
*CAP
1 i_clk_div_lsb[6] 0.000459494
2 *4338:A 0.000459494
3 *4338:A *3406:B1 0
4 *4338:A *3414:B 1.7386e-05
5 *4338:A *4339:A 0.000283983
6 *4338:A *642:6 4.99619e-05
7 *4335:A *4338:A 0.000124895
*RES
1 i_clk_div_lsb[6] *4338:A 9.55683 
*END

*D_NET *19 0.0012009
*CONN
*P i_clk_div_lsb[7] I
*I *4339:A I *D sky130_fd_sc_hd__clkdlybuf4s25_1
*CAP
1 i_clk_div_lsb[7] 0.000458457
2 *4339:A 0.000458457
3 *4339:A *3414:B 0
4 *4339:A *3415:B1 0
5 *4339:A *4347:A 0
6 *4338:A *4339:A 0.000283983
*RES
1 i_clk_div_lsb[7] *4339:A 8.78663 
*END

*D_NET *20 0.00180652
*CONN
*P i_config_reg[0] I
*I *4340:A I *D sky130_fd_sc_hd__clkdlybuf4s25_1
*CAP
1 i_config_reg[0] 0.000774354
2 *4340:A 0.000774354
3 *4340:A o_received_data_valid 0
4 *4340:A *4179:A 0.000257815
5 *4340:A *4349:A 0
*RES
1 i_config_reg[0] *4340:A 17.295 
*END

*D_NET *21 0.0039705
*CONN
*P i_config_reg[1] I
*I *4341:A I *D sky130_fd_sc_hd__clkdlybuf4s25_1
*CAP
1 i_config_reg[1] 0.000958934
2 *4341:A 0.000958934
3 *4341:A o_cmd_status_reg[5] 0.000664695
4 *4341:A o_int_n 0.000145315
5 *4341:A *3395:A 0
6 *4341:A *3876:RESET_B 0.000153355
7 *4341:A *3967:CLK 7.46926e-05
8 *4341:A *3969:CLK 0.000193167
9 *4341:A *3973:RESET_B 4.53767e-05
10 *4341:A *4069:A 0.000162342
11 *4341:A *4085:A 0.000233597
12 *4341:A *4125:A 0
13 *4341:A *4128:A 8.33066e-06
14 *4341:A *4346:A 0
15 *4341:A *4387:A 0.000261045
16 *4341:A *654:10 0
17 *4341:A *910:10 9.02561e-05
18 *4341:A *910:50 2.04591e-05
*RES
1 i_config_reg[1] *4341:A 28.77 
*END

*D_NET *22 0.00142581
*CONN
*P i_config_reg[2] I
*I *4342:A I *D sky130_fd_sc_hd__clkdlybuf4s25_1
*CAP
1 i_config_reg[2] 0.000390287
2 *4342:A 0.000390287
3 *4342:A o_cmd_status_reg[3] 0.000217054
4 *4342:A o_cmd_status_reg[4] 0
5 *4342:A o_cmd_status_reg[6] 0.000124895
6 *4342:A o_cmd_status_reg[7] 0
7 *4342:A *4343:A 0.000229716
8 *4342:A *4387:A 7.35729e-05
*RES
1 i_config_reg[2] *4342:A 13.74 
*END

*D_NET *23 0.00590137
*CONN
*P i_config_reg[3] I
*I *4343:A I *D sky130_fd_sc_hd__clkdlybuf4s25_1
*CAP
1 i_config_reg[3] 0.000970679
2 *4343:A 0.000970679
3 *4343:A o_cmd_status_reg[3] 0.000460271
4 *4343:A o_cmd_status_reg[7] 0.00225544
5 *4343:A o_int_n 0.000125284
6 *4343:A *4346:A 0.000889307
7 *4343:A *4383:A 0
8 *4342:A *4343:A 0.000229716
*RES
1 i_config_reg[3] *4343:A 38.545 
*END

*D_NET *24 0.00158119
*CONN
*P i_config_reg[4] I
*I *4345:A I *D sky130_fd_sc_hd__clkdlybuf4s25_1
*CAP
1 i_config_reg[4] 0.000697064
2 *4345:A 0.000697064
3 *4345:A *3639:A1 0
4 *4345:A *3962:CLK 0.000187064
5 *4345:A *4349:A 0
6 *4345:A *4350:A 0
*RES
1 i_config_reg[4] *4345:A 16.995 
*END

*D_NET *25 0.00344446
*CONN
*P i_config_reg[5] I
*I *4346:A I *D sky130_fd_sc_hd__clkdlybuf4s25_1
*CAP
1 i_config_reg[5] 0.000850912
2 *4346:A 0.000850912
3 *4346:A o_cmd_status_reg[2] 2.89488e-05
4 *4346:A o_int_n 0.000534166
5 *4346:A *3863:RESET_B 0
6 *4346:A *3964:CLK 0.000290215
7 *4346:A *3964:D 0
8 *4346:A *4383:A 0
9 *4346:A *4389:A 0
10 *4341:A *4346:A 0
11 *4343:A *4346:A 0.000889307
*RES
1 i_config_reg[5] *4346:A 28.825 
*END

*D_NET *26 0.000894602
*CONN
*P i_mode_reg[0] I
*I *4347:A I *D sky130_fd_sc_hd__clkdlybuf4s25_1
*CAP
1 i_mode_reg[0] 0.000274144
2 *4347:A 0.000274144
3 *4347:A *3415:B1 0
4 *4347:A *416:30 0
5 *4339:A *4347:A 0
6 *11:8 *4347:A 0.000346313
*RES
1 i_mode_reg[0] *4347:A 5.98163 
*END

*D_NET *27 0.00122255
*CONN
*P i_mode_reg[1] I
*I *4348:A I *D sky130_fd_sc_hd__clkdlybuf4s25_1
*CAP
1 i_mode_reg[1] 0.000611277
2 *4348:A 0.000611277
*RES
1 i_mode_reg[1] *4348:A 14.3475 
*END

*D_NET *29 0.00214197
*CONN
*P i_mode_reg[3] I
*I *4349:A I *D sky130_fd_sc_hd__clkdlybuf4s25_1
*CAP
1 i_mode_reg[3] 0.00107099
2 *4349:A 0.00107099
3 *4349:A o_received_data_valid 0
4 *4340:A *4349:A 0
5 *4345:A *4349:A 0
*RES
1 i_mode_reg[3] *4349:A 18.78 
*END

*D_NET *31 0.00217588
*CONN
*P i_mode_reg[5] I
*I *4350:A I *D sky130_fd_sc_hd__clkdlybuf4s25_1
*CAP
1 i_mode_reg[5] 0.000778257
2 *4350:A 0.000778257
3 *4350:A *3638:A1 0.000547916
4 *4350:A *3639:A1 4.35348e-05
5 *4350:A *4361:A 2.7919e-05
6 *4345:A *4350:A 0
*RES
1 i_mode_reg[5] *4350:A 18.84 
*END

*D_NET *32 0.00227812
*CONN
*P i_mode_reg[6] I
*I *4351:A I *D sky130_fd_sc_hd__clkdlybuf4s25_1
*CAP
1 i_mode_reg[6] 0.000555103
2 *4351:A 0.000555103
3 *4351:A *4147:A 0.000399843
4 *4351:A *4352:A 0.000414925
5 *4351:A *828:42 0.000353151
*RES
1 i_mode_reg[6] *4351:A 12.8454 
*END

*D_NET *33 0.00181134
*CONN
*P i_mode_reg[7] I
*I *4352:A I *D sky130_fd_sc_hd__clkdlybuf4s25_1
*CAP
1 i_mode_reg[7] 0.000521142
2 *4352:A 0.000521142
3 *4352:A *4187:A 0.000241156
4 *4352:A *828:42 0.000112971
5 *4351:A *4352:A 0.000414925
*RES
1 i_mode_reg[7] *4352:A 11.8606 
*END

*D_NET *34 0.000914515
*CONN
*P i_rst_n I
*I *4353:A I *D sky130_fd_sc_hd__clkdlybuf4s25_1
*CAP
1 i_rst_n 0.000277712
2 *4353:A 0.000277712
3 *4353:A o_cmd_status_reg[0] 0.00035909
4 *4353:A *910:20 0
*RES
1 i_rst_n *4353:A 5.99557 
*END

*D_NET *35 0.00550107
*CONN
*P i_slave_addr_reg[0] I
*I *4354:A I *D sky130_fd_sc_hd__clkdlybuf4s25_1
*CAP
1 i_slave_addr_reg[0] 0.00180771
2 *4354:A 0.00180771
3 *4354:A *3472:A 1.52184e-05
4 *4354:A *3644:S 0
5 *4354:A *4356:A 0
6 *4354:A *4368:A 0.00182806
7 *4354:A *909:37 4.23658e-05
*RES
1 i_slave_addr_reg[0] *4354:A 14.8852 
*END

*D_NET *36 0.00258667
*CONN
*P i_slave_addr_reg[1] I
*I *4356:A I *D sky130_fd_sc_hd__clkdlybuf4s25_1
*CAP
1 i_slave_addr_reg[1] 0.00106335
2 *4356:A 0.00106335
3 *4356:A o_transmit_data_request 1.88656e-05
4 *4356:A *3484:A2 0.000165983
5 *4356:A *3485:D 1.7635e-05
6 *4356:A *3691:A1 1.92979e-05
7 *4356:A *3693:A1 0
8 *4356:A *3697:A1 4.82863e-05
9 *4356:A *4108:A 0
10 *4356:A *4359:A 0.000141606
11 *4356:A *4365:A 0
12 *4356:A *4367:A 0
13 *4356:A *4400:A 0
14 *4356:A *427:67 0
15 *4356:A *620:21 4.82863e-05
16 *4354:A *4356:A 0
*RES
1 i_slave_addr_reg[1] *4356:A 22.62 
*END

*D_NET *37 0.00297788
*CONN
*P i_slave_addr_reg[2] I
*I *4357:A I *D sky130_fd_sc_hd__clkdlybuf4s25_1
*CAP
1 i_slave_addr_reg[2] 0.00071498
2 *4357:A 0.00071498
3 *4357:A o_transmit_data_request 0.000495731
4 *4357:A *3485:A 0
5 *4357:A *3485:B 1.55369e-05
6 *4357:A *3629:S 1.44259e-05
7 *4357:A *3695:A0 1.07797e-05
8 *4357:A *3695:A1 0.000288917
9 *4357:A *3701:A1 0.000156621
10 *4357:A *3858:RESET_B 0.000314802
11 *4357:A *3861:CLK 0.000235573
12 *4357:A *427:43 1.55369e-05
*RES
1 i_slave_addr_reg[2] *4357:A 25.405 
*END

*D_NET *38 0.000852987
*CONN
*P i_slave_addr_reg[3] I
*I *4358:A I *D sky130_fd_sc_hd__clkdlybuf4s25_1
*CAP
1 i_slave_addr_reg[3] 0.000426493
2 *4358:A 0.000426493
3 *4358:A *3691:A1 0
*RES
1 i_slave_addr_reg[3] *4358:A 6.74663 
*END

*D_NET *39 0.00291642
*CONN
*P i_slave_addr_reg[4] I
*I *4359:A I *D sky130_fd_sc_hd__clkdlybuf4s25_1
*CAP
1 i_slave_addr_reg[4] 0.000982787
2 *4359:A 0.000982787
3 *4359:A *4363:A 0
4 *4359:A *4364:A 0
5 *4359:A *4365:A 0.000809242
6 *4359:A *4368:A 0
7 *4356:A *4359:A 0.000141606
*RES
1 i_slave_addr_reg[4] *4359:A 26.815 
*END

*D_NET *40 0.00214011
*CONN
*P i_slave_addr_reg[5] I
*I *4360:A I *D sky130_fd_sc_hd__clkdlybuf4s25_1
*CAP
1 i_slave_addr_reg[5] 0.000794146
2 *4360:A 0.000794146
3 *4360:A *3632:A0 3.00381e-05
4 *4360:A *3632:A1 0.0001249
5 *4360:A *3687:B1 6.10796e-05
6 *4360:A *3861:D 2.75229e-05
7 *4360:A *3862:D 5.83121e-06
8 *4360:A *4369:A 0
9 *4360:A *4370:A 0
10 *4360:A *845:6 0.000123225
11 *4360:A *845:10 0
12 *4360:A *908:18 0.000163199
13 *4360:A *908:32 1.60203e-05
*RES
1 i_slave_addr_reg[5] *4360:A 18.795 
*END

*D_NET *41 0.00126256
*CONN
*P i_slave_addr_reg[6] I
*I *4361:A I *D sky130_fd_sc_hd__clkdlybuf4s25_1
*CAP
1 i_slave_addr_reg[6] 0.000396304
2 *4361:A 0.000396304
3 *4361:A *4362:A 0.000442037
4 *4350:A *4361:A 2.7919e-05
*RES
1 i_slave_addr_reg[6] *4361:A 13.155 
*END

*D_NET *42 0.00176593
*CONN
*P i_transmit_data[0] I
*I *4362:A I *D sky130_fd_sc_hd__clkdlybuf4s25_1
*CAP
1 i_transmit_data[0] 0.000478014
2 *4362:A 0.000478014
3 *4362:A *3638:A1 0.000119631
4 *4362:A *3687:B1 4.92935e-05
5 *4362:A *4370:A 0.000198939
6 *4361:A *4362:A 0.000442037
*RES
1 i_transmit_data[0] *4362:A 15.81 
*END

*D_NET *43 0.00522816
*CONN
*P i_transmit_data[1] I
*I *4363:A I *D sky130_fd_sc_hd__clkdlybuf4s25_1
*CAP
1 i_transmit_data[1] 0.00189693
2 *4363:A 0.00189693
3 *4363:A *3627:A0 0
4 *4363:A *3627:A1 0
5 *4363:A *3857:D 0.000277029
6 *4363:A *4364:A 0.000252639
7 *4363:A *4367:A 1.37311e-05
8 *4363:A *908:73 0.000206874
9 *4363:A *908:77 0.00037261
10 *4363:A *909:37 0.000311408
11 *4359:A *4363:A 0
*RES
1 i_transmit_data[1] *4363:A 45.145 
*END

*D_NET *44 0.00385915
*CONN
*P i_transmit_data[2] I
*I *4364:A I *D sky130_fd_sc_hd__clkdlybuf4s25_1
*CAP
1 i_transmit_data[2] 0.00111887
2 *4364:A 0.00111887
3 *4364:A *3627:A0 4.99619e-05
4 *4364:A *3627:A1 0.000112631
5 *4364:A *3627:S 3.00381e-05
6 *4364:A *3693:A1 0.000611599
7 *4364:A *3695:A1 0.000345394
8 *4364:A *4367:A 0
9 *4364:A *4368:A 0
10 *4364:A *844:14 0.000219145
11 *4359:A *4364:A 0
12 *4363:A *4364:A 0.000252639
*RES
1 i_transmit_data[2] *4364:A 28.74 
*END

*D_NET *45 0.00404634
*CONN
*P i_transmit_data[3] I
*I *4365:A I *D sky130_fd_sc_hd__clkdlybuf4s25_1
*CAP
1 i_transmit_data[3] 0.00139393
2 *4365:A 0.00139393
3 *4365:A o_transmit_data_request 0.000405158
4 *4365:A *4367:A 4.40812e-05
5 *4356:A *4365:A 0
6 *4359:A *4365:A 0.000809242
*RES
1 i_transmit_data[3] *4365:A 29.575 
*END

*D_NET *46 0.00420761
*CONN
*P i_transmit_data[4] I
*I *4367:A I *D sky130_fd_sc_hd__clkdlybuf4s25_1
*CAP
1 i_transmit_data[4] 0.00178083
2 *4367:A 0.00178083
3 *4367:A o_transmit_data_request 0.00042292
4 *4367:A *3485:D 0
5 *4367:A *3627:A1 2.3038e-05
6 *4367:A *3691:A1 0
7 *4367:A *4321:A 0.000142166
8 *4356:A *4367:A 0
9 *4363:A *4367:A 1.37311e-05
10 *4364:A *4367:A 0
11 *4365:A *4367:A 4.40812e-05
*RES
1 i_transmit_data[4] *4367:A 18.1939 
*END

*D_NET *47 0.00727092
*CONN
*P i_transmit_data[5] I
*I *4368:A I *D sky130_fd_sc_hd__clkdlybuf4s25_1
*CAP
1 i_transmit_data[5] 0.00261783
2 *4368:A 0.00261783
3 *4368:A *3484:B1 5.70185e-05
4 *4368:A *3699:A1 0.000102368
5 *4368:A *3901:D 2.98644e-05
6 *4368:A *982:48 1.79483e-05
7 *4354:A *4368:A 0.00182806
8 *4359:A *4368:A 0
9 *4364:A *4368:A 0
*RES
1 i_transmit_data[5] *4368:A 17.5805 
*END

*D_NET *48 0.00296736
*CONN
*P i_transmit_data[6] I
*I *4369:A I *D sky130_fd_sc_hd__clkdlybuf4s25_1
*CAP
1 i_transmit_data[6] 0.00120586
2 *4369:A 0.00120586
3 *4369:A *3629:A0 8.65905e-05
4 *4369:A *3629:A1 4.82919e-05
5 *4369:A *3629:S 3.00381e-05
6 *4369:A *3701:A1 0.000248872
7 *4369:A *3703:A1 7.07032e-05
8 *4369:A *3858:RESET_B 1.33293e-05
9 *4369:A *4370:A 5.78206e-05
10 *4360:A *4369:A 0
*RES
1 i_transmit_data[6] *4369:A 24.405 
*END

*D_NET *49 0.00186052
*CONN
*P i_transmit_data[7] I
*I *4370:A I *D sky130_fd_sc_hd__clkdlybuf4s25_1
*CAP
1 i_transmit_data[7] 0.000755226
2 *4370:A 0.000755226
3 *4370:A *3687:B1 9.3305e-05
4 *4360:A *4370:A 0
5 *4362:A *4370:A 0.000198939
6 *4369:A *4370:A 5.78206e-05
*RES
1 i_transmit_data[7] *4370:A 17.295 
*END

*D_NET *50 0.0029913
*CONN
*P io_scl I
*I *3360:A I *D sky130_fd_sc_hd__inv_2
*I *4071:Z O *D sky130_fd_sc_hd__ebufn_2
*CAP
1 io_scl 0.00106554
2 *3360:A 0.000174174
3 *4071:Z 0.000204233
4 *50:8 0.00144395
5 *50:8 *4044:D 5.2089e-05
6 *50:8 *4045:RESET_B 5.13155e-05
7 *50:8 *4071:A 0
*RES
1 *4071:Z *50:8 7.53 
2 *50:8 *3360:A 6.12 
3 *50:8 io_scl 18.4575 
*END

*D_NET *51 0.00618686
*CONN
*P io_sda I
*I *3359:A I *D sky130_fd_sc_hd__inv_2
*I *4073:Z O *D sky130_fd_sc_hd__ebufn_2
*CAP
1 io_sda 0.0021995
2 *3359:A 9.32359e-05
3 *4073:Z 0.000179263
4 *51:12 0.002472
5 io_sda o_receive_data[0] 0.000395001
6 io_sda o_receive_data[5] 0.000461071
7 *3359:A *4042:CLK 4.19967e-05
8 *3359:A *4053:RESET_B 1.00941e-05
9 *3359:A *622:17 7.23943e-06
10 *51:12 *4053:RESET_B 0.000137585
11 *51:12 *889:57 3.00381e-05
12 *11:10 *3359:A 1.04903e-05
13 *11:10 *51:12 0.000149347
*RES
1 *4073:Z *51:12 8.5575 
2 *51:12 io_sda 6.04547 
3 *51:12 *3359:A 5.3625 
*END

*D_NET *52 0.000815936
*CONN
*P o_cmd_status_reg[0] O
*I *4331:LO O *D sky130_fd_sc_hd__conb_1
*CAP
1 o_cmd_status_reg[0] 0.000228423
2 *4331:LO 0.000228423
3 *4353:A o_cmd_status_reg[0] 0.00035909
*RES
1 *4331:LO o_cmd_status_reg[0] 5.23057 
*END

*D_NET *53 0.000863666
*CONN
*P o_cmd_status_reg[1] O
*I *4332:LO O *D sky130_fd_sc_hd__conb_1
*CAP
1 o_cmd_status_reg[1] 0.000431833
2 *4332:LO 0.000431833
*RES
1 *4332:LO o_cmd_status_reg[1] 10.0692 
*END

*D_NET *54 0.00279535
*CONN
*P o_cmd_status_reg[2] O
*I *4383:X O *D sky130_fd_sc_hd__clkdlybuf4s25_1
*CAP
1 o_cmd_status_reg[2] 0.00136779
2 *4383:X 0.00136779
3 o_cmd_status_reg[2] o_int_n 3.08239e-05
4 *4346:A o_cmd_status_reg[2] 2.89488e-05
*RES
1 *4383:X o_cmd_status_reg[2] 31.48 
*END

*D_NET *55 0.00489002
*CONN
*P o_cmd_status_reg[3] O
*I *4384:X O *D sky130_fd_sc_hd__clkdlybuf4s25_1
*CAP
1 o_cmd_status_reg[3] 0.00122763
2 *4384:X 0.00122763
3 o_cmd_status_reg[3] o_cmd_status_reg[4] 0.000218929
4 o_cmd_status_reg[3] o_cmd_status_reg[6] 0
5 o_cmd_status_reg[3] *3394:A3 0
6 o_cmd_status_reg[3] *3395:C 0.000925643
7 o_cmd_status_reg[3] *3659:A0 0.000295068
8 o_cmd_status_reg[3] *3880:RESET_B 0.000202969
9 o_cmd_status_reg[3] *4168:A 3.5644e-05
10 o_cmd_status_reg[3] *4385:A 0
11 o_cmd_status_reg[3] *543:25 4.11678e-06
12 o_cmd_status_reg[3] *648:16 7.50642e-05
13 *4342:A o_cmd_status_reg[3] 0.000217054
14 *4343:A o_cmd_status_reg[3] 0.000460271
*RES
1 *4384:X o_cmd_status_reg[3] 37.105 
*END

*D_NET *56 0.00216924
*CONN
*P o_cmd_status_reg[4] O
*I *4385:X O *D sky130_fd_sc_hd__clkdlybuf4s25_1
*CAP
1 o_cmd_status_reg[4] 0.000736587
2 *4385:X 0.000736587
3 o_cmd_status_reg[4] o_cmd_status_reg[6] 0.000465398
4 o_cmd_status_reg[4] o_received_data_valid 0
5 o_cmd_status_reg[4] *4387:A 1.17409e-05
6 o_cmd_status_reg[3] o_cmd_status_reg[4] 0.000218929
7 *4342:A o_cmd_status_reg[4] 0
*RES
1 *4385:X o_cmd_status_reg[4] 16.68 
*END

*D_NET *57 0.00342571
*CONN
*P o_cmd_status_reg[5] O
*I *4386:X O *D sky130_fd_sc_hd__clkdlybuf4s25_1
*CAP
1 o_cmd_status_reg[5] 0.000715689
2 *4386:X 0.000715689
3 o_cmd_status_reg[5] o_cmd_status_reg[6] 0.000251276
4 o_cmd_status_reg[5] o_cmd_status_reg[7] 0.000773507
5 o_cmd_status_reg[5] *910:10 0.00030485
6 *4341:A o_cmd_status_reg[5] 0.000664695
*RES
1 *4386:X o_cmd_status_reg[5] 27.28 
*END

*D_NET *58 0.00247251
*CONN
*P o_cmd_status_reg[6] O
*I *4387:X O *D sky130_fd_sc_hd__clkdlybuf4s25_1
*CAP
1 o_cmd_status_reg[6] 0.000582276
2 *4387:X 0.000582276
3 o_cmd_status_reg[6] o_cmd_status_reg[7] 0.000238613
4 o_cmd_status_reg[6] *4168:A 2.97004e-06
5 o_cmd_status_reg[6] *4387:A 0.000224808
6 o_cmd_status_reg[3] o_cmd_status_reg[6] 0
7 o_cmd_status_reg[4] o_cmd_status_reg[6] 0.000465398
8 o_cmd_status_reg[5] o_cmd_status_reg[6] 0.000251276
9 *4342:A o_cmd_status_reg[6] 0.000124895
*RES
1 *4387:X o_cmd_status_reg[6] 19.005 
*END

*D_NET *59 0.00616433
*CONN
*P o_cmd_status_reg[7] O
*I *4388:X O *D sky130_fd_sc_hd__clkdlybuf4s25_1
*CAP
1 o_cmd_status_reg[7] 0.00110382
2 *4388:X 0.00110382
3 o_cmd_status_reg[7] o_int_n 0.000615474
4 o_cmd_status_reg[7] *4383:A 7.3664e-05
5 o_cmd_status_reg[5] o_cmd_status_reg[7] 0.000773507
6 o_cmd_status_reg[6] o_cmd_status_reg[7] 0.000238613
7 *4342:A o_cmd_status_reg[7] 0
8 *4343:A o_cmd_status_reg[7] 0.00225544
*RES
1 *4388:X o_cmd_status_reg[7] 41.11 
*END

*D_NET *60 0.00390469
*CONN
*P o_int_n O
*I *4389:X O *D sky130_fd_sc_hd__clkdlybuf4s25_1
*CAP
1 o_int_n 0.00119988
2 *4389:X 0.00119988
3 o_int_n *4196:A 5.02217e-05
4 o_int_n *4389:A 3.64998e-06
5 o_cmd_status_reg[2] o_int_n 3.08239e-05
6 o_cmd_status_reg[7] o_int_n 0.000615474
7 *4341:A o_int_n 0.000145315
8 *4343:A o_int_n 0.000125284
9 *4346:A o_int_n 0.000534166
*RES
1 *4389:X o_int_n 34.315 
*END

*D_NET *61 0.00163221
*CONN
*P o_receive_data[0] O
*I *4390:X O *D sky130_fd_sc_hd__clkdlybuf4s25_1
*CAP
1 o_receive_data[0] 0.000464399
2 *4390:X 0.000464399
3 o_receive_data[0] o_receive_data[6] 0.000233743
4 o_receive_data[0] *3641:S 0
5 o_receive_data[0] *3643:A0 8.41703e-06
6 o_receive_data[0] *3647:A0 4.82919e-05
7 o_receive_data[0] *623:60 1.79536e-05
8 io_sda o_receive_data[0] 0.000395001
*RES
1 *4390:X o_receive_data[0] 6.5989 
*END

*D_NET *62 0.00471601
*CONN
*P o_receive_data[1] O
*I *4391:X O *D sky130_fd_sc_hd__clkdlybuf4s25_1
*CAP
1 o_receive_data[1] 0.000776814
2 *4391:X 0.000776814
3 o_receive_data[1] o_receive_data[2] 0.000910426
4 o_receive_data[1] o_receive_data[3] 0.000187295
5 o_receive_data[1] o_receive_data[4] 0.0010467
6 o_receive_data[1] o_receive_data[5] 0
7 o_receive_data[1] *3669:B 9.43859e-05
8 o_receive_data[1] *4394:A 5.83237e-05
9 o_receive_data[1] *868:18 0
10 *4334:A o_receive_data[1] 0.000475213
11 *4335:A o_receive_data[1] 0.000390046
*RES
1 *4391:X o_receive_data[1] 25.7632 
*END

*D_NET *63 0.00310905
*CONN
*P o_receive_data[2] O
*I *4392:X O *D sky130_fd_sc_hd__clkdlybuf4s25_1
*CAP
1 o_receive_data[2] 0.000513448
2 *4392:X 0.000513448
3 o_receive_data[2] o_receive_data[3] 0.000333182
4 o_receive_data[2] *3669:B 6.21133e-05
5 o_receive_data[2] *4394:A 7.07946e-05
6 o_receive_data[2] *867:16 0.000705641
7 o_receive_data[1] o_receive_data[2] 0.000910426
*RES
1 *4392:X o_receive_data[2] 15.5914 
*END

*D_NET *64 0.00455349
*CONN
*P o_receive_data[3] O
*I *4393:X O *D sky130_fd_sc_hd__clkdlybuf4s25_1
*CAP
1 o_receive_data[3] 0.00112717
2 *4393:X 0.00112717
3 o_receive_data[3] o_receive_data[4] 0.000844103
4 o_receive_data[3] *3670:A1 0.000234674
5 o_receive_data[3] *3988:D 0.000156423
6 o_receive_data[3] *4205:A 4.66108e-05
7 o_receive_data[3] *4393:A 0.000496862
8 o_receive_data[1] o_receive_data[3] 0.000187295
9 o_receive_data[2] o_receive_data[3] 0.000333182
*RES
1 *4393:X o_receive_data[3] 26.4284 
*END

*D_NET *65 0.00386442
*CONN
*P o_receive_data[4] O
*I *4394:X O *D sky130_fd_sc_hd__clkdlybuf4s25_1
*CAP
1 o_receive_data[4] 0.000848652
2 *4394:X 0.000848652
3 o_receive_data[4] o_receive_data[5] 0
4 o_receive_data[1] o_receive_data[4] 0.0010467
5 o_receive_data[3] o_receive_data[4] 0.000844103
6 *4334:A o_receive_data[4] 0.000276316
*RES
1 *4394:X o_receive_data[4] 23.5766 
*END

*D_NET *66 0.00391574
*CONN
*P o_receive_data[5] O
*I *4395:X O *D sky130_fd_sc_hd__clkdlybuf4s25_1
*CAP
1 o_receive_data[5] 0.00093671
2 *4395:X 0.00093671
3 o_receive_data[5] *3669:A 0.000484857
4 o_receive_data[5] *3670:A0 0.000127802
5 o_receive_data[5] *3673:A 0.000168499
6 o_receive_data[5] *3674:A1 0.000625553
7 o_receive_data[5] *3886:D 4.04259e-05
8 o_receive_data[5] *3889:CLK 0.000107405
9 o_receive_data[5] *624:59 2.67022e-05
10 io_sda o_receive_data[5] 0.000461071
11 o_receive_data[1] o_receive_data[5] 0
12 o_receive_data[4] o_receive_data[5] 0
*RES
1 *4395:X o_receive_data[5] 15.6202 
*END

*D_NET *67 0.00297361
*CONN
*P o_receive_data[6] O
*I *4396:X O *D sky130_fd_sc_hd__clkdlybuf4s25_1
*CAP
1 o_receive_data[6] 0.000618995
2 *4396:X 0.000618995
3 o_receive_data[6] o_receive_data[7] 0
4 o_receive_data[6] *3647:A1 0
5 o_receive_data[6] *3873:D 5.39718e-05
6 o_receive_data[6] *3875:D 0.000353145
7 o_receive_data[6] *623:33 4.32799e-05
8 o_receive_data[0] o_receive_data[6] 0.000233743
9 *4344:A o_receive_data[6] 6.97202e-05
10 *4366:A o_receive_data[6] 0.000385063
11 *4372:A o_receive_data[6] 0.000593063
12 *4374:A o_receive_data[6] 3.63701e-06
*RES
1 *4396:X o_receive_data[6] 16.2214 
*END

*D_NET *68 0.00241776
*CONN
*P o_receive_data[7] O
*I *4397:X O *D sky130_fd_sc_hd__clkdlybuf4s25_1
*CAP
1 o_receive_data[7] 0.000737117
2 *4397:X 0.000737117
3 o_receive_data[7] *3647:A1 0.000595717
4 o_receive_data[7] *3873:D 3.68682e-05
5 o_receive_data[6] o_receive_data[7] 0
6 *4344:A o_receive_data[7] 0.000235927
7 *4372:A o_receive_data[7] 7.50183e-05
*RES
1 *4397:X o_receive_data[7] 12.3128 
*END

*D_NET *69 0.00305278
*CONN
*P o_received_data_valid O
*I *4398:X O *D sky130_fd_sc_hd__clkdlybuf4s25_1
*CAP
1 o_received_data_valid 0.00136445
2 *4398:X 0.00136445
3 o_received_data_valid o_start_ack 0.000323883
4 o_cmd_status_reg[4] o_received_data_valid 0
5 *4340:A o_received_data_valid 0
6 *4349:A o_received_data_valid 0
*RES
1 *4398:X o_received_data_valid 32.635 
*END

*D_NET *70 0.0024365
*CONN
*P o_start_ack O
*I *4399:X O *D sky130_fd_sc_hd__clkdlybuf4s25_1
*CAP
1 o_start_ack 0.00105631
2 *4399:X 0.00105631
3 o_start_ack *4125:A 0
4 o_start_ack *4398:A 0
5 o_received_data_valid o_start_ack 0.000323883
*RES
1 *4399:X o_start_ack 26.965 
*END

*D_NET *71 0.00516031
*CONN
*P o_transmit_data_request O
*I *4400:X O *D sky130_fd_sc_hd__clkdlybuf4s25_1
*CAP
1 o_transmit_data_request 0.00177513
2 *4400:X 0.00177513
3 o_transmit_data_request *3485:D 0
4 o_transmit_data_request *3701:A1 0
5 o_transmit_data_request *3858:RESET_B 5.89925e-05
6 o_transmit_data_request *908:32 0.000208371
7 *4356:A o_transmit_data_request 1.88656e-05
8 *4357:A o_transmit_data_request 0.000495731
9 *4365:A o_transmit_data_request 0.000405158
10 *4367:A o_transmit_data_request 0.00042292
*RES
1 *4400:X o_transmit_data_request 17.7785 
*END

*D_NET *72 0.00132172
*CONN
*I *3471:B1 I *D sky130_fd_sc_hd__a21o_2
*I *3984:D I *D sky130_fd_sc_hd__dfrtp_2
*I *3402:X O *D sky130_fd_sc_hd__and2_2
*CAP
1 *3471:B1 0
2 *3984:D 8.44727e-05
3 *3402:X 0.000312406
4 *72:10 0.000396879
5 *3984:D *3343:A 7.89689e-05
6 *3984:D *3979:CLK 2.97004e-06
7 *3984:D *621:10 6.23375e-05
8 *3984:D *907:40 0
9 *72:10 *3471:A1 0.000102184
10 *72:10 *907:40 0
11 *72:10 *939:16 0.000252275
12 *11:14 *72:10 2.92299e-05
*RES
1 *3402:X *72:10 9.855 
2 *72:10 *3984:D 5.745 
3 *72:10 *3471:B1 3.6 
*END

*D_NET *73 0.00290777
*CONN
*I *3469:B1 I *D sky130_fd_sc_hd__a21o_2
*I *3983:D I *D sky130_fd_sc_hd__dfrtp_2
*I *3401:X O *D sky130_fd_sc_hd__and2_2
*CAP
1 *3469:B1 0.000302991
2 *3983:D 0.000127334
3 *3401:X 0.000107349
4 *73:6 0.000537674
5 *3469:B1 *3468:A2 4.66108e-05
6 *3469:B1 *3958:RESET_B 0.000235585
7 *3469:B1 *4093:A 2.97122e-05
8 *3469:B1 *109:14 0.000147974
9 *3469:B1 *604:89 0.000114492
10 *3469:B1 *646:43 0.000697369
11 *3469:B1 *749:12 0.000125238
12 *3983:D *3954:RESET_B 0.000199734
13 *3983:D *4249:A 2.11084e-05
14 *3983:D *905:20 2.75145e-05
15 *3983:D *936:41 0
16 *73:6 *707:10 4.82863e-05
17 *73:6 *749:12 0.000138799
*RES
1 *3401:X *73:6 3.775 
2 *73:6 *3983:D 8.45 
3 *73:6 *3469:B1 15.785 
*END

*D_NET *74 0.00169749
*CONN
*I *3932:D I *D sky130_fd_sc_hd__dfrtp_2
*I *3400:X O *D sky130_fd_sc_hd__and2_2
*CAP
1 *3932:D 0.000706926
2 *3400:X 0.000706926
3 *3932:D *3399:A 1.34594e-05
4 *3932:D *3431:A 0
5 *3932:D *3432:A2 0.000239813
6 *3932:D *3937:CLK 0
7 *3932:D *4216:A 0
8 *3932:D *611:102 0
9 *3932:D *708:10 0
10 *3932:D *1067:70 3.03684e-05
*RES
1 *3400:X *3932:D 17.655 
*END

*D_NET *75 0.000916175
*CONN
*I *3957:D I *D sky130_fd_sc_hd__dfstp_2
*I *3471:X O *D sky130_fd_sc_hd__a21o_2
*CAP
1 *3957:D 0.000276151
2 *3471:X 0.000276151
3 *3957:D *3343:A 1.47256e-05
4 *3957:D *3471:A2 0.0001249
5 *3957:D *3905:RESET_B 8.08153e-06
6 *3957:D *3982:D 0.000141599
7 *3957:D *621:10 2.75229e-05
8 *3957:D *636:74 4.7043e-05
*RES
1 *3471:X *3957:D 12.495 
*END

*D_NET *76 0.000679313
*CONN
*I *4241:A I *D sky130_fd_sc_hd__dlygate4sd3_1
*I *3470:X O *D sky130_fd_sc_hd__a22o_2
*CAP
1 *4241:A 0.000235193
2 *3470:X 0.000235193
3 *4241:A *3469:A1 0.000114492
4 *4241:A *3470:A1 3.00109e-05
5 *4241:A *362:25 1.54061e-06
6 *4241:A *880:12 6.28843e-05
*RES
1 *3470:X *4241:A 10.755 
*END

*D_NET *77 0.000510549
*CONN
*I *3955:D I *D sky130_fd_sc_hd__dfstp_2
*I *3469:X O *D sky130_fd_sc_hd__a21o_2
*CAP
1 *3955:D 0.000136748
2 *3469:X 0.000136748
3 *3955:D *3958:RESET_B 0.000118527
4 *3955:D *4093:A 0.000118527
*RES
1 *3469:X *3955:D 10.065 
*END

*D_NET *78 0.00232245
*CONN
*I *4302:A I *D sky130_fd_sc_hd__dlygate4sd3_1
*I *3468:X O *D sky130_fd_sc_hd__a22o_2
*CAP
1 *4302:A 0.000563164
2 *3468:X 0.000563164
3 *4302:A *3451:A1 5.18776e-05
4 *4302:A *3462:B2 3.09164e-05
5 *4302:A *3468:B2 0.000161722
6 *4302:A *3525:S 0
7 *4302:A *3956:CLK 0
8 *4302:A *3956:D 4.70343e-05
9 *4302:A *4116:A 0.000384688
10 *4302:A *4301:A 8.40213e-05
11 *4302:A *362:25 0.000121437
12 *4302:A *617:124 0
13 *4302:A *958:18 8.39885e-05
14 *4302:A *978:18 0.000230435
15 *4302:A *993:14 0
*RES
1 *3468:X *4302:A 20.76 
*END

*D_NET *79 0.000719808
*CONN
*I *3945:D I *D sky130_fd_sc_hd__dfstp_2
*I *3467:X O *D sky130_fd_sc_hd__a22o_2
*CAP
1 *3945:D 0.000238211
2 *3467:X 0.000238211
3 *3945:D *3456:A1 0
4 *3945:D *3467:A1 7.83173e-05
5 *3945:D *3680:B1 9.14049e-05
6 *3945:D *3680:B2 7.3664e-05
7 *3945:D *3681:B 0
8 *3945:D *3951:RESET_B 0
9 *3945:D *1000:10 0
*RES
1 *3467:X *3945:D 11.3512 
*END

*D_NET *80 0.00137624
*CONN
*I *3946:D I *D sky130_fd_sc_hd__dfrtp_2
*I *3466:Y O *D sky130_fd_sc_hd__nor2_2
*CAP
1 *3946:D 0.000298958
2 *3466:Y 0.000298958
3 *3946:D *3462:B1 0.000239813
4 *3946:D *3946:CLK 7.60965e-05
5 *3946:D *638:37 0.000462415
*RES
1 *3466:Y *3946:D 14.835 
*END

*D_NET *81 0.0003494
*CONN
*I *3947:D I *D sky130_fd_sc_hd__dfrtp_2
*I *3462:X O *D sky130_fd_sc_hd__a22o_2
*CAP
1 *3947:D 0.000132897
2 *3462:X 0.000132897
3 *3947:D *3458:B 0
4 *3947:D *3462:A1 3.47668e-05
5 *3947:D *3462:A2 1.43521e-05
6 *3947:D *426:16 1.7386e-05
7 *3947:D *638:37 0
8 *3947:D *1002:16 1.71013e-05
*RES
1 *3462:X *3947:D 9.795 
*END

*D_NET *82 0.000393363
*CONN
*I *3948:D I *D sky130_fd_sc_hd__dfrtp_2
*I *3461:X O *D sky130_fd_sc_hd__a221o_2
*CAP
1 *3948:D 9.01418e-05
2 *3461:X 9.01418e-05
3 *3948:D *3461:A1 5.83121e-06
4 *3948:D *3743:A 9.14692e-05
5 *3948:D *1003:12 0.000115779
*RES
1 *3461:X *3948:D 5.735 
*END

*D_NET *83 0.000569489
*CONN
*I *3949:D I *D sky130_fd_sc_hd__dfrtp_2
*I *3459:X O *D sky130_fd_sc_hd__a21o_2
*CAP
1 *3949:D 0.000126766
2 *3459:X 0.000126766
3 *3949:D *3524:A3 7.89178e-05
4 *3949:D *4090:A 0.00011852
5 *3949:D *109:14 0.00011852
*RES
1 *3459:X *3949:D 10.41 
*END

*D_NET *84 0.00079298
*CONN
*I *3950:D I *D sky130_fd_sc_hd__dfrtp_2
*I *3456:X O *D sky130_fd_sc_hd__a22o_2
*CAP
1 *3950:D 0.000249498
2 *3456:X 0.000249498
3 *3950:D *3456:A1 6.38291e-05
4 *3950:D *3456:A2 3.67779e-05
5 *3950:D *3945:CLK 0.000115779
6 *3950:D *616:58 6.90672e-05
7 *3950:D *1000:10 8.53113e-06
*RES
1 *3456:X *3950:D 10.8675 
*END

*D_NET *85 0.00140224
*CONN
*I *3951:D I *D sky130_fd_sc_hd__dfrtp_2
*I *3455:X O *D sky130_fd_sc_hd__a21o_2
*CAP
1 *3951:D 0.000548271
2 *3455:X 0.000548271
3 *3951:D *3823:B1 5.83121e-06
4 *3951:D *3951:RESET_B 0.000112266
5 *3951:D *111:10 8.97564e-05
6 *3951:D *651:25 0
7 *3951:D *1006:14 9.78429e-05
*RES
1 *3455:X *3951:D 16.785 
*END

*D_NET *86 0.00169592
*CONN
*I *3952:D I *D sky130_fd_sc_hd__dfrtp_2
*I *3453:X O *D sky130_fd_sc_hd__a22o_2
*CAP
1 *3952:D 0.000698725
2 *3453:X 0.000698725
3 *3952:D *3448:A 0
4 *3952:D *4306:A 0.000124895
5 *3952:D *618:134 7.00225e-05
6 *3952:D *1007:10 0.000103554
*RES
1 *3453:X *3952:D 15.465 
*END

*D_NET *87 0.00055072
*CONN
*I *4256:A I *D sky130_fd_sc_hd__dlygate4sd3_1
*I *3451:X O *D sky130_fd_sc_hd__a22o_2
*CAP
1 *4256:A 7.48422e-05
2 *3451:X 7.48422e-05
3 *4256:A *3451:A1 2.53301e-05
4 *4256:A *3451:A2 4.00508e-05
5 *4256:A *3451:B1 3.09088e-05
6 *4256:A *3451:B2 2.75229e-05
7 *4256:A *978:18 0.000277223
*RES
1 *3451:X *4256:A 6.08 
*END

*D_NET *88 0.000925811
*CONN
*I *3954:D I *D sky130_fd_sc_hd__dfrtp_2
*I *3450:X O *D sky130_fd_sc_hd__a21o_2
*CAP
1 *3954:D 0.000225592
2 *3450:X 0.000225592
3 *3954:D *3979:CLK 5.83121e-06
4 *3954:D *3979:D 0.000163204
5 *3954:D *3979:RESET_B 0
6 *3954:D *114:10 0
7 *3954:D *617:32 0.000185405
8 *3954:D *755:12 0.000120186
*RES
1 *3450:X *3954:D 12.36 
*END

*D_NET *89 0.00216719
*CONN
*I *3942:D I *D sky130_fd_sc_hd__dfstp_2
*I *3442:X O *D sky130_fd_sc_hd__o21a_2
*CAP
1 *3942:D 0.000476547
2 *3442:X 0.000476547
3 *3942:D *3440:A2 6.16226e-06
4 *3942:D *3442:A2 0.000125082
5 *3942:D *3526:A1 0.000141292
6 *3942:D *3662:A1 4.82919e-05
7 *3942:D *3792:A2 0
8 *3942:D *3944:RESET_B 0.000164686
9 *3942:D *645:59 0.0003399
10 *3942:D *645:70 0.00038868
11 *3942:D *892:23 0
12 *3942:D *993:46 0
*RES
1 *3442:X *3942:D 19.23 
*END

*D_NET *90 0.000522756
*CONN
*I *3943:D I *D sky130_fd_sc_hd__dfrtp_2
*I *3441:Y O *D sky130_fd_sc_hd__nor2_2
*CAP
1 *3943:D 0.000188198
2 *3441:Y 0.000188198
3 *3943:D *627:42 6.00111e-05
4 *3943:D *627:44 8.63479e-05
*RES
1 *3441:Y *3943:D 6.08 
*END

*D_NET *91 0.00193226
*CONN
*I *3441:A I *D sky130_fd_sc_hd__nor2_2
*I *3944:D I *D sky130_fd_sc_hd__dfrtp_2
*I *3439:X O *D sky130_fd_sc_hd__and2_2
*CAP
1 *3441:A 0
2 *3944:D 0.000289026
3 *3439:X 0.000136327
4 *91:10 0.000425353
5 *3944:D *3363:B1 0.000376621
6 *3944:D *3440:A2 0.00015997
7 *3944:D *3944:CLK 4.66826e-05
8 *3944:D *627:55 9.68787e-05
9 *3944:D *627:59 3.05295e-05
10 *91:10 *3363:B1 0.000134535
11 *91:10 *3440:A2 0.000115679
12 *91:10 *4038:D 0.000120655
13 *91:10 *360:33 0
*RES
1 *3439:X *91:10 6.375 
2 *91:10 *3944:D 9.87 
3 *91:10 *3441:A 3.6 
*END

*D_NET *92 0.00114851
*CONN
*I *3938:D I *D sky130_fd_sc_hd__dfstp_2
*I *3438:X O *D sky130_fd_sc_hd__a22o_2
*CAP
1 *3938:D 0.00024208
2 *3438:X 0.00024208
3 *3938:D *3363:B1 0
4 *3938:D *3438:B1 3.09164e-05
5 *3938:D *3527:A1 0.00013493
6 *3938:D *3528:B1 4.92935e-05
7 *3938:D *3786:A1 0.000383684
8 *3938:D *1063:29 6.5525e-05
*RES
1 *3438:X *3938:D 13.815 
*END

*D_NET *93 0.0003741
*CONN
*I *4214:A I *D sky130_fd_sc_hd__dlygate4sd3_1
*I *3437:X O *D sky130_fd_sc_hd__a22o_2
*CAP
1 *4214:A 0.00018705
2 *3437:X 0.00018705
*RES
1 *3437:X *4214:A 5.735 
*END

*D_NET *94 0.00129607
*CONN
*I *3940:D I *D sky130_fd_sc_hd__dfrtp_2
*I *3526:B1 I *D sky130_fd_sc_hd__o21ai_2
*I *3436:X O *D sky130_fd_sc_hd__a22o_2
*CAP
1 *3940:D 0.000268458
2 *3526:B1 9.27842e-05
3 *3436:X 6.32046e-05
4 *94:10 0.000424447
5 *3526:B1 *3527:B1 0.000160635
6 *3526:B1 *4213:A 4.92935e-05
7 *3940:D *4213:A 6.19997e-05
8 *3940:D *628:27 5.05521e-05
9 *94:10 *1030:16 9.54469e-05
10 *94:10 *1030:18 2.92496e-05
*RES
1 *3436:X *94:10 6.98 
2 *94:10 *3526:B1 3.79 
3 *94:10 *3940:D 6.19 
*END

*D_NET *95 0.000699007
*CONN
*I *3941:D I *D sky130_fd_sc_hd__dfrtp_2
*I *3435:X O *D sky130_fd_sc_hd__a2bb2o_2
*CAP
1 *3941:D 0.000301203
2 *3435:X 0.000301203
3 *3941:D *3941:RESET_B 0
4 *3941:D *606:35 0
5 *3941:D *644:14 9.66021e-05
6 *3941:D *644:55 0
*RES
1 *3435:X *3941:D 10.845 
*END

*D_NET *96 0.000506836
*CONN
*I *4265:A I *D sky130_fd_sc_hd__dlygate4sd3_1
*I *3433:X O *D sky130_fd_sc_hd__a22o_2
*CAP
1 *4265:A 0.000115921
2 *3433:X 0.000115921
3 *4265:A *3433:A2 0.000116165
4 *4265:A *3520:B 4.82863e-05
5 *4265:A *603:55 0.000110542
6 *4265:A *996:12 0
*RES
1 *3433:X *4265:A 10.05 
*END

*D_NET *97 0.000554546
*CONN
*I *3933:D I *D sky130_fd_sc_hd__dfrtp_2
*I *3432:X O *D sky130_fd_sc_hd__a21o_2
*CAP
1 *3933:D 0.000220337
2 *3432:X 0.000220337
3 *3933:D *3520:A 5.83121e-06
4 *3933:D *3933:CLK 0.00010804
*RES
1 *3432:X *3933:D 6.41 
*END

*D_NET *98 0.000556593
*CONN
*I *3934:D I *D sky130_fd_sc_hd__dfrtp_2
*I *3430:X O *D sky130_fd_sc_hd__a22o_2
*CAP
1 *3934:D 0.00015406
2 *3430:X 0.00015406
3 *3934:D *3824:B1 4.82863e-05
4 *3934:D *4120:A 8.40269e-05
5 *3934:D *686:10 0.000116158
6 *3934:D *1093:46 0
*RES
1 *3430:X *3934:D 9.72 
*END

*D_NET *99 0.000703744
*CONN
*I *4233:A I *D sky130_fd_sc_hd__dlygate4sd3_1
*I *3429:X O *D sky130_fd_sc_hd__a22o_2
*CAP
1 *4233:A 0.000186946
2 *3429:X 0.000186946
3 *4233:A *3431:B 4.35432e-05
4 *4233:A *3779:A1 0.00011852
5 *4233:A *3779:A2 0.00011852
6 *4233:A *3783:A2 4.66108e-05
7 *4233:A *911:30 2.65814e-06
*RES
1 *3429:X *4233:A 10.41 
*END

*D_NET *100 0.0016106
*CONN
*I *4236:A I *D sky130_fd_sc_hd__dlygate4sd3_1
*I *3428:X O *D sky130_fd_sc_hd__a21o_2
*CAP
1 *4236:A 0.000252397
2 *3428:X 0.000252397
3 *4236:A *3428:A1 8.53113e-06
4 *4236:A *3428:B1 4.66108e-05
5 *4236:A *3782:B1 0.000122325
6 *4236:A *3846:B1 3.83194e-05
7 *4236:A *4016:D 4.11281e-05
8 *4236:A *4151:A 9.37731e-05
9 *4236:A *880:61 0.000235573
10 *4236:A *880:91 0.000262114
11 *4236:A *894:51 9.50342e-06
12 *4236:A *894:60 5.16348e-05
13 *4236:A *894:72 0.000115779
14 *4236:A *911:62 8.05083e-05
*RES
1 *3428:X *4236:A 14.565 
*END

*D_NET *101 0.00228828
*CONN
*I *4216:A I *D sky130_fd_sc_hd__dlygate4sd3_1
*I *3427:X O *D sky130_fd_sc_hd__a22o_2
*CAP
1 *4216:A 0.000672201
2 *3427:X 0.000672201
3 *4216:A *3335:A 0.00013994
4 *4216:A *3427:B2 0
5 *4216:A *3521:B 8.82557e-05
6 *4216:A *3781:B1 0
7 *4216:A *3937:CLK 8.70923e-05
8 *4216:A *4212:A 0.000276441
9 *4216:A *4215:A 0.000296081
10 *4216:A *611:102 4.43871e-06
11 *4216:A *883:103 0
12 *4216:A *1070:10 5.16348e-05
13 *3932:D *4216:A 0
*RES
1 *3427:X *4216:A 20.91 
*END

*D_NET *102 0.00161883
*CONN
*I *4199:A I *D sky130_fd_sc_hd__dlygate4sd3_1
*I *3426:Y O *D sky130_fd_sc_hd__a211oi_2
*CAP
1 *4199:A 0.000548312
2 *3426:Y 0.000548312
3 *4199:A *3928:CLK 0
4 *4199:A *4022:CLK 0.000165698
5 *4199:A *4022:D 0.00016506
6 *4199:A *611:132 0.000107424
7 *4199:A *692:6 8.40213e-05
*RES
1 *3426:Y *4199:A 15.555 
*END

*D_NET *103 0.000596684
*CONN
*I *3929:D I *D sky130_fd_sc_hd__dfrtp_2
*I *3424:X O *D sky130_fd_sc_hd__a32o_2
*CAP
1 *3929:D 0.000256682
2 *3424:X 0.000256682
3 *3929:D *3929:RESET_B 5.07362e-05
4 *3929:D *4195:A 0
5 *3929:D *889:16 0
6 *3929:D *911:24 3.25831e-05
*RES
1 *3424:X *3929:D 11.265 
*END

*D_NET *104 0.00107676
*CONN
*I *3930:D I *D sky130_fd_sc_hd__dfrtp_2
*I *3422:X O *D sky130_fd_sc_hd__o2bb2a_2
*CAP
1 *3930:D 0.000273079
2 *3422:X 0.000273079
3 *3930:D *3777:B1 0.000271303
4 *3930:D *3778:B1 7.3151e-05
5 *3930:D *911:10 9.30717e-05
6 *3930:D *1096:8 9.30717e-05
*RES
1 *3422:X *3930:D 11.535 
*END

*D_NET *105 0.00436199
*CONN
*I *4039:D I *D sky130_fd_sc_hd__dfrtp_2
*I *3422:B1 I *D sky130_fd_sc_hd__o2bb2a_2
*I *3426:B1 I *D sky130_fd_sc_hd__a211oi_2
*I *3397:X O *D sky130_fd_sc_hd__and2_2
*CAP
1 *4039:D 0.000233236
2 *3422:B1 3.73909e-05
3 *3426:B1 6.41846e-05
4 *3397:X 0.000539274
5 *105:21 0.000518631
6 *105:8 0.000851463
7 *3422:B1 *3422:B2 3.00381e-05
8 *3422:B1 *3778:B1 0.0001249
9 *3426:B1 *3422:A1_N 0.000139238
10 *3426:B1 *3928:SET_B 0.000137578
11 *3426:B1 *4198:A 8.40213e-05
12 *3426:B1 *692:6 4.66826e-05
13 *4039:D *3930:CLK 0
14 *4039:D *4021:CLK 2.75229e-05
15 *4039:D *4037:RESET_B 6.20952e-05
16 *4039:D *607:78 0
17 *4039:D *885:62 4.82919e-05
18 *105:8 *3397:B 7.35729e-05
19 *105:8 *4194:A 1.56428e-05
20 *105:21 *3422:A1_N 0.000749326
21 *105:21 *3422:A2_N 0.000136877
22 *105:21 *3928:SET_B 0.000275369
23 *105:21 *1114:36 0.00016665
*RES
1 *3397:X *105:8 9.225 
2 *105:8 *3426:B1 6.03 
3 *105:8 *105:21 8.775 
4 *105:21 *3422:B1 4.74 
5 *105:21 *4039:D 7.98 
*END

*D_NET *106 0.00426406
*CONN
*I *3965:D I *D sky130_fd_sc_hd__dfrtp_2
*I *3485:X O *D sky130_fd_sc_hd__or4_2
*CAP
1 *3965:D 0.00137949
2 *3485:X 0.00137949
3 *3965:D *3483:B2 0.000164496
4 *3965:D *3485:C 0.000323397
5 *3965:D *3689:A1 2.01737e-05
6 *3965:D *3689:B1 1.42674e-05
7 *3965:D *3690:A2 5.27354e-05
8 *3965:D *3862:RESET_B 7.30733e-05
9 *3965:D *3866:CLK 3.33839e-05
10 *3965:D *3965:CLK 7.57202e-05
11 *3965:D *3977:RESET_B 0.000117825
12 *3965:D *4398:A 0.00011964
13 *3965:D *618:105 0.000260289
14 *3965:D *634:24 3.18891e-05
15 *3965:D *908:10 3.04982e-05
16 *3965:D *924:8 0.000110494
17 *3965:D *924:27 7.71957e-05
*RES
1 *3485:X *3965:D 29.49 
*END

*D_NET *107 0.0025615
*CONN
*I *3973:D I *D sky130_fd_sc_hd__dfrtp_2
*I *3519:X O *D sky130_fd_sc_hd__and2_2
*CAP
1 *3973:D 0.000983835
2 *3519:X 0.000983835
3 *3973:D *3655:A_N 5.20968e-05
4 *3973:D *3894:D 0.000161529
5 *3973:D *3894:RESET_B 0.000233978
6 *3973:D *4013:CLK 6.97118e-05
7 *3973:D *4189:A 4.85206e-05
8 *3973:D *605:56 0
9 *3973:D *682:8 2.79977e-05
*RES
1 *3519:X *3973:D 19.47 
*END

*D_NET *108 0.000780882
*CONN
*I *3976:D I *D sky130_fd_sc_hd__dfrtp_2
*I *3518:X O *D sky130_fd_sc_hd__a21o_2
*CAP
1 *3976:D 0.000242087
2 *3518:X 0.000242087
3 *3976:D *3518:A1 2.77283e-05
4 *3976:D *3518:B1 0.00026898
5 *3976:D *3893:D 0
*RES
1 *3518:X *3976:D 11.505 
*END

*D_NET *109 0.00864797
*CONN
*I *3449:A1 I *D sky130_fd_sc_hd__o21a_2
*I *3465:B1 I *D sky130_fd_sc_hd__a21oi_2
*I *3977:D I *D sky130_fd_sc_hd__dfrtp_2
*I *3444:X O *D sky130_fd_sc_hd__and2_2
*CAP
1 *3449:A1 2.19186e-05
2 *3465:B1 0
3 *3977:D 0.000534645
4 *3444:X 0.00134539
5 *109:28 0.000905267
6 *109:14 0.00173793
7 *3449:A1 *3449:B1 4.82863e-05
8 *3449:A1 *1004:18 5.83121e-06
9 *3977:D *3448:A 0.000171486
10 *3977:D *3465:A2 0.000132827
11 *3977:D *3638:A0 0.000194739
12 *3977:D *3866:D 0
13 *3977:D *924:19 3.68942e-05
14 *3977:D *924:51 0.000157797
15 *3977:D *981:27 0.000111293
16 *109:14 *3444:B 0.000500245
17 *109:14 *3449:B1 2.92496e-05
18 *109:14 *3524:A3 0
19 *109:14 *3954:RESET_B 0.000176664
20 *109:14 *4090:A 9.05649e-05
21 *109:14 *4093:A 0.000276064
22 *109:14 *4115:A 0
23 *109:14 *4211:A 6.47594e-05
24 *109:14 *4254:A 3.23663e-05
25 *109:14 *114:10 0
26 *109:14 *603:27 0
27 *109:14 *604:89 0.000715662
28 *109:14 *617:18 1.56428e-05
29 *109:14 *617:24 0.000135135
30 *109:14 *617:26 9.02174e-05
31 *109:14 *617:32 2.05056e-05
32 *109:28 *3448:A 4.18638e-05
33 *109:28 *3449:A2 0.000113698
34 *109:28 *3449:B1 3.39981e-05
35 *109:28 *3457:A1 0
36 *109:28 *3465:A2 9.12494e-06
37 *109:28 *3904:RESET_B 0.000183007
38 *109:28 *428:30 4.91997e-05
39 *109:28 *429:12 4.82863e-05
40 *109:28 *618:134 0
41 *109:28 *1004:18 0.000105266
42 *109:28 *1004:26 0.000154954
43 *109:28 *1007:10 8.23457e-05
44 *109:28 *1007:14 8.34281e-06
45 *3469:B1 *109:14 0.000147974
46 *3949:D *109:14 0.00011852
*RES
1 *3444:X *109:14 29.415 
2 *109:14 *109:28 12.055 
3 *109:28 *3977:D 15.39 
4 *109:28 *3465:B1 3.6 
5 *109:14 *3449:A1 4.05 
*END

*D_NET *110 0.00241368
*CONN
*I *3980:D I *D sky130_fd_sc_hd__dfrtp_2
*I *3523:X O *D sky130_fd_sc_hd__mux2_1
*CAP
1 *3980:D 0.000458104
2 *3523:X 0.000458104
3 *3980:D *3340:A 0.000119285
4 *3980:D *3461:B2 4.05358e-05
5 *3980:D *3950:RESET_B 0.000184703
6 *3980:D *3980:RESET_B 0.000336322
7 *3980:D *4017:RESET_B 8.08153e-06
8 *3980:D *4209:A 0.000112823
9 *3980:D *651:25 0.000311324
10 *3980:D *651:69 0.000190923
11 *3980:D *883:36 5.83121e-06
12 *3980:D *991:10 0.000187648
*RES
1 *3523:X *3980:D 20.265 
*END

*D_NET *111 0.00676061
*CONN
*I *3975:D I *D sky130_fd_sc_hd__dfrtp_2
*I *3455:B1 I *D sky130_fd_sc_hd__a21o_2
*I *3454:X O *D sky130_fd_sc_hd__o21a_2
*CAP
1 *3975:D 0.000835396
2 *3455:B1 0
3 *3454:X 0.00124239
4 *111:10 0.00207778
5 *3975:D *3427:A1 0.000316118
6 *3975:D *3427:B1 0
7 *3975:D *3427:B2 0
8 *3975:D *3431:A 0.000147149
9 *3975:D *3432:B1 0.000116158
10 *3975:D *3521:B 1.34361e-05
11 *3975:D *3779:A1 5.83121e-06
12 *3975:D *3783:B1 0
13 *3975:D *3825:A1 0
14 *3975:D *3975:CLK 0.000180756
15 *3975:D *4020:CLK 0.000103192
16 *3975:D *611:10 0.000146888
17 *3975:D *611:12 0.000200852
18 *3975:D *611:14 8.5225e-05
19 *3975:D *611:52 7.44453e-05
20 *3975:D *708:10 0.000281174
21 *3975:D *1006:14 0
22 *3975:D *1089:22 7.89269e-05
23 *111:10 *3341:A 0.000291365
24 *111:10 *3451:B2 0
25 *111:10 *3454:A2 0.000122325
26 *111:10 *3456:A2 0.00013063
27 *111:10 *3467:A2 0
28 *111:10 *3467:B2 0.000175066
29 *111:10 *3825:A1 0
30 *111:10 *3950:RESET_B 0
31 *111:10 *4077:A 1.44884e-05
32 *111:10 *603:43 3.12564e-05
33 *111:10 *616:10 0
34 *111:10 *616:21 0
35 *111:10 *651:25 0
36 *111:10 *1003:18 0
37 *111:10 *1003:53 0
38 *111:10 *1006:14 0
39 *3951:D *111:10 8.97564e-05
*RES
1 *3454:X *111:10 23.775 
2 *111:10 *3455:B1 3.6 
3 *111:10 *3975:D 24.24 
*END

*D_NET *112 0.00169815
*CONN
*I *3974:D I *D sky130_fd_sc_hd__dfrtp_2
*I *3525:X O *D sky130_fd_sc_hd__mux2_1
*CAP
1 *3974:D 0.000380138
2 *3525:X 0.000380138
3 *3974:D *3468:A2 0.000271341
4 *3974:D *3525:A1 3.86529e-05
5 *3974:D *4164:A 6.0093e-05
6 *3974:D *617:18 0.000365597
7 *3974:D *749:12 0.000116158
8 *3974:D *905:16 8.60357e-05
*RES
1 *3525:X *3974:D 17.115 
*END

*D_NET *113 0.00208861
*CONN
*I *3972:D I *D sky130_fd_sc_hd__dfrtp_2
*I *3459:B1 I *D sky130_fd_sc_hd__a21o_2
*I *3458:X O *D sky130_fd_sc_hd__and3_2
*CAP
1 *3972:D 0.000157043
2 *3459:B1 7.83549e-05
3 *3458:X 0.000186461
4 *113:8 0.000421858
5 *3459:B1 *3459:A1 0.000200615
6 *3459:B1 *3459:A2 0.000227798
7 *3972:D *3453:A2 5.23362e-05
8 *3972:D *3524:A3 9.68787e-05
9 *3972:D *3949:RESET_B 0
10 *3972:D *3972:CLK 3.09451e-05
11 *3972:D *646:43 0
12 *3972:D *1004:12 0.000160658
13 *113:8 *3459:A1 0.000143833
14 *113:8 *3459:A2 2.49909e-05
15 *113:8 *3462:A2 0
16 *113:8 *3524:A2 2.05056e-05
17 *113:8 *3525:A0 0.000234685
18 *113:8 *364:12 5.16479e-05
*RES
1 *3458:X *113:8 5.86 
2 *113:8 *3459:B1 4.48 
3 *113:8 *3972:D 9.275 
*END

*D_NET *114 0.00348748
*CONN
*I *3450:B1 I *D sky130_fd_sc_hd__a21o_2
*I *3979:D I *D sky130_fd_sc_hd__dfrtp_2
*I *3449:X O *D sky130_fd_sc_hd__o21a_2
*CAP
1 *3450:B1 1.90811e-05
2 *3979:D 0.000274866
3 *3449:X 0.000925714
4 *114:10 0.00121966
5 *3450:B1 *3444:B 4.54719e-05
6 *3450:B1 *3450:A1 2.97004e-06
7 *3450:B1 *3450:A2 9.50342e-06
8 *3450:B1 *3955:CLK 0
9 *3979:D *3979:CLK 4.70919e-05
10 *114:10 *3401:B 0.000125005
11 *114:10 *3444:B 9.14049e-05
12 *114:10 *3450:A1 5.64143e-05
13 *114:10 *3524:A3 0
14 *114:10 *3757:A0 0
15 *114:10 *3949:CLK 0
16 *114:10 *4115:A 0
17 *114:10 *707:10 0.000112299
18 *114:10 *755:12 0
19 *114:10 *905:28 0.000362972
20 *114:10 *936:41 0
21 *114:10 *961:22 3.18219e-05
22 *3954:D *3979:D 0.000163204
23 *3954:D *114:10 0
24 *109:14 *114:10 0
*RES
1 *3449:X *114:10 20.235 
2 *114:10 *3979:D 7.17 
3 *114:10 *3450:B1 4.215 
*END

*D_NET *115 0.000411843
*CONN
*I *4045:D I *D sky130_fd_sc_hd__dfrtp_2
*I *3360:Y O *D sky130_fd_sc_hd__inv_2
*CAP
1 *4045:D 0.000186591
2 *3360:Y 0.000186591
3 *4045:D *4071:A 3.86607e-05
*RES
1 *3360:Y *4045:D 9.60375 
*END

*D_NET *116 0.000953588
*CONN
*I *4042:D I *D sky130_fd_sc_hd__dfrtp_2
*I *3359:Y O *D sky130_fd_sc_hd__inv_2
*CAP
1 *4042:D 0.000333673
2 *3359:Y 0.000333673
3 *4042:D *3663:B 6.26349e-05
4 *4042:D *3749:S 0.000106216
5 *4042:D *641:37 0
6 *4042:D *907:12 5.7344e-05
7 *4042:D *907:16 5.05437e-05
8 *4042:D *907:102 0
9 *4042:D *934:28 9.50342e-06
*RES
1 *3359:Y *4042:D 11.79 
*END

*D_NET *117 0.00220839
*CONN
*I *3997:D I *D sky130_fd_sc_hd__dfrtp_2
*I *3515:X O *D sky130_fd_sc_hd__and3b_2
*CAP
1 *3997:D 0.000863795
2 *3515:X 0.000863795
3 *3997:D *3381:A1 2.36616e-05
4 *3997:D *3515:C 2.66935e-05
5 *3997:D *3997:CLK 0.000361378
6 *3997:D *4098:A 1.87432e-06
7 *3997:D *396:24 0
8 *3997:D *625:92 6.71882e-05
*RES
1 *3515:X *3997:D 18.1087 
*END

*D_NET *118 0.000565148
*CONN
*I *3986:D I *D sky130_fd_sc_hd__dfrtp_2
*I *3528:X O *D sky130_fd_sc_hd__a21o_2
*CAP
1 *3986:D 0.000203041
2 *3528:X 0.000203041
3 *3986:D *626:21 0.000114458
4 *3986:D *645:114 0
5 *3986:D *893:31 2.75145e-05
6 *3986:D *993:58 1.70935e-05
*RES
1 *3528:X *3986:D 11.325 
*END

*D_NET *119 0.00117668
*CONN
*I *4253:A I *D sky130_fd_sc_hd__dlygate4sd3_1
*I *3526:Y O *D sky130_fd_sc_hd__o21ai_2
*CAP
1 *4253:A 0.000359656
2 *3526:Y 0.000359656
3 *4253:A *3436:B1 0.000139245
4 *4253:A *3527:B1 0.000124007
5 *4253:A *879:37 0.000111096
6 *4253:A *893:55 3.09233e-05
7 *4253:A *1030:16 5.20968e-05
*RES
1 *3526:Y *4253:A 13.8 
*END

*D_NET *120 0.0029967
*CONN
*I *4019:D I *D sky130_fd_sc_hd__dfrtp_2
*I *3362:A1 I *D sky130_fd_sc_hd__mux2_1
*I *3361:Y O *D sky130_fd_sc_hd__nor2_2
*CAP
1 *4019:D 0.000306417
2 *3362:A1 0
3 *3361:Y 0.000208032
4 *120:12 0.000514449
5 *4019:D *3679:B1 2.04147e-05
6 *4019:D *4019:CLK 7.35729e-05
7 *4019:D *4154:A 0.000107796
8 *4019:D *365:16 0.00038879
9 *4019:D *617:124 0.000277716
10 *4019:D *696:6 8.49205e-05
11 *4019:D *880:12 8.40213e-05
12 *4019:D *993:14 0.000340573
13 *120:12 *3362:S 0.000161566
14 *120:12 *3679:B1 0.000350946
15 *120:12 *993:14 2.24992e-05
16 *120:12 *1067:28 1.7635e-05
17 *4075:A *120:12 1.86315e-05
18 *11:14 *120:12 1.87227e-05
*RES
1 *3361:Y *120:12 10.925 
2 *120:12 *3362:A1 1.6 
3 *120:12 *4019:D 14.915 
*END

*D_NET *121 0.000330019
*CONN
*I *3854:D I *D sky130_fd_sc_hd__dfstp_2
*I *3355:Y O *D sky130_fd_sc_hd__inv_2
*CAP
1 *3854:D 0.000140867
2 *3355:Y 0.000140867
3 *3854:D *660:31 0
4 *3854:D *900:20 4.82863e-05
*RES
1 *3355:Y *3854:D 9.285 
*END

*D_NET *122 0.000586207
*CONN
*I *4188:A I *D sky130_fd_sc_hd__dlygate4sd3_1
*I *3516:Y O *D sky130_fd_sc_hd__nor2_2
*CAP
1 *4188:A 0.000217698
2 *3516:Y 0.000217698
3 *4188:A *3637:A0 0
4 *4188:A *3855:CLK 5.42386e-05
5 *4188:A *3855:SET_B 0
6 *4188:A *3865:D 0
7 *4188:A *660:27 4.82863e-05
8 *4188:A *900:18 4.82863e-05
*RES
1 *3516:Y *4188:A 11.325 
*END

*D_NET *123 0.000485644
*CONN
*I *4316:A I *D sky130_fd_sc_hd__dlygate4sd3_1
*I *3520:X O *D sky130_fd_sc_hd__and2_2
*CAP
1 *4316:A 0.000204129
2 *3520:X 0.000204129
3 *4316:A *3433:A1 2.10034e-05
4 *4316:A *3520:A 5.83121e-06
5 *4316:A *3520:B 5.05521e-05
6 *4316:A *996:12 0
*RES
1 *3520:X *4316:A 10.065 
*END

*D_NET *124 0.00029634
*CONN
*I *4193:A I *D sky130_fd_sc_hd__dlygate4sd3_1
*I *3625:Y O *D sky130_fd_sc_hd__nor3_2
*CAP
1 *4193:A 2.67326e-05
2 *3625:Y 2.67326e-05
3 *4193:A *3428:B1 0.000121437
4 *4193:A *3846:B1 4.82863e-05
5 *4193:A *645:59 7.3151e-05
*RES
1 *3625:Y *4193:A 4.34 
*END

*D_NET *125 0.000593854
*CONN
*I *4018:D I *D sky130_fd_sc_hd__dfrtp_2
*I *3521:X O *D sky130_fd_sc_hd__or2_2
*CAP
1 *4018:D 0.000152437
2 *3521:X 0.000152437
3 *4018:D *3521:B 0
4 *4018:D *3780:A1 0.000187071
5 *4018:D *4082:A 9.50342e-06
6 *4018:D *658:36 9.24049e-05
7 *4018:D *662:80 0
*RES
1 *3521:X *4018:D 10.875 
*END

*D_NET *126 0.000672957
*CONN
*I *3999:D I *D sky130_fd_sc_hd__dfrtp_2
*I *3529:Y O *D sky130_fd_sc_hd__o21ai_2
*CAP
1 *3999:D 0.000278734
2 *3529:Y 0.000278734
3 *3999:D *3529:A2 0
4 *3999:D *3823:A1 0
5 *3999:D *3951:CLK 6.42013e-05
6 *3999:D *3999:RESET_B 4.18603e-06
7 *3999:D *612:8 4.7101e-05
8 *3999:D *612:21 0
*RES
1 *3529:Y *3999:D 11.865 
*END

*D_NET *127 0.000785252
*CONN
*I *4009:D I *D sky130_fd_sc_hd__dfrtp_2
*I *3557:Y O *D sky130_fd_sc_hd__nor3_2
*CAP
1 *4009:D 0.00016625
2 *3557:Y 0.00016625
3 *4009:D *3553:A1 3.00381e-05
4 *4009:D *3553:B1 0
5 *4009:D *904:111 0.000113752
6 *4009:D *1073:22 9.54469e-05
7 *4009:D *1086:36 0.000213515
*RES
1 *3557:Y *4009:D 12.09 
*END

*D_NET *128 0.000474764
*CONN
*I *4010:D I *D sky130_fd_sc_hd__dfrtp_2
*I *3561:X O *D sky130_fd_sc_hd__o21a_2
*CAP
1 *4010:D 0.00012789
2 *3561:X 0.00012789
3 *4010:D *3571:B1 0.00012657
4 *4010:D *4014:CLK 0
5 *4010:D *493:18 9.24127e-05
6 *4010:D *613:103 0
*RES
1 *3561:X *4010:D 10.23 
*END

*D_NET *129 0.001486
*CONN
*I *4011:D I *D sky130_fd_sc_hd__dfrtp_2
*I *3564:X O *D sky130_fd_sc_hd__and3_2
*CAP
1 *4011:D 0.000581402
2 *3564:X 0.000581402
3 *4011:D *3564:A 0
4 *4011:D *3567:A1 0.000107415
5 *4011:D *4326:A 0.000161529
6 *4011:D *457:12 5.4256e-05
*RES
1 *3564:X *4011:D 16.875 
*END

*D_NET *130 0.000497449
*CONN
*I *4012:D I *D sky130_fd_sc_hd__dfrtp_2
*I *3567:Y O *D sky130_fd_sc_hd__a211oi_2
*CAP
1 *4012:D 0.000223744
2 *3567:Y 0.000223744
3 *4012:D *3567:C1 4.99619e-05
4 *4012:D *503:10 0
5 *4012:D *654:72 0
*RES
1 *3567:Y *4012:D 10.665 
*END

*D_NET *131 0.000490721
*CONN
*I *4013:D I *D sky130_fd_sc_hd__dfrtp_2
*I *3569:X O *D sky130_fd_sc_hd__o21a_2
*CAP
1 *4013:D 0.000136479
2 *3569:X 0.000136479
3 *4013:D *3973:RESET_B 0.000122331
4 *4013:D *919:10 9.5433e-05
*RES
1 *3569:X *4013:D 9.465 
*END

*D_NET *132 0.000656914
*CONN
*I *4014:D I *D sky130_fd_sc_hd__dfrtp_2
*I *3572:Y O *D sky130_fd_sc_hd__nor2_2
*CAP
1 *4014:D 0.000143622
2 *3572:Y 0.000143622
3 *4014:D *3570:A1 0.000118527
4 *4014:D *3570:A2 0.000124895
5 *4014:D *3570:B1 6.74079e-05
6 *4014:D *4014:CLK 5.0751e-05
7 *4014:D *503:18 8.09021e-06
8 *4014:D *654:72 0
*RES
1 *3572:Y *4014:D 11.01 
*END

*D_NET *133 0.000280788
*CONN
*I *4000:D I *D sky130_fd_sc_hd__dfrtp_2
*I *3533:X O *D sky130_fd_sc_hd__and3_2
*CAP
1 *4000:D 9.26742e-05
2 *3533:X 9.26742e-05
3 *4000:D *4001:CLK 9.54399e-05
*RES
1 *3533:X *4000:D 8.775 
*END

*D_NET *134 0.000546296
*CONN
*I *4001:D I *D sky130_fd_sc_hd__dfrtp_2
*I *3535:Y O *D sky130_fd_sc_hd__a21oi_2
*CAP
1 *4001:D 0.000123441
2 *3535:Y 0.000123441
3 *4001:D *3533:A 5.12942e-05
4 *4001:D *3535:A1 0.000124895
5 *4001:D *3535:A2 0.000123225
*RES
1 *3535:Y *4001:D 9.975 
*END

*D_NET *135 0.000483454
*CONN
*I *4002:D I *D sky130_fd_sc_hd__dfrtp_2
*I *3538:X O *D sky130_fd_sc_hd__and3b_2
*CAP
1 *4002:D 0.000105732
2 *3538:X 0.000105732
3 *4002:D *3807:A1 0
4 *4002:D *3807:B1 0.000124895
5 *4002:D *142:12 7.60965e-05
6 *4002:D *1071:21 7.09999e-05
*RES
1 *3538:X *4002:D 9.975 
*END

*D_NET *136 0.000315729
*CONN
*I *4003:D I *D sky130_fd_sc_hd__dfrtp_2
*I *3541:X O *D sky130_fd_sc_hd__and3_2
*CAP
1 *4003:D 8.55109e-05
2 *3541:X 8.55109e-05
3 *4003:D *3541:C 4.99619e-05
4 *4003:D *485:10 9.47454e-05
*RES
1 *3541:X *4003:D 8.775 
*END

*D_NET *137 0.000805986
*CONN
*I *4004:D I *D sky130_fd_sc_hd__dfrtp_2
*I *3543:Y O *D sky130_fd_sc_hd__a211oi_2
*CAP
1 *4004:D 0.000154
2 *3543:Y 0.000154
3 *4004:D *3489:B 0.000120655
4 *4004:D *3543:A1 0.000300662
5 *4004:D *4004:CLK 1.88536e-05
6 *4004:D *902:50 5.78145e-05
*RES
1 *3543:Y *4004:D 7.745 
*END

*D_NET *138 0.00041561
*CONN
*I *4005:D I *D sky130_fd_sc_hd__dfrtp_2
*I *3546:X O *D sky130_fd_sc_hd__and3_2
*CAP
1 *4005:D 9.79071e-05
2 *3546:X 9.79071e-05
3 *4005:D *3347:A 4.82919e-05
4 *4005:D *3545:B 4.66108e-05
5 *4005:D *490:8 9.30717e-05
6 *4005:D *1083:10 3.18219e-05
*RES
1 *3546:X *4005:D 9.225 
*END

*D_NET *139 0.000247446
*CONN
*I *4293:A I *D sky130_fd_sc_hd__dlygate4sd3_1
*I *3549:Y O *D sky130_fd_sc_hd__a21oi_2
*CAP
1 *4293:A 0.000100206
2 *3549:Y 0.000100206
3 *4293:A *3549:A1 4.70343e-05
4 *4293:A *3626:A2 0
*RES
1 *3549:Y *4293:A 9.03 
*END

*D_NET *140 0.00029826
*CONN
*I *4007:D I *D sky130_fd_sc_hd__dfrtp_2
*I *3552:Y O *D sky130_fd_sc_hd__nor3_2
*CAP
1 *4007:D 8.87402e-05
2 *3552:Y 8.87402e-05
3 *4007:D *3550:B1 0
4 *4007:D *3552:B 9.47454e-05
5 *4007:D *3555:A2 2.11084e-05
6 *4007:D *493:55 4.9253e-06
*RES
1 *3552:Y *4007:D 8.775 
*END

*D_NET *141 0.00018992
*CONN
*I *4008:D I *D sky130_fd_sc_hd__dfrtp_2
*I *3554:X O *D sky130_fd_sc_hd__o21a_2
*CAP
1 *4008:D 7.02931e-05
2 *3554:X 7.02931e-05
3 *4008:D *613:82 4.93336e-05
*RES
1 *3554:X *4008:D 8.325 
*END

*D_NET *142 0.0031969
*CONN
*I *4015:D I *D sky130_fd_sc_hd__dfrtp_2
*I *3529:A2 I *D sky130_fd_sc_hd__o21ai_2
*I *3494:Y O *D sky130_fd_sc_hd__nor3_2
*CAP
1 *4015:D 0.000428129
2 *3529:A2 0.00015261
3 *3494:Y 0.000290166
4 *142:12 0.000870906
5 *3529:A2 *3529:B1 0
6 *3529:A2 *3999:RESET_B 0
7 *3529:A2 *4002:CLK 0.00012904
8 *3529:A2 *4154:A 3.68682e-05
9 *3529:A2 *4289:A 0
10 *3529:A2 *612:21 1.22676e-05
11 *3529:A2 *612:43 0.000163019
12 *4015:D *3538:B 2.65814e-06
13 *4015:D *3807:A1 0.000116158
14 *4015:D *4002:CLK 3.09233e-05
15 *4015:D *4015:CLK 6.97202e-05
16 *4015:D *4154:A 7.03934e-05
17 *4015:D *898:6 1.33293e-05
18 *4015:D *1071:21 0
19 *142:12 *3488:D_N 4.66742e-05
20 *142:12 *3807:A1 2.49909e-05
21 *142:12 *3807:A2 0.000524898
22 *142:12 *3807:B1 0.000138047
23 *3999:D *3529:A2 0
24 *4002:D *142:12 7.60965e-05
*RES
1 *3494:Y *142:12 11.76 
2 *142:12 *3529:A2 7.275 
3 *142:12 *4015:D 10.68 
*END

*D_NET *143 0.000807342
*CONN
*I *4020:D I *D sky130_fd_sc_hd__dfrtp_2
*I *3522:X O *D sky130_fd_sc_hd__and2_2
*CAP
1 *4020:D 0.000261948
2 *3522:X 0.000261948
3 *4020:D *3827:A1 8.40213e-05
4 *4020:D *3980:RESET_B 9.54469e-05
5 *4020:D *651:69 8.53113e-06
6 *4020:D *898:18 9.54469e-05
*RES
1 *3522:X *4020:D 11.535 
*END

*D_NET *144 0.00125987
*CONN
*I *4195:A I *D sky130_fd_sc_hd__dlygate4sd3_1
*I *3517:Y O *D sky130_fd_sc_hd__nor2_2
*CAP
1 *4195:A 0.000629937
2 *3517:Y 0.000629937
3 *4195:A *3929:RESET_B 0
4 *4195:A *4140:A 0
5 *4195:A *889:16 0
6 *3929:D *4195:A 0
*RES
1 *3517:Y *4195:A 16.5 
*END

*D_NET *145 0.000650681
*CONN
*I *4021:D I *D sky130_fd_sc_hd__dfrtp_2
*I *3573:Y O *D sky130_fd_sc_hd__o21ai_2
*CAP
1 *4021:D 0.000243741
2 *3573:Y 0.000243741
3 *4021:D *3573:A1 0
4 *4021:D *4037:D 0.000163199
5 *4021:D *161:12 0
6 *4021:D *899:60 0
*RES
1 *3573:Y *4021:D 11.1 
*END

*D_NET *146 0.000350236
*CONN
*I *4031:D I *D sky130_fd_sc_hd__dfrtp_2
*I *3601:Y O *D sky130_fd_sc_hd__nor3_2
*CAP
1 *4031:D 0.000148312
2 *3601:Y 0.000148312
3 *4031:D *3601:A 3.64998e-06
4 *4031:D *3601:C 0
5 *4031:D *4031:CLK 4.99619e-05
*RES
1 *3601:Y *4031:D 5.39 
*END

*D_NET *147 0.000427687
*CONN
*I *4248:A I *D sky130_fd_sc_hd__dlygate4sd3_1
*I *3605:X O *D sky130_fd_sc_hd__o21a_2
*CAP
1 *4248:A 0.000170546
2 *3605:X 0.000170546
3 *4248:A *3840:A1 8.65961e-05
*RES
1 *3605:X *4248:A 10.065 
*END

*D_NET *148 0.000547931
*CONN
*I *4033:D I *D sky130_fd_sc_hd__dfrtp_2
*I *3608:X O *D sky130_fd_sc_hd__and3_2
*CAP
1 *4033:D 8.00734e-05
2 *3608:X 8.00734e-05
3 *4033:D *3608:C 0.000116158
4 *4033:D *3842:B1 0.000116158
5 *4033:D *609:12 9.27326e-05
6 *4033:D *1100:10 6.27347e-05
*RES
1 *3608:X *4033:D 10.065 
*END

*D_NET *149 0.000147557
*CONN
*I *4034:D I *D sky130_fd_sc_hd__dfrtp_2
*I *3611:Y O *D sky130_fd_sc_hd__a211oi_2
*CAP
1 *4034:D 5.43023e-05
2 *3611:Y 5.43023e-05
3 *4034:D *3842:B1 0
4 *4034:D *4034:CLK 3.89528e-05
5 *4034:D *4034:RESET_B 0
*RES
1 *3611:Y *4034:D 8.325 
*END

*D_NET *150 0.000929696
*CONN
*I *4035:D I *D sky130_fd_sc_hd__dfrtp_2
*I *3613:X O *D sky130_fd_sc_hd__o21a_2
*CAP
1 *4035:D 0.000370711
2 *3613:X 0.000370711
3 *4035:D *4036:CLK 5.72091e-05
4 *4035:D *4036:D 6.74079e-05
5 *4035:D *885:104 0
6 *4035:D *887:82 6.36578e-05
7 *4035:D *901:69 0
*RES
1 *3613:X *4035:D 12.885 
*END

*D_NET *151 0.000723314
*CONN
*I *4036:D I *D sky130_fd_sc_hd__dfrtp_2
*I *3616:Y O *D sky130_fd_sc_hd__nor2_2
*CAP
1 *4036:D 0.000156526
2 *3616:Y 0.000156526
3 *4036:D *3616:B 9.37731e-05
4 *4036:D *4036:CLK 0
5 *4036:D *659:99 8.40213e-05
6 *4036:D *885:104 0.00016506
7 *4035:D *4036:D 6.74079e-05
*RES
1 *3616:Y *4036:D 11.415 
*END

*D_NET *152 0.0012166
*CONN
*I *4022:D I *D sky130_fd_sc_hd__dfrtp_2
*I *3577:X O *D sky130_fd_sc_hd__and3_2
*CAP
1 *4022:D 0.000421083
2 *3577:X 0.000421083
3 *4022:D *3579:A2 4.61658e-05
4 *4022:D *3928:CLK 0
5 *4022:D *4022:CLK 0.000163204
6 *4022:D *662:41 0
7 *4022:D *662:80 0
8 *4022:D *899:28 0
9 *4199:A *4022:D 0.00016506
*RES
1 *3577:X *4022:D 15.435 
*END

*D_NET *153 0.00058056
*CONN
*I *4023:D I *D sky130_fd_sc_hd__dfrtp_2
*I *3579:Y O *D sky130_fd_sc_hd__a21oi_2
*CAP
1 *4023:D 0.000140811
2 *3579:Y 0.000140811
3 *4023:D *3579:A1 0.000100125
4 *4023:D *4023:RESET_B 0
5 *4023:D *4024:CLK 0
6 *4023:D *610:47 0
7 *4023:D *662:33 1.17409e-05
8 *4023:D *662:80 0.000187071
*RES
1 *3579:Y *4023:D 10.485 
*END

*D_NET *154 0.000224474
*CONN
*I *4024:D I *D sky130_fd_sc_hd__dfrtp_2
*I *3582:X O *D sky130_fd_sc_hd__and3b_2
*CAP
1 *4024:D 0.000112237
2 *3582:X 0.000112237
3 *4024:D *3579:B1 0
4 *4024:D *3582:C 0
5 *4024:D *1104:10 0
*RES
1 *3582:X *4024:D 8.835 
*END

*D_NET *155 0.00139444
*CONN
*I *4025:D I *D sky130_fd_sc_hd__dfrtp_2
*I *3585:X O *D sky130_fd_sc_hd__and3_2
*CAP
1 *4025:D 0.00036261
2 *3585:X 0.00036261
3 *4025:D *3351:A 0.000114492
4 *4025:D *3499:A_N 6.44134e-05
5 *4025:D *3591:A 3.00381e-05
6 *4025:D *4026:CLK 0.000289698
7 *4025:D *511:34 0.000122331
8 *4025:D *662:33 2.49909e-05
9 *4025:D *1107:60 2.32597e-05
10 *4025:D *1109:46 0
*RES
1 *3585:X *4025:D 13.935 
*END

*D_NET *156 0.000545312
*CONN
*I *4026:D I *D sky130_fd_sc_hd__dfrtp_2
*I *3587:Y O *D sky130_fd_sc_hd__a211oi_2
*CAP
1 *4026:D 7.72931e-05
2 *3587:Y 7.72931e-05
3 *4026:D *3587:C1 4.82863e-05
4 *4026:D *3589:B 1.91597e-05
5 *4026:D *1108:6 5.28702e-05
6 *4026:D *1110:14 0.000270409
*RES
1 *3587:Y *4026:D 5.72 
*END

*D_NET *157 0.00163934
*CONN
*I *4027:D I *D sky130_fd_sc_hd__dfrtp_2
*I *3590:X O *D sky130_fd_sc_hd__and3_2
*CAP
1 *4027:D 0.000518782
2 *3590:X 0.000518782
3 *4027:D *3588:A 4.9253e-06
4 *4027:D *3591:A 0.000118249
5 *4027:D *4027:CLK 0.000159987
6 *4027:D *4028:RESET_B 0
7 *4027:D *609:54 0.000199074
8 *4027:D *1109:46 0.000119537
*RES
1 *3590:X *4027:D 19.165 
*END

*D_NET *158 0.00082879
*CONN
*I *4028:D I *D sky130_fd_sc_hd__dfrtp_2
*I *3593:Y O *D sky130_fd_sc_hd__a21oi_2
*CAP
1 *4028:D 0.000202367
2 *3593:Y 0.000202367
3 *4028:D *3352:A 0.000192125
4 *4028:D *609:43 9.54399e-05
5 *4028:D *609:54 4.27173e-05
6 *4028:D *1110:33 9.37731e-05
*RES
1 *3593:Y *4028:D 10.8787 
*END

*D_NET *159 0.000323633
*CONN
*I *4029:D I *D sky130_fd_sc_hd__dfrtp_2
*I *3596:Y O *D sky130_fd_sc_hd__nor3_2
*CAP
1 *4029:D 3.51283e-05
2 *3596:Y 3.51283e-05
3 *4029:D *521:42 9.2741e-05
4 *4029:D *1111:8 0.000160635
*RES
1 *3596:Y *4029:D 4.685 
*END

*D_NET *160 0.000836228
*CONN
*I *4030:D I *D sky130_fd_sc_hd__dfrtp_2
*I *3598:X O *D sky130_fd_sc_hd__o21a_2
*CAP
1 *4030:D 0.000238715
2 *3598:X 0.000238715
3 *4030:D *3597:A2 0.000114753
4 *4030:D *3598:B1 0.000178504
5 *4030:D *521:55 6.55406e-05
*RES
1 *3598:X *4030:D 12.705 
*END

*D_NET *161 0.00255578
*CONN
*I *3573:A2 I *D sky130_fd_sc_hd__o21ai_2
*I *4037:D I *D sky130_fd_sc_hd__dfrtp_2
*I *3504:Y O *D sky130_fd_sc_hd__nor3_2
*CAP
1 *3573:A2 0
2 *4037:D 0.000496418
3 *3504:Y 0.000559944
4 *161:12 0.00105636
5 *4037:D *4037:CLK 6.72076e-05
6 *4037:D *899:47 6.0078e-05
7 *4037:D *899:60 4.91952e-05
8 *161:12 *3573:A1 6.10014e-05
9 *161:12 *1097:8 4.23703e-05
10 *4021:D *4037:D 0.000163199
11 *4021:D *161:12 0
*RES
1 *3504:Y *161:12 12.26 
2 *161:12 *4037:D 10.48 
3 *161:12 *3573:A2 1.6 
*END

*D_NET *162 0.00266618
*CONN
*I *3987:D I *D sky130_fd_sc_hd__dfrtp_2
*I *3408:A1 I *D sky130_fd_sc_hd__o21ai_2
*I *3327:Y O *D sky130_fd_sc_hd__inv_2
*CAP
1 *3987:D 0
2 *3408:A1 0.000611059
3 *3327:Y 0.000320906
4 *162:6 0.000931965
5 *3408:A1 *3405:A 0.000114492
6 *3408:A1 *3405:B 3.47837e-05
7 *3408:A1 *3408:A2 1.77665e-05
8 *3408:A1 *3410:A1 2.24968e-05
9 *3408:A1 *3410:C1 7.58604e-05
10 *3408:A1 *3410:D1 3.12853e-05
11 *3408:A1 *3989:D 8.09157e-05
12 *3408:A1 *414:10 2.97004e-06
13 *3408:A1 *631:12 1.86688e-05
14 *3408:A1 *642:14 0
15 *3408:A1 *906:12 0.000204938
16 *162:6 *3327:A 0.00015896
17 *162:6 *3987:CLK 3.64522e-05
18 *162:6 *624:106 2.65814e-06
*RES
1 *3327:Y *162:6 6.19 
2 *162:6 *3408:A1 14.585 
3 *162:6 *3987:D 1.6 
*END

*D_NET *163 0.00139613
*CONN
*I *3988:D I *D sky130_fd_sc_hd__dfrtp_2
*I *3405:X O *D sky130_fd_sc_hd__xor2_2
*CAP
1 *3988:D 0.000256818
2 *3405:X 0.000256818
3 *3988:D *3506:B 0.000160658
4 *3988:D *3507:B 0.000273639
5 *3988:D *3987:RESET_B 6.87301e-05
6 *3988:D *3990:CLK 5.81675e-05
7 *3988:D *4393:A 0.000164874
8 o_receive_data[3] *3988:D 0.000156423
*RES
1 *3405:X *3988:D 14.475 
*END

*D_NET *164 0.00118827
*CONN
*I *3989:D I *D sky130_fd_sc_hd__dfrtp_2
*I *3408:Y O *D sky130_fd_sc_hd__o21ai_2
*CAP
1 *3989:D 0.000433026
2 *3408:Y 0.000433026
3 *3989:D *3405:B 0
4 *3989:D *3408:B1 0.000213785
5 *3989:D *3507:B 0
6 *3989:D *3670:A1 0
7 *3989:D *3987:RESET_B 0
8 *3989:D *624:91 0
9 *3989:D *906:12 2.75229e-05
10 *3408:A1 *3989:D 8.09157e-05
*RES
1 *3408:Y *3989:D 15.09 
*END

*D_NET *165 0.00119973
*CONN
*I *3990:D I *D sky130_fd_sc_hd__dfrtp_2
*I *3409:Y O *D sky130_fd_sc_hd__xnor2_2
*CAP
1 *3990:D 0.000530266
2 *3409:Y 0.000530266
3 *3990:D *3408:A2 9.13777e-05
4 *3990:D *3990:CLK 4.78182e-05
*RES
1 *3409:Y *3990:D 13.605 
*END

*D_NET *166 0.000602829
*CONN
*I *3991:D I *D sky130_fd_sc_hd__dfrtp_2
*I *3412:Y O *D sky130_fd_sc_hd__nand2_2
*CAP
1 *3991:D 0.000239771
2 *3412:Y 0.000239771
3 *3991:D *3406:A1 0
4 *3991:D *3799:A1 0
5 *3991:D *3799:B1 0
6 *3991:D *3991:CLK 0.000123286
*RES
1 *3412:Y *3991:D 11.445 
*END

*D_NET *167 0.00025266
*CONN
*I *3992:D I *D sky130_fd_sc_hd__dfrtp_2
*I *3413:Y O *D sky130_fd_sc_hd__xnor2_2
*CAP
1 *3992:D 8.42204e-05
2 *3413:Y 8.42204e-05
3 *3992:D *3993:CLK 2.75229e-05
4 *3992:D *625:29 5.66967e-05
*RES
1 *3413:Y *3992:D 4.685 
*END

*D_NET *168 0.000260712
*CONN
*I *3993:D I *D sky130_fd_sc_hd__dfrtp_2
*I *3416:Y O *D sky130_fd_sc_hd__nand2_2
*CAP
1 *3993:D 7.00949e-05
2 *3416:Y 7.00949e-05
3 *3993:D *3993:CLK 7.22354e-05
4 *3993:D *416:24 4.82863e-05
*RES
1 *3416:Y *3993:D 4.685 
*END

*D_NET *169 0.000547735
*CONN
*I *3994:D I *D sky130_fd_sc_hd__dfrtp_2
*I *3419:Y O *D sky130_fd_sc_hd__nand2_2
*CAP
1 *3994:D 0.000237081
2 *3419:Y 0.000237081
3 *3994:D *3994:CLK 7.35729e-05
*RES
1 *3419:Y *3994:D 6.755 
*END

*D_NET *170 0.00152129
*CONN
*I *3995:D I *D sky130_fd_sc_hd__dfrtp_2
*I *3420:Y O *D sky130_fd_sc_hd__xnor2_2
*CAP
1 *3995:D 0.000494733
2 *3420:Y 0.000494733
3 *3995:D *3420:A 0.000435376
4 *3995:D *3800:A1 3.57625e-05
5 *3995:D *3995:CLK 6.06867e-05
*RES
1 *3420:Y *3995:D 10.505 
*END

*D_NET *171 0.000162641
*CONN
*I *3854:SET_B I *D sky130_fd_sc_hd__dfstp_2
*I *3626:X O *D sky130_fd_sc_hd__o21a_2
*CAP
1 *3854:SET_B 3.48582e-05
2 *3626:X 3.48582e-05
3 *3854:SET_B *3497:C1 3.89528e-05
4 *3854:SET_B *660:31 5.39718e-05
*RES
1 *3626:X *3854:SET_B 6.725 
*END

*D_NET *172 0.000776401
*CONN
*I *3855:SET_B I *D sky130_fd_sc_hd__dfstp_2
*I *3762:X O *D sky130_fd_sc_hd__o21a_2
*CAP
1 *3855:SET_B 0.000293111
2 *3762:X 0.000293111
3 *3855:SET_B *3637:A0 0
4 *3855:SET_B *3865:D 9.71067e-05
5 *3855:SET_B *4160:A 0
6 *3855:SET_B *485:10 0
7 *3855:SET_B *661:19 0
8 *3855:SET_B *897:54 9.30717e-05
9 *4188:A *3855:SET_B 0
*RES
1 *3762:X *3855:SET_B 10.805 
*END

*D_NET *173 0.00163009
*CONN
*I *4174:A I *D sky130_fd_sc_hd__dlygate4sd3_1
*I *3635:Y O *D sky130_fd_sc_hd__nor3_2
*CAP
1 *4174:A 0.00045638
2 *3635:Y 0.00045638
3 *4174:A *3635:C 8.52972e-05
4 *4174:A *3964:D 2.69217e-05
5 *4174:A *4180:A 0.000184849
6 *4174:A *4246:A 0.000184067
7 *4174:A *4383:A 0.000149604
8 *4174:A *1010:12 8.65905e-05
*RES
1 *3635:Y *4174:A 17.205 
*END

*D_NET *174 0.000429565
*CONN
*I *3915:RESET_B I *D sky130_fd_sc_hd__dfrtp_2
*I *3763:X O *D sky130_fd_sc_hd__o21a_2
*CAP
1 *3915:RESET_B 0.000136705
2 *3763:X 0.000136705
3 *3915:RESET_B *4234:A 0
4 *3915:RESET_B *911:10 0.000156155
*RES
1 *3763:X *3915:RESET_B 8.765 
*END

*D_NET *175 0.000943476
*CONN
*I *3916:RESET_B I *D sky130_fd_sc_hd__dfrtp_2
*I *3764:X O *D sky130_fd_sc_hd__o21a_2
*CAP
1 *3916:RESET_B 0.000198455
2 *3764:X 0.000198455
3 *3916:RESET_B *3389:A1 6.65717e-05
4 *3916:RESET_B *3434:A 0
5 *3916:RESET_B *4040:RESET_B 0.000163992
6 *3916:RESET_B *723:10 3.24046e-05
7 *3916:RESET_B *878:92 0.000283598
*RES
1 *3764:X *3916:RESET_B 11.57 
*END

*D_NET *176 0.000656313
*CONN
*I *3917:RESET_B I *D sky130_fd_sc_hd__dfrtp_2
*I *3765:X O *D sky130_fd_sc_hd__o21a_2
*CAP
1 *3917:RESET_B 0.000196779
2 *3765:X 0.000196779
3 *3917:RESET_B *877:8 4.99619e-05
4 *3917:RESET_B *877:14 0
5 *11:10 *3917:RESET_B 0.000212793
*RES
1 *3765:X *3917:RESET_B 9.98 
*END

*D_NET *177 0.000426381
*CONN
*I *3918:RESET_B I *D sky130_fd_sc_hd__dfrtp_2
*I *3766:X O *D sky130_fd_sc_hd__o21a_2
*CAP
1 *3918:RESET_B 0.000117356
2 *3766:X 0.000117356
3 *3918:RESET_B *3388:A1 3.00381e-05
4 *3918:RESET_B *3766:A2 0.00016163
5 *3918:RESET_B *4219:A 0
*RES
1 *3766:X *3918:RESET_B 7.94 
*END

*D_NET *178 0.000835117
*CONN
*I *3919:RESET_B I *D sky130_fd_sc_hd__dfrtp_2
*I *3767:X O *D sky130_fd_sc_hd__o21a_2
*CAP
1 *3919:RESET_B 0.000148992
2 *3767:X 0.000148992
3 *3919:RESET_B *3365:B 7.98967e-05
4 *3919:RESET_B *3383:A1 3.76596e-05
5 *3919:RESET_B *3383:A2 0.000222112
6 *3919:RESET_B *391:10 9.14049e-05
7 *3919:RESET_B *877:31 3.09364e-05
8 *3919:RESET_B *890:27 4.51129e-05
9 *3919:RESET_B *1043:8 3.001e-05
*RES
1 *3767:X *3919:RESET_B 10.0175 
*END

*D_NET *179 0.000545603
*CONN
*I *3920:RESET_B I *D sky130_fd_sc_hd__dfrtp_2
*I *3768:X O *D sky130_fd_sc_hd__o21a_2
*CAP
1 *3920:RESET_B 0.000248658
2 *3768:X 0.000248658
3 *3920:RESET_B *3382:B1 0
4 *3920:RESET_B *4237:A 0
5 *3920:RESET_B *392:29 0
6 *3920:RESET_B *394:12 4.82863e-05
7 *3920:RESET_B *891:62 0
8 *3920:RESET_B *1044:45 0
*RES
1 *3768:X *3920:RESET_B 9.215 
*END

*D_NET *180 0.000470877
*CONN
*I *3921:RESET_B I *D sky130_fd_sc_hd__dfrtp_2
*I *3769:X O *D sky130_fd_sc_hd__o21a_2
*CAP
1 *3921:RESET_B 0.000110936
2 *3769:X 0.000110936
3 *3921:RESET_B *3770:A1 3.68682e-05
4 *3921:RESET_B *3770:A2 9.30717e-05
5 *3921:RESET_B *1045:6 0.000119066
*RES
1 *3769:X *3921:RESET_B 8.1575 
*END

*D_NET *181 0.000467668
*CONN
*I *3922:RESET_B I *D sky130_fd_sc_hd__dfrtp_2
*I *3770:X O *D sky130_fd_sc_hd__o21a_2
*CAP
1 *3922:RESET_B 0.00010861
2 *3770:X 0.00010861
3 *3922:RESET_B *3505:A 0.00015737
4 *3922:RESET_B *3922:D 9.30787e-05
*RES
1 *3770:X *3922:RESET_B 8.1575 
*END

*D_NET *182 0.000854679
*CONN
*I *3923:RESET_B I *D sky130_fd_sc_hd__dfrtp_2
*I *3771:X O *D sky130_fd_sc_hd__o21a_2
*CAP
1 *3923:RESET_B 0.000413582
2 *3771:X 0.000413582
3 *3923:RESET_B *3368:B1 0
4 *3923:RESET_B *3771:A1 0
5 *3923:RESET_B *3771:B1 2.75145e-05
6 *3923:RESET_B *3925:RESET_B 0
7 *3923:RESET_B *1047:20 0
*RES
1 *3771:X *3923:RESET_B 12.02 
*END

*D_NET *183 0.000588333
*CONN
*I *3924:RESET_B I *D sky130_fd_sc_hd__dfrtp_2
*I *3772:X O *D sky130_fd_sc_hd__o21a_2
*CAP
1 *3924:RESET_B 0.000121133
2 *3772:X 0.000121133
3 *3924:RESET_B *3772:B1 5.59935e-05
4 *3924:RESET_B *893:80 0.000164874
5 *3924:RESET_B *1048:6 4.82919e-05
6 *3924:RESET_B *1048:10 7.69078e-05
*RES
1 *3772:X *3924:RESET_B 4.4125 
*END

*D_NET *184 0.000529016
*CONN
*I *3925:RESET_B I *D sky130_fd_sc_hd__dfrtp_2
*I *3773:X O *D sky130_fd_sc_hd__o21a_2
*CAP
1 *3925:RESET_B 0.000155887
2 *3773:X 0.000155887
3 *3925:RESET_B *3771:A1 0.000144882
4 *3925:RESET_B *1047:8 7.23602e-05
5 *3925:RESET_B *1047:20 0
6 *3923:RESET_B *3925:RESET_B 0
*RES
1 *3773:X *3925:RESET_B 9.53 
*END

*D_NET *185 0.000443294
*CONN
*I *3926:RESET_B I *D sky130_fd_sc_hd__dfrtp_2
*I *3774:X O *D sky130_fd_sc_hd__o21a_2
*CAP
1 *3926:RESET_B 8.52911e-05
2 *3774:X 8.52911e-05
3 *3926:RESET_B *3434:B 9.23971e-05
4 *3926:RESET_B *3774:B1 1.56428e-05
5 *3926:RESET_B *644:55 0.000164672
*RES
1 *3774:X *3926:RESET_B 7.94 
*END

*D_NET *186 0.000715414
*CONN
*I *3927:RESET_B I *D sky130_fd_sc_hd__dfrtp_2
*I *3775:X O *D sky130_fd_sc_hd__o21a_2
*CAP
1 *3927:RESET_B 0.000114513
2 *3775:X 0.000114513
3 *3927:RESET_B *3679:B1 0.000343914
4 *3927:RESET_B *3686:B1 9.54399e-05
5 *3927:RESET_B *3927:D 4.70343e-05
6 *3927:RESET_B *3998:RESET_B 0
*RES
1 *3775:X *3927:RESET_B 9.53 
*END

*D_NET *187 0.00111387
*CONN
*I *3928:SET_B I *D sky130_fd_sc_hd__dfstp_2
*I *3776:X O *D sky130_fd_sc_hd__o21a_2
*CAP
1 *3928:SET_B 0.00016141
2 *3776:X 0.00016141
3 *3928:SET_B *3422:A1_N 1.15688e-05
4 *3928:SET_B *3426:C1 0.000112356
5 *3928:SET_B *611:132 0.000123852
6 *3928:SET_B *997:10 5.20968e-05
7 *3928:SET_B *1114:36 5.4003e-05
8 *3928:SET_B *1116:12 2.42236e-05
9 *3426:B1 *3928:SET_B 0.000137578
10 *105:21 *3928:SET_B 0.000275369
*RES
1 *3776:X *3928:SET_B 11.57 
*END

*D_NET *188 0.000275932
*CONN
*I *3929:RESET_B I *D sky130_fd_sc_hd__dfrtp_2
*I *3777:X O *D sky130_fd_sc_hd__o21a_2
*CAP
1 *3929:RESET_B 8.03351e-05
2 *3777:X 8.03351e-05
3 *3929:RESET_B *889:16 6.4526e-05
4 *3929:D *3929:RESET_B 5.07362e-05
5 *4195:A *3929:RESET_B 0
*RES
1 *3777:X *3929:RESET_B 7.49 
*END

*D_NET *189 0.000543332
*CONN
*I *3930:RESET_B I *D sky130_fd_sc_hd__dfrtp_2
*I *3778:X O *D sky130_fd_sc_hd__o21a_2
*CAP
1 *3930:RESET_B 0.000156477
2 *3778:X 0.000156477
3 *3930:RESET_B *3422:A2_N 0
4 *3930:RESET_B *885:28 3.68769e-05
5 *3930:RESET_B *1096:29 0.000193501
*RES
1 *3778:X *3930:RESET_B 8.5025 
*END

*D_NET *190 0.000604571
*CONN
*I *3931:SET_B I *D sky130_fd_sc_hd__dfstp_2
*I *3779:X O *D sky130_fd_sc_hd__o21a_2
*CAP
1 *3931:SET_B 0.000255111
2 *3779:X 0.000255111
3 *3931:SET_B *3784:B1 4.60584e-05
4 *3931:SET_B *603:55 0
5 *3931:SET_B *894:83 4.82919e-05
6 *3931:SET_B *1088:10 0
*RES
1 *3779:X *3931:SET_B 9.3725 
*END

*D_NET *191 0.000452084
*CONN
*I *3932:RESET_B I *D sky130_fd_sc_hd__dfrtp_2
*I *3780:X O *D sky130_fd_sc_hd__o21a_2
*CAP
1 *3932:RESET_B 9.69758e-05
2 *3780:X 9.69758e-05
3 *3932:RESET_B *3521:B 4.92284e-05
4 *3932:RESET_B *4018:CLK 4.51129e-05
5 *3932:RESET_B *4083:A 8.97642e-05
6 *3932:RESET_B *1089:22 7.4027e-05
*RES
1 *3780:X *3932:RESET_B 8.2325 
*END

*D_NET *192 0.000206752
*CONN
*I *3933:RESET_B I *D sky130_fd_sc_hd__dfrtp_2
*I *3781:X O *D sky130_fd_sc_hd__o21a_2
*CAP
1 *3933:RESET_B 7.37334e-05
2 *3781:X 7.37334e-05
3 *3933:RESET_B *4215:A 5.92849e-05
4 *3933:RESET_B *883:103 0
*RES
1 *3781:X *3933:RESET_B 7.235 
*END

*D_NET *193 0.000704306
*CONN
*I *3934:RESET_B I *D sky130_fd_sc_hd__dfrtp_2
*I *3782:X O *D sky130_fd_sc_hd__o21a_2
*CAP
1 *3934:RESET_B 0.000135214
2 *3782:X 0.000135214
3 *3934:RESET_B *3782:B1 7.99972e-05
4 *3934:RESET_B *4016:D 0.000116853
5 *3934:RESET_B *4122:A 0.000136877
6 *3934:RESET_B *894:51 5.35407e-05
7 *3934:RESET_B *911:62 4.66108e-05
*RES
1 *3782:X *3934:RESET_B 9.215 
*END

*D_NET *194 0.000733499
*CONN
*I *3935:RESET_B I *D sky130_fd_sc_hd__dfrtp_2
*I *3783:X O *D sky130_fd_sc_hd__o21a_2
*CAP
1 *3935:RESET_B 7.19741e-05
2 *3783:X 7.19741e-05
3 *3935:RESET_B *3431:B 0.000163985
4 *3935:RESET_B *3779:A2 0.000288244
5 *3935:RESET_B *898:46 9.50342e-06
6 *3935:RESET_B *911:30 9.3062e-06
7 *3935:RESET_B *1092:10 0.000118513
*RES
1 *3783:X *3935:RESET_B 9.02 
*END

*D_NET *195 0.000684368
*CONN
*I *3936:RESET_B I *D sky130_fd_sc_hd__dfrtp_2
*I *3784:X O *D sky130_fd_sc_hd__o21a_2
*CAP
1 *3936:RESET_B 0.00019969
2 *3784:X 0.00019969
3 *3936:RESET_B *3931:D 0.000143266
4 *3936:RESET_B *3936:CLK 8.08153e-06
5 *3936:RESET_B *603:55 0
6 *3936:RESET_B *627:10 4.7043e-05
7 *3936:RESET_B *894:72 8.65961e-05
*RES
1 *3784:X *3936:RESET_B 9.56 
*END

*D_NET *196 0.000688619
*CONN
*I *3937:RESET_B I *D sky130_fd_sc_hd__dfrtp_2
*I *3785:X O *D sky130_fd_sc_hd__o21a_2
*CAP
1 *3937:RESET_B 0.000176077
2 *3785:X 0.000176077
3 *3937:RESET_B *3785:A1 3.00381e-05
4 *3937:RESET_B *3937:CLK 0.000135295
5 *3937:RESET_B *4212:A 0
6 *3937:RESET_B *883:122 0.000123573
7 *3937:RESET_B *898:102 4.75576e-05
*RES
1 *3785:X *3937:RESET_B 9.2975 
*END

*D_NET *197 0.000172818
*CONN
*I *3938:SET_B I *D sky130_fd_sc_hd__dfstp_2
*I *3786:X O *D sky130_fd_sc_hd__o21a_2
*CAP
1 *3938:SET_B 4.09935e-05
2 *3786:X 4.09935e-05
3 *3938:SET_B *3363:B1 5.39718e-05
4 *3938:SET_B *3786:A1 3.68596e-05
*RES
1 *3786:X *3938:SET_B 6.725 
*END

*D_NET *198 0.00127853
*CONN
*I *3939:RESET_B I *D sky130_fd_sc_hd__dfrtp_2
*I *3787:X O *D sky130_fd_sc_hd__o21a_2
*CAP
1 *3939:RESET_B 0.000366469
2 *3787:X 0.000366469
3 *3939:RESET_B *3788:A2 0.000181369
4 *3939:RESET_B *3788:B1 1.83756e-05
5 *3939:RESET_B *3939:CLK 0.00015896
6 *3939:RESET_B *4153:A 0.000183731
7 *3939:RESET_B *879:8 3.1562e-06
*RES
1 *3787:X *3939:RESET_B 11.8175 
*END

*D_NET *199 0.000702052
*CONN
*I *3940:RESET_B I *D sky130_fd_sc_hd__dfrtp_2
*I *3788:X O *D sky130_fd_sc_hd__o21a_2
*CAP
1 *3940:RESET_B 0.000293801
2 *3788:X 0.000293801
3 *3940:RESET_B *3788:A1 0
4 *3940:RESET_B *3788:B1 6.74079e-05
5 *3940:RESET_B *3939:CLK 4.7043e-05
6 *3940:RESET_B *3939:D 0
7 *3940:RESET_B *4213:A 0
8 *3940:RESET_B *879:25 0
9 *3940:RESET_B *1030:18 0
*RES
1 *3788:X *3940:RESET_B 10.805 
*END

*D_NET *200 0.000828815
*CONN
*I *3941:RESET_B I *D sky130_fd_sc_hd__dfrtp_2
*I *3789:X O *D sky130_fd_sc_hd__o21a_2
*CAP
1 *3941:RESET_B 0.000323859
2 *3789:X 0.000323859
3 *3941:RESET_B *3941:CLK 0.000152312
4 *3941:RESET_B *606:35 2.87867e-05
5 *3941:D *3941:RESET_B 0
*RES
1 *3789:X *3941:RESET_B 10.4375 
*END

*D_NET *201 0.00198958
*CONN
*I *3942:SET_B I *D sky130_fd_sc_hd__dfstp_2
*I *3790:X O *D sky130_fd_sc_hd__o21a_2
*CAP
1 *3942:SET_B 0.000307775
2 *3790:X 0.000307775
3 *3942:SET_B *3790:B1 0.000100115
4 *3942:SET_B *3985:RESET_B 0.00034224
5 *3942:SET_B *627:40 9.42224e-05
6 *3942:SET_B *878:33 6.8472e-05
7 *3942:SET_B *878:43 4.66108e-05
8 *3942:SET_B *892:23 3.1009e-05
9 *3942:SET_B *993:46 0.000561252
10 *3942:SET_B *1030:28 0.000130106
*RES
1 *3790:X *3942:SET_B 15.335 
*END

*D_NET *202 0.000744645
*CONN
*I *3943:RESET_B I *D sky130_fd_sc_hd__dfrtp_2
*I *3791:X O *D sky130_fd_sc_hd__o21a_2
*CAP
1 *3943:RESET_B 0.000166226
2 *3791:X 0.000166226
3 *3943:RESET_B *3791:A1 4.82863e-05
4 *3943:RESET_B *3791:B1 9.14049e-05
5 *3943:RESET_B *878:33 0.000180533
6 *3943:RESET_B *1035:12 9.19672e-05
*RES
1 *3791:X *3943:RESET_B 9.98 
*END

*D_NET *203 0.000529146
*CONN
*I *3944:RESET_B I *D sky130_fd_sc_hd__dfrtp_2
*I *3792:X O *D sky130_fd_sc_hd__o21a_2
*CAP
1 *3944:RESET_B 0.00018223
2 *3792:X 0.00018223
3 *3944:RESET_B *993:46 0
4 *3942:D *3944:RESET_B 0.000164686
*RES
1 *3792:X *3944:RESET_B 8.9225 
*END

*D_NET *204 0.00161902
*CONN
*I *3985:RESET_B I *D sky130_fd_sc_hd__dfrtp_2
*I *3793:X O *D sky130_fd_sc_hd__o21a_2
*CAP
1 *3985:RESET_B 0.000235612
2 *3793:X 0.000235612
3 *3985:RESET_B *3662:A1 0.000392136
4 *3985:RESET_B *627:40 0.000388413
5 *3985:RESET_B *993:46 2.50049e-05
6 *3942:SET_B *3985:RESET_B 0.00034224
*RES
1 *3793:X *3985:RESET_B 13.595 
*END

*D_NET *205 0.000209275
*CONN
*I *3986:RESET_B I *D sky130_fd_sc_hd__dfrtp_2
*I *3794:X O *D sky130_fd_sc_hd__o21a_2
*CAP
1 *3986:RESET_B 0.000104638
2 *3794:X 0.000104638
3 *3986:RESET_B *879:37 0
4 *3986:RESET_B *879:59 0
5 *3986:RESET_B *1051:20 0
6 *3986:RESET_B *1052:8 0
*RES
1 *3794:X *3986:RESET_B 7.235 
*END

*D_NET *206 0.000981259
*CONN
*I *3987:RESET_B I *D sky130_fd_sc_hd__dfrtp_2
*I *3795:X O *D sky130_fd_sc_hd__o21a_2
*CAP
1 *3987:RESET_B 0.000318837
2 *3795:X 0.000318837
3 *3987:RESET_B *3507:B 0.000274855
4 *3987:RESET_B *3990:CLK 0
5 *3988:D *3987:RESET_B 6.87301e-05
6 *3989:D *3987:RESET_B 0
*RES
1 *3795:X *3987:RESET_B 10.445 
*END

*D_NET *207 0.000290763
*CONN
*I *3988:RESET_B I *D sky130_fd_sc_hd__dfrtp_2
*I *3796:X O *D sky130_fd_sc_hd__o21a_2
*CAP
1 *3988:RESET_B 9.29502e-05
2 *3796:X 9.29502e-05
3 *3988:RESET_B *3510:C1 0
4 *3988:RESET_B *890:27 2.40185e-05
5 *3988:RESET_B *890:29 8.08439e-05
*RES
1 *3796:X *3988:RESET_B 7.6325 
*END

*D_NET *208 0.000306799
*CONN
*I *3989:RESET_B I *D sky130_fd_sc_hd__dfrtp_2
*I *3797:X O *D sky130_fd_sc_hd__o21a_2
*CAP
1 *3989:RESET_B 0.000153399
2 *3797:X 0.000153399
*RES
1 *3797:X *3989:RESET_B 3.7225 
*END

*D_NET *209 0.000192052
*CONN
*I *3990:RESET_B I *D sky130_fd_sc_hd__dfrtp_2
*I *3798:X O *D sky130_fd_sc_hd__o21a_2
*CAP
1 *3990:RESET_B 4.74729e-05
2 *3798:X 4.74729e-05
3 *3990:RESET_B *3510:C1 0
4 *3990:RESET_B *890:79 9.71067e-05
*RES
1 *3798:X *3990:RESET_B 6.725 
*END

*D_NET *210 0.000343484
*CONN
*I *3991:RESET_B I *D sky130_fd_sc_hd__dfrtp_2
*I *3799:X O *D sky130_fd_sc_hd__o21a_2
*CAP
1 *3991:RESET_B 7.96715e-05
2 *3799:X 7.96715e-05
3 *3991:RESET_B *3406:A1 0
4 *3991:RESET_B *3414:A 2.49909e-05
5 *3991:RESET_B *3799:B1 9.03081e-05
6 *3991:RESET_B *625:21 6.88421e-05
*RES
1 *3799:X *3991:RESET_B 7.175 
*END

*D_NET *211 0.000362889
*CONN
*I *3992:RESET_B I *D sky130_fd_sc_hd__dfrtp_2
*I *3800:X O *D sky130_fd_sc_hd__o21a_2
*CAP
1 *3992:RESET_B 0.000100987
2 *3800:X 0.000100987
3 *3992:RESET_B *3800:B1 5.83121e-06
4 *3992:RESET_B *3995:CLK 2.93447e-05
5 *3992:RESET_B *625:53 3.35139e-05
6 *3992:RESET_B *641:124 9.22251e-05
*RES
1 *3800:X *3992:RESET_B 7.52 
*END

*D_NET *212 0.000397781
*CONN
*I *3993:RESET_B I *D sky130_fd_sc_hd__dfrtp_2
*I *3801:X O *D sky130_fd_sc_hd__o21a_2
*CAP
1 *3993:RESET_B 0.000137492
2 *3801:X 0.000137492
3 *3993:RESET_B *1059:10 0.000122797
*RES
1 *3801:X *3993:RESET_B 3.7225 
*END

*D_NET *213 0.000317409
*CONN
*I *3994:RESET_B I *D sky130_fd_sc_hd__dfrtp_2
*I *3802:X O *D sky130_fd_sc_hd__o21a_2
*CAP
1 *3994:RESET_B 7.55316e-05
2 *3802:X 7.55316e-05
3 *3994:RESET_B *3802:B1 0.000166346
*RES
1 *3802:X *3994:RESET_B 7.49 
*END

*D_NET *214 0.000454501
*CONN
*I *3995:RESET_B I *D sky130_fd_sc_hd__dfrtp_2
*I *3803:X O *D sky130_fd_sc_hd__o21a_2
*CAP
1 *3995:RESET_B 8.8722e-05
2 *3803:X 8.8722e-05
3 *3995:RESET_B *3803:B1 0.00011474
4 *3995:RESET_B *387:14 0.000162318
*RES
1 *3803:X *3995:RESET_B 7.94 
*END

*D_NET *215 0.000145426
*CONN
*I *3996:SET_B I *D sky130_fd_sc_hd__dfstp_2
*I *3804:X O *D sky130_fd_sc_hd__o21a_2
*CAP
1 *3996:SET_B 7.2713e-05
2 *3804:X 7.2713e-05
3 *3996:SET_B *3996:D 0
4 *3996:SET_B *628:42 0
*RES
1 *3804:X *3996:SET_B 6.725 
*END

*D_NET *216 0.00027756
*CONN
*I *3997:RESET_B I *D sky130_fd_sc_hd__dfrtp_2
*I *3805:X O *D sky130_fd_sc_hd__o21a_2
*CAP
1 *3997:RESET_B 9.10602e-05
2 *3805:X 9.10602e-05
3 *3997:RESET_B *644:77 9.54399e-05
4 *3997:RESET_B *877:48 0
*RES
1 *3805:X *3997:RESET_B 7.175 
*END

*D_NET *217 0.00227486
*CONN
*I *3998:RESET_B I *D sky130_fd_sc_hd__dfrtp_2
*I *3806:X O *D sky130_fd_sc_hd__o21a_2
*CAP
1 *3998:RESET_B 0.00055026
2 *3806:X 0.00055026
3 *3998:RESET_B *3337:A 0.000115464
4 *3998:RESET_B *3361:B 0
5 *3998:RESET_B *3430:B2 0.000273015
6 *3998:RESET_B *3469:A1 0.000430531
7 *3998:RESET_B *3679:B1 0
8 *3998:RESET_B *3686:B1 0
9 *3998:RESET_B *3806:A1 0.000118081
10 *3998:RESET_B *3927:D 0
11 *3998:RESET_B *880:21 0.000237249
12 *3927:RESET_B *3998:RESET_B 0
*RES
1 *3806:X *3998:RESET_B 16.82 
*END

*D_NET *218 0.000564717
*CONN
*I *3999:RESET_B I *D sky130_fd_sc_hd__dfrtp_2
*I *3807:X O *D sky130_fd_sc_hd__o21a_2
*CAP
1 *3999:RESET_B 0.000198315
2 *3807:X 0.000198315
3 *3999:RESET_B *3823:A1 0
4 *3999:RESET_B *3999:CLK 4.70477e-05
5 *3999:RESET_B *4154:A 0.000116853
6 *3999:RESET_B *883:10 0
7 *3529:A2 *3999:RESET_B 0
8 *3999:D *3999:RESET_B 4.18603e-06
*RES
1 *3807:X *3999:RESET_B 9.1925 
*END

*D_NET *219 0.00039182
*CONN
*I *4000:RESET_B I *D sky130_fd_sc_hd__dfrtp_2
*I *3808:X O *D sky130_fd_sc_hd__o21a_2
*CAP
1 *4000:RESET_B 0.000188711
2 *3808:X 0.000188711
3 *4000:RESET_B *1078:8 1.4399e-05
*RES
1 *3808:X *4000:RESET_B 4.0675 
*END

*D_NET *220 0.000582543
*CONN
*I *4001:RESET_B I *D sky130_fd_sc_hd__dfrtp_2
*I *3809:X O *D sky130_fd_sc_hd__o21a_2
*CAP
1 *4001:RESET_B 9.11044e-05
2 *3809:X 9.11044e-05
3 *4001:RESET_B *3532:A 2.67022e-05
4 *4001:RESET_B *882:58 3.09164e-05
5 *4001:RESET_B *1078:10 7.04021e-05
6 *4001:RESET_B *1087:10 0.000272313
*RES
1 *3809:X *4001:RESET_B 8.765 
*END

*D_NET *221 0.000293896
*CONN
*I *4002:RESET_B I *D sky130_fd_sc_hd__dfrtp_2
*I *3810:X O *D sky130_fd_sc_hd__o21a_2
*CAP
1 *4002:RESET_B 5.79726e-05
2 *3810:X 5.79726e-05
3 *4002:RESET_B *3810:B1 8.89751e-05
4 *4002:RESET_B *479:10 8.89751e-05
*RES
1 *3810:X *4002:RESET_B 7.49 
*END

*D_NET *222 0.000290653
*CONN
*I *4003:RESET_B I *D sky130_fd_sc_hd__dfrtp_2
*I *3811:X O *D sky130_fd_sc_hd__o21a_2
*CAP
1 *4003:RESET_B 8.96596e-05
2 *3811:X 8.96596e-05
3 *4003:RESET_B *4160:A 9.30787e-05
4 *4003:RESET_B *656:109 1.82546e-05
*RES
1 *3811:X *4003:RESET_B 7.175 
*END

*D_NET *223 0.000278532
*CONN
*I *4004:RESET_B I *D sky130_fd_sc_hd__dfrtp_2
*I *3812:X O *D sky130_fd_sc_hd__o21a_2
*CAP
1 *4004:RESET_B 8.61317e-05
2 *3812:X 8.61317e-05
3 *4004:RESET_B *656:89 3.39151e-05
4 *4004:RESET_B *1082:14 7.23533e-05
*RES
1 *3812:X *4004:RESET_B 7.175 
*END

*D_NET *224 0.000763407
*CONN
*I *4005:RESET_B I *D sky130_fd_sc_hd__dfrtp_2
*I *3813:X O *D sky130_fd_sc_hd__o21a_2
*CAP
1 *4005:RESET_B 0.00018001
2 *3813:X 0.00018001
3 *4005:RESET_B *4006:RESET_B 4.91189e-05
4 *4005:RESET_B *656:78 0.000339879
5 *4005:RESET_B *657:53 1.4389e-05
6 *4005:RESET_B *1084:10 0
*RES
1 *3813:X *4005:RESET_B 9.98 
*END

*D_NET *225 0.000550734
*CONN
*I *4006:RESET_B I *D sky130_fd_sc_hd__dfrtp_2
*I *3814:X O *D sky130_fd_sc_hd__o21a_2
*CAP
1 *4006:RESET_B 0.000208435
2 *3814:X 0.000208435
3 *4006:RESET_B *490:8 0
4 *4006:RESET_B *656:69 0
5 *4006:RESET_B *656:78 0
6 *4006:RESET_B *657:53 3.47837e-05
7 *4006:RESET_B *881:103 4.99619e-05
8 *4005:RESET_B *4006:RESET_B 4.91189e-05
*RES
1 *3814:X *4006:RESET_B 9.47 
*END

*D_NET *226 0.000351968
*CONN
*I *4007:RESET_B I *D sky130_fd_sc_hd__dfrtp_2
*I *3815:X O *D sky130_fd_sc_hd__o21a_2
*CAP
1 *4007:RESET_B 3.50789e-05
2 *3815:X 3.50789e-05
3 *4007:RESET_B *881:90 0.000140905
4 *4007:RESET_B *896:123 0.000140905
*RES
1 *3815:X *4007:RESET_B 7.235 
*END

*D_NET *227 0.000906787
*CONN
*I *4008:RESET_B I *D sky130_fd_sc_hd__dfrtp_2
*I *3816:X O *D sky130_fd_sc_hd__o21a_2
*CAP
1 *4008:RESET_B 0.000269656
2 *3816:X 0.000269656
3 *4008:RESET_B *3554:B1 7.03276e-05
4 *4008:RESET_B *613:82 6.90254e-05
5 *4008:RESET_B *655:14 0.00013827
6 *4008:RESET_B *881:23 4.77807e-05
7 *4008:RESET_B *1086:8 4.20711e-05
*RES
1 *3816:X *4008:RESET_B 10.1975 
*END

*D_NET *228 0.0025089
*CONN
*I *4009:RESET_B I *D sky130_fd_sc_hd__dfrtp_2
*I *3817:X O *D sky130_fd_sc_hd__o21a_2
*CAP
1 *4009:RESET_B 0.000371671
2 *3817:X 0.000371671
3 *4009:RESET_B *3817:A2 0.000658556
4 *4009:RESET_B *656:10 0
5 *4009:RESET_B *657:23 0.000696421
6 *4009:RESET_B *896:10 0.000410579
7 *4009:RESET_B *1118:14 0
*RES
1 *3817:X *4009:RESET_B 18.2 
*END

*D_NET *229 0.000796017
*CONN
*I *4010:RESET_B I *D sky130_fd_sc_hd__dfrtp_2
*I *3818:X O *D sky130_fd_sc_hd__o21a_2
*CAP
1 *4010:RESET_B 0.000105338
2 *3818:X 0.000105338
3 *4010:RESET_B *3553:B1 7.36562e-05
4 *4010:RESET_B *3554:A2 0.000184758
5 *4010:RESET_B *3554:B1 0.000163345
6 *4010:RESET_B *493:18 0.000157602
7 *4010:RESET_B *613:97 5.98004e-06
8 *4010:RESET_B *904:111 0
*RES
1 *3818:X *4010:RESET_B 9.53 
*END

*D_NET *230 0.000346013
*CONN
*I *4011:RESET_B I *D sky130_fd_sc_hd__dfrtp_2
*I *3819:X O *D sky130_fd_sc_hd__o21a_2
*CAP
1 *4011:RESET_B 4.51949e-05
2 *3819:X 4.51949e-05
3 *4011:RESET_B *3820:A1 0.000163992
4 *4011:RESET_B *904:57 9.16315e-05
*RES
1 *3819:X *4011:RESET_B 7.49 
*END

*D_NET *231 0.0013527
*CONN
*I *4012:RESET_B I *D sky130_fd_sc_hd__dfrtp_2
*I *3820:X O *D sky130_fd_sc_hd__o21a_2
*CAP
1 *4012:RESET_B 0.000168385
2 *3820:X 0.000168385
3 *4012:RESET_B *3820:A1 0.000326048
4 *4012:RESET_B *3820:A2 6.07575e-06
5 *4012:RESET_B *3820:B1 8.49205e-05
6 *4012:RESET_B *4084:A 0.000232105
7 *4012:RESET_B *904:57 0.000185411
8 *4012:RESET_B *904:63 0.000181369
*RES
1 *3820:X *4012:RESET_B 11.96 
*END

*D_NET *232 0.000477428
*CONN
*I *4013:RESET_B I *D sky130_fd_sc_hd__dfrtp_2
*I *3821:X O *D sky130_fd_sc_hd__o21a_2
*CAP
1 *4013:RESET_B 0.000217202
2 *3821:X 0.000217202
3 *4013:RESET_B *3650:A1 8.53113e-06
4 *4013:RESET_B *3822:B1 0
5 *4013:RESET_B *4128:A 0
6 *4013:RESET_B *1076:12 3.44935e-05
*RES
1 *3821:X *4013:RESET_B 9.0875 
*END

*D_NET *233 0.000929076
*CONN
*I *4014:RESET_B I *D sky130_fd_sc_hd__dfrtp_2
*I *3822:X O *D sky130_fd_sc_hd__o21a_2
*CAP
1 *4014:RESET_B 0.000244366
2 *3822:X 0.000244366
3 *4014:RESET_B *3571:A1 0.000139933
4 *4014:RESET_B *3820:A2 0
5 *4014:RESET_B *4014:CLK 0.000116497
6 *4014:RESET_B *1076:12 7.4027e-05
7 *4014:RESET_B *1077:8 1.1392e-05
8 *4014:RESET_B *1077:27 9.84957e-05
*RES
1 *3822:X *4014:RESET_B 10.6175 
*END

*D_NET *234 0.00103917
*CONN
*I *4015:RESET_B I *D sky130_fd_sc_hd__dfrtp_2
*I *3823:X O *D sky130_fd_sc_hd__o21a_2
*CAP
1 *4015:RESET_B 0.000264398
2 *3823:X 0.000264398
3 *4015:RESET_B *3781:B1 0.000121695
4 *4015:RESET_B *3823:A2 0
5 *4015:RESET_B *3823:B1 5.4256e-05
6 *4015:RESET_B *3951:CLK 8.8266e-05
7 *4015:RESET_B *4020:RESET_B 2.72056e-05
8 *4015:RESET_B *4141:A 8.75474e-05
9 *4015:RESET_B *888:43 0.000131408
10 *4015:RESET_B *898:126 0
*RES
1 *3823:X *4015:RESET_B 11.6 
*END

*D_NET *235 0.00067794
*CONN
*I *4016:SET_B I *D sky130_fd_sc_hd__dfstp_2
*I *3824:X O *D sky130_fd_sc_hd__o21a_2
*CAP
1 *4016:SET_B 6.42954e-05
2 *3824:X 6.42954e-05
3 *4016:SET_B *3661:A1 0.000274675
4 *4016:SET_B *3998:D 0.000274675
*RES
1 *3824:X *4016:SET_B 8.765 
*END

*D_NET *236 0.000906152
*CONN
*I *4017:RESET_B I *D sky130_fd_sc_hd__dfrtp_2
*I *3825:X O *D sky130_fd_sc_hd__o21a_2
*CAP
1 *4017:RESET_B 0.000248817
2 *3825:X 0.000248817
3 *4017:RESET_B *4019:RESET_B 0
4 *4017:RESET_B *4154:A 8.40269e-05
5 *4017:RESET_B *365:16 3.31103e-05
6 *4017:RESET_B *991:10 0.0002833
7 *3980:D *4017:RESET_B 8.08153e-06
*RES
1 *3825:X *4017:RESET_B 10.4675 
*END

*D_NET *237 0.000505101
*CONN
*I *4018:RESET_B I *D sky130_fd_sc_hd__dfrtp_2
*I *3826:X O *D sky130_fd_sc_hd__o21a_2
*CAP
1 *4018:RESET_B 0.00019535
2 *3826:X 0.00019535
3 *4018:RESET_B *610:25 0
4 *4018:RESET_B *658:10 7.75325e-05
5 *4018:RESET_B *658:36 3.68682e-05
*RES
1 *3826:X *4018:RESET_B 9.215 
*END

*D_NET *238 0.000415084
*CONN
*I *4019:RESET_B I *D sky130_fd_sc_hd__dfrtp_2
*I *3827:X O *D sky130_fd_sc_hd__o21a_2
*CAP
1 *4019:RESET_B 0.000183396
2 *3827:X 0.000183396
3 *4019:RESET_B *3896:RESET_B 4.82919e-05
4 *4019:RESET_B *4019:CLK 0
5 *4019:RESET_B *603:13 0
6 *4019:RESET_B *991:10 0
7 *4017:RESET_B *4019:RESET_B 0
*RES
1 *3827:X *4019:RESET_B 8.45 
*END

*D_NET *239 0.000917773
*CONN
*I *4020:RESET_B I *D sky130_fd_sc_hd__dfrtp_2
*I *3828:X O *D sky130_fd_sc_hd__o21a_2
*CAP
1 *4020:RESET_B 0.00033136
2 *3828:X 0.00033136
3 *4020:RESET_B *4141:A 8.75474e-05
4 *4020:RESET_B *888:43 3.09164e-05
5 *4020:RESET_B *898:126 6.73665e-05
6 *4020:RESET_B *980:12 4.20162e-05
7 *4015:RESET_B *4020:RESET_B 2.72056e-05
*RES
1 *3828:X *4020:RESET_B 11.3375 
*END

*D_NET *240 0.000313596
*CONN
*I *4021:RESET_B I *D sky130_fd_sc_hd__dfrtp_2
*I *3829:X O *D sky130_fd_sc_hd__o21a_2
*CAP
1 *4021:RESET_B 7.36252e-05
2 *3829:X 7.36252e-05
3 *4021:RESET_B *3573:A1 0.000166346
4 *4021:RESET_B *4283:A 0
5 *4021:RESET_B *903:12 0
6 *4021:RESET_B *1097:10 0
*RES
1 *3829:X *4021:RESET_B 7.49 
*END

*D_NET *241 0.000798627
*CONN
*I *4022:RESET_B I *D sky130_fd_sc_hd__dfrtp_2
*I *3830:X O *D sky130_fd_sc_hd__o21a_2
*CAP
1 *4022:RESET_B 0.000135005
2 *3830:X 0.000135005
3 *4022:RESET_B *4023:RESET_B 0.000166346
4 *4022:RESET_B *610:47 0.000362271
5 *4022:RESET_B *662:80 0
*RES
1 *3830:X *4022:RESET_B 9.785 
*END

*D_NET *242 0.000502245
*CONN
*I *4023:RESET_B I *D sky130_fd_sc_hd__dfrtp_2
*I *3831:X O *D sky130_fd_sc_hd__o21a_2
*CAP
1 *4023:RESET_B 0.00013834
2 *3831:X 0.00013834
3 *4023:RESET_B *610:47 5.92191e-05
4 *4023:RESET_B *662:80 0
5 *4022:RESET_B *4023:RESET_B 0.000166346
6 *4023:D *4023:RESET_B 0
*RES
1 *3831:X *4023:RESET_B 8.765 
*END

*D_NET *243 0.00105032
*CONN
*I *4024:RESET_B I *D sky130_fd_sc_hd__dfrtp_2
*I *3832:X O *D sky130_fd_sc_hd__o21a_2
*CAP
1 *4024:RESET_B 0.000254114
2 *3832:X 0.000254114
3 *4024:RESET_B *4145:A 4.99619e-05
4 *4024:RESET_B *4158:A 0.00020613
5 *4024:RESET_B *460:10 5.42217e-05
6 *4024:RESET_B *901:51 6.92392e-05
7 *4024:RESET_B *1104:10 5.93588e-05
8 *4024:RESET_B *1105:21 0.000103185
*RES
1 *3832:X *4024:RESET_B 12.02 
*END

*D_NET *244 0.00082111
*CONN
*I *4025:RESET_B I *D sky130_fd_sc_hd__dfrtp_2
*I *3833:X O *D sky130_fd_sc_hd__o21a_2
*CAP
1 *4025:RESET_B 0.000219733
2 *3833:X 0.000219733
3 *4025:RESET_B *3497:A2 0.000140905
4 *4025:RESET_B *3497:C1 8.17928e-05
5 *4025:RESET_B *610:19 6.55328e-05
6 *4025:RESET_B *660:64 7.63125e-05
7 *4025:RESET_B *1107:10 1.71013e-05
8 *4025:RESET_B *1109:46 0
*RES
1 *3833:X *4025:RESET_B 10.805 
*END

*D_NET *245 0.000803466
*CONN
*I *4026:RESET_B I *D sky130_fd_sc_hd__dfrtp_2
*I *3834:X O *D sky130_fd_sc_hd__o21a_2
*CAP
1 *4026:RESET_B 0.00018102
2 *3834:X 0.00018102
3 *4026:RESET_B *3636:A1 7.4027e-05
4 *4026:RESET_B *4025:CLK 0
5 *4026:RESET_B *4160:A 2.75145e-05
6 *4026:RESET_B *661:30 0.000339886
*RES
1 *3834:X *4026:RESET_B 9.98 
*END

*D_NET *246 0.000413519
*CONN
*I *4027:RESET_B I *D sky130_fd_sc_hd__dfrtp_2
*I *3835:X O *D sky130_fd_sc_hd__o21a_2
*CAP
1 *4027:RESET_B 5.82645e-05
2 *3835:X 5.82645e-05
3 *4027:RESET_B *661:30 0.000210151
4 *4027:RESET_B *886:87 8.68387e-05
*RES
1 *3835:X *4027:RESET_B 8 
*END

*D_NET *247 0.000724106
*CONN
*I *4028:RESET_B I *D sky130_fd_sc_hd__dfrtp_2
*I *3836:X O *D sky130_fd_sc_hd__o21a_2
*CAP
1 *4028:RESET_B 0.000339986
2 *3836:X 0.000339986
3 *4028:RESET_B *4025:CLK 0
4 *4028:RESET_B *4027:CLK 0
5 *4028:RESET_B *511:50 0
6 *4028:RESET_B *661:30 0
7 *4028:RESET_B *1110:14 4.4133e-05
8 *4027:D *4028:RESET_B 0
*RES
1 *3836:X *4028:RESET_B 10.7225 
*END

*D_NET *248 0.000528501
*CONN
*I *4029:RESET_B I *D sky130_fd_sc_hd__dfrtp_2
*I *3837:X O *D sky130_fd_sc_hd__o21a_2
*CAP
1 *4029:RESET_B 9.34478e-05
2 *3837:X 9.34478e-05
3 *4029:RESET_B *3598:B1 0.000121597
4 *4029:RESET_B *661:83 0.000102184
5 *4029:RESET_B *1112:14 0.000117825
*RES
1 *3837:X *4029:RESET_B 9.02 
*END

*D_NET *249 0.000654359
*CONN
*I *4030:RESET_B I *D sky130_fd_sc_hd__dfrtp_2
*I *3838:X O *D sky130_fd_sc_hd__o21a_2
*CAP
1 *4030:RESET_B 0.000283524
2 *3838:X 0.000283524
3 *4030:RESET_B *886:111 0
4 *4030:RESET_B *1112:14 8.73103e-05
*RES
1 *3838:X *4030:RESET_B 10.1375 
*END

*D_NET *250 0.000410444
*CONN
*I *4031:RESET_B I *D sky130_fd_sc_hd__dfrtp_2
*I *3839:X O *D sky130_fd_sc_hd__o21a_2
*CAP
1 *4031:RESET_B 0.000124066
2 *3839:X 0.000124066
3 *4031:RESET_B *3599:A2 0
4 *4031:RESET_B *661:94 0.000162311
*RES
1 *3839:X *4031:RESET_B 7.94 
*END

*D_NET *251 0.000310049
*CONN
*I *4032:RESET_B I *D sky130_fd_sc_hd__dfrtp_2
*I *3840:X O *D sky130_fd_sc_hd__o21a_2
*CAP
1 *4032:RESET_B 0.000141267
2 *3840:X 0.000141267
3 *4032:RESET_B *3840:A1 0
4 *4032:RESET_B *3840:B1 2.75145e-05
5 *4032:RESET_B *4032:CLK 0
*RES
1 *3840:X *4032:RESET_B 7.685 
*END

*D_NET *252 0.000278763
*CONN
*I *4033:RESET_B I *D sky130_fd_sc_hd__dfrtp_2
*I *3841:X O *D sky130_fd_sc_hd__o21a_2
*CAP
1 *4033:RESET_B 0.000119411
2 *3841:X 0.000119411
3 *4033:RESET_B *466:12 0
4 *4033:RESET_B *609:12 1.59221e-05
5 *4033:RESET_B *901:107 0
6 *4033:RESET_B *1100:10 2.40185e-05
*RES
1 *3841:X *4033:RESET_B 7.6325 
*END

*D_NET *253 0.000253431
*CONN
*I *4034:RESET_B I *D sky130_fd_sc_hd__dfrtp_2
*I *3842:X O *D sky130_fd_sc_hd__o21a_2
*CAP
1 *4034:RESET_B 7.95754e-05
2 *3842:X 7.95754e-05
3 *4034:RESET_B *3842:B1 9.428e-05
4 *4034:D *4034:RESET_B 0
*RES
1 *3842:X *4034:RESET_B 7.49 
*END

*D_NET *254 0.000498558
*CONN
*I *4035:RESET_B I *D sky130_fd_sc_hd__dfrtp_2
*I *3843:X O *D sky130_fd_sc_hd__o21a_2
*CAP
1 *4035:RESET_B 0.000155978
2 *3843:X 0.000155978
3 *4035:RESET_B *3614:A2 5.83121e-06
4 *4035:RESET_B *3616:A 1.48096e-05
5 *4035:RESET_B *3843:A2 3.64998e-06
6 *4035:RESET_B *4036:RESET_B 0.000162311
7 *4035:RESET_B *531:38 0
*RES
1 *3843:X *4035:RESET_B 8.285 
*END

*D_NET *255 0.000983625
*CONN
*I *4036:RESET_B I *D sky130_fd_sc_hd__dfrtp_2
*I *3844:X O *D sky130_fd_sc_hd__o21a_2
*CAP
1 *4036:RESET_B 0.000182635
2 *3844:X 0.000182635
3 *4036:RESET_B *3614:A1 0
4 *4036:RESET_B *3614:A2 0
5 *4036:RESET_B *3844:A2 0.000116165
6 *4036:RESET_B *531:38 0
7 *4036:RESET_B *899:116 0.000339879
8 *4035:RESET_B *4036:RESET_B 0.000162311
*RES
1 *3844:X *4036:RESET_B 10.805 
*END

*D_NET *256 0.00090702
*CONN
*I *4037:RESET_B I *D sky130_fd_sc_hd__dfrtp_2
*I *3845:X O *D sky130_fd_sc_hd__o21a_2
*CAP
1 *4037:RESET_B 0.000200639
2 *3845:X 0.000200639
3 *4037:RESET_B *3930:CLK 1.22676e-05
4 *4037:RESET_B *4043:RESET_B 9.54469e-05
5 *4037:RESET_B *628:93 5.38986e-06
6 *4037:RESET_B *628:97 5.00612e-05
7 *4037:RESET_B *628:127 9.82856e-06
8 *4037:RESET_B *885:62 0
9 *4037:RESET_B *885:93 0
10 *4037:RESET_B *899:82 0.000270653
11 *4039:D *4037:RESET_B 6.20952e-05
*RES
1 *3845:X *4037:RESET_B 10.805 
*END

*D_NET *257 0.000436981
*CONN
*I *4038:SET_B I *D sky130_fd_sc_hd__dfstp_2
*I *3846:X O *D sky130_fd_sc_hd__o21a_2
*CAP
1 *4038:SET_B 0.000106932
2 *3846:X 0.000106932
3 *4038:SET_B *3390:A1 3.09233e-05
4 *4038:SET_B *3398:A 0.000164679
5 *4038:SET_B *3846:A1 0
6 *4038:SET_B *3846:B1 2.75145e-05
*RES
1 *3846:X *4038:SET_B 7.94 
*END

*D_NET *258 0.000204304
*CONN
*I *4039:RESET_B I *D sky130_fd_sc_hd__dfrtp_2
*I *3847:X O *D sky130_fd_sc_hd__o21a_2
*CAP
1 *4039:RESET_B 4.64225e-05
2 *3847:X 4.64225e-05
3 *4039:RESET_B *607:78 9.71067e-05
4 *4039:RESET_B *885:62 1.43521e-05
*RES
1 *3847:X *4039:RESET_B 6.725 
*END

*D_NET *259 0.000611842
*CONN
*I *4040:RESET_B I *D sky130_fd_sc_hd__dfrtp_2
*I *3848:X O *D sky130_fd_sc_hd__o21a_2
*CAP
1 *4040:RESET_B 0.000138421
2 *3848:X 0.000138421
3 *4040:RESET_B *3434:A 6.23375e-05
4 *4040:RESET_B *4040:CLK 2.20753e-05
5 *4040:RESET_B *892:62 8.65961e-05
6 *3916:RESET_B *4040:RESET_B 0.000163992
*RES
1 *3848:X *4040:RESET_B 8.6825 
*END

*D_NET *260 0.000270619
*CONN
*I *4041:RESET_B I *D sky130_fd_sc_hd__dfrtp_2
*I *3849:X O *D sky130_fd_sc_hd__o21a_2
*CAP
1 *4041:RESET_B 5.62489e-05
2 *3849:X 5.62489e-05
3 *4041:RESET_B *4094:A 6.64979e-05
4 *4041:RESET_B *643:76 9.16237e-05
*RES
1 *3849:X *4041:RESET_B 7.49 
*END

*D_NET *261 0.000288424
*CONN
*I *4042:RESET_B I *D sky130_fd_sc_hd__dfrtp_2
*I *3850:X O *D sky130_fd_sc_hd__o21a_2
*CAP
1 *4042:RESET_B 0.000108293
2 *3850:X 0.000108293
3 *4042:RESET_B *3749:A1 0
4 *11:10 *4042:RESET_B 7.1837e-05
*RES
1 *3850:X *4042:RESET_B 7.43 
*END

*D_NET *262 0.00111874
*CONN
*I *4043:RESET_B I *D sky130_fd_sc_hd__dfrtp_2
*I *3851:X O *D sky130_fd_sc_hd__o21a_2
*CAP
1 *4043:RESET_B 0.000439501
2 *3851:X 0.000439501
3 *4043:RESET_B *4100:A 5.21046e-05
4 *4043:RESET_B *628:91 1.52945e-05
5 *4043:RESET_B *659:6 4.06007e-05
6 *4043:RESET_B *659:16 2.47313e-05
7 *4043:RESET_B *659:58 0
8 *4043:RESET_B *885:93 0
9 *4043:RESET_B *899:82 1.1561e-05
10 *4043:RESET_B *901:59 0
11 *4037:RESET_B *4043:RESET_B 9.54469e-05
*RES
1 *3851:X *4043:RESET_B 12.6125 
*END

*D_NET *263 0.000269762
*CONN
*I *4044:RESET_B I *D sky130_fd_sc_hd__dfrtp_2
*I *3852:X O *D sky130_fd_sc_hd__o21a_2
*CAP
1 *4044:RESET_B 0.000119862
2 *3852:X 0.000119862
3 *4044:RESET_B *3391:A2 3.00381e-05
4 *4044:RESET_B *3853:A2 0
5 *4044:RESET_B *659:90 0
6 *4044:RESET_B *1028:8 0
*RES
1 *3852:X *4044:RESET_B 7.43 
*END

*D_NET *264 0.000247993
*CONN
*I *4045:RESET_B I *D sky130_fd_sc_hd__dfrtp_2
*I *3853:X O *D sky130_fd_sc_hd__o21a_2
*CAP
1 *4045:RESET_B 7.71101e-05
2 *3853:X 7.71101e-05
3 *4045:RESET_B *4044:D 4.24575e-05
4 *50:8 *4045:RESET_B 5.13155e-05
*RES
1 *3853:X *4045:RESET_B 7.1225 
*END

*D_NET *265 0.0011909
*CONN
*I *3856:D I *D sky130_fd_sc_hd__dfrtp_2
*I *3627:X O *D sky130_fd_sc_hd__mux2_1
*CAP
1 *3856:D 0.000287928
2 *3627:X 0.000287928
3 *3856:D *3627:A1 0.000273008
4 *3856:D *3693:A1 0.000274659
5 *3856:D *3857:CLK 6.73751e-05
*RES
1 *3627:X *3856:D 12.885 
*END

*D_NET *266 0.00108405
*CONN
*I *3857:D I *D sky130_fd_sc_hd__dfrtp_2
*I *3628:X O *D sky130_fd_sc_hd__mux2_1
*CAP
1 *3857:D 0.000243533
2 *3628:X 0.000243533
3 *3857:D *3627:A0 0.000112291
4 *3857:D *3697:A1 8.72476e-06
5 *3857:D *908:73 0.000198939
6 *4363:A *3857:D 0.000277029
*RES
1 *3628:X *3857:D 12.54 
*END

*D_NET *267 0.00110125
*CONN
*I *3858:D I *D sky130_fd_sc_hd__dfrtp_2
*I *3629:X O *D sky130_fd_sc_hd__mux2_1
*CAP
1 *3858:D 0.000261709
2 *3629:X 0.000261709
3 *3858:D *3629:A0 0
4 *3858:D *3629:A1 0
5 *3858:D *3695:A1 0.000241483
6 *3858:D *427:55 6.73751e-05
7 *3858:D *844:14 0.000268971
*RES
1 *3629:X *3858:D 12.54 
*END

*D_NET *268 0.000560259
*CONN
*I *3859:D I *D sky130_fd_sc_hd__dfrtp_2
*I *3630:X O *D sky130_fd_sc_hd__mux2_1
*CAP
1 *3859:D 0.000138983
2 *3630:X 0.000138983
3 *3859:D *3484:B2 4.66108e-05
4 *3859:D *3691:A1 0.000158356
5 *3859:D *3859:CLK 5.83121e-06
6 *3859:D *620:21 1.91597e-05
7 *3859:D *620:32 5.23362e-05
*RES
1 *3630:X *3859:D 9.99 
*END

*D_NET *269 0.000808958
*CONN
*I *3860:D I *D sky130_fd_sc_hd__dfrtp_2
*I *3631:X O *D sky130_fd_sc_hd__mux2_1
*CAP
1 *3860:D 0.000149834
2 *3631:X 0.000149834
3 *3860:D *3699:A1 0.000177557
4 *3860:D *3700:B2 0.000331734
*RES
1 *3631:X *3860:D 11.58 
*END

*D_NET *270 0.000997005
*CONN
*I *3861:D I *D sky130_fd_sc_hd__dfrtp_2
*I *3632:X O *D sky130_fd_sc_hd__mux2_1
*CAP
1 *3861:D 0.000359056
2 *3632:X 0.000359056
3 *3861:D *3485:A 0.000143726
4 *3861:D *3701:A1 0
5 *3861:D *845:6 0.000107643
6 *4360:A *3861:D 2.75229e-05
*RES
1 *3632:X *3861:D 12.225 
*END

*D_NET *271 0.000334123
*CONN
*I *3862:D I *D sky130_fd_sc_hd__dfrtp_2
*I *3633:X O *D sky130_fd_sc_hd__mux2_1
*CAP
1 *3862:D 0.00013173
2 *3633:X 0.00013173
3 *3862:D *3632:A0 0
4 *3862:D *3687:B1 3.39151e-05
5 *3862:D *908:18 3.09179e-05
6 *4360:A *3862:D 5.83121e-06
*RES
1 *3633:X *3862:D 9.12 
*END

*D_NET *272 0.00503632
*CONN
*I *4246:A I *D sky130_fd_sc_hd__dlygate4sd3_1
*I *3395:X O *D sky130_fd_sc_hd__or3_2
*CAP
1 *4246:A 0.00120602
2 *3395:X 0.00120602
3 *4246:A *3395:A 0.000269343
4 *4246:A *3554:A2 5.01003e-05
5 *4246:A *3635:B 0
6 *4246:A *3635:C 0.000127765
7 *4246:A *3650:A1 6.878e-05
8 *4246:A *3816:B1 4.87939e-05
9 *4246:A *3821:A1 0.000421202
10 *4246:A *3967:D 0.000269335
11 *4246:A *4065:A 0.000116158
12 *4246:A *655:20 5.95938e-05
13 *4246:A *655:28 0.000346165
14 *4246:A *881:23 8.35118e-05
15 *4246:A *881:29 0.000172773
16 *4246:A *896:39 1.64132e-05
17 *4246:A *896:45 0.000346781
18 *4246:A *1010:12 4.34975e-05
19 *4246:A *1118:14 0
20 *4174:A *4246:A 0.000184067
*RES
1 *3395:X *4246:A 36.745 
*END

*D_NET *273 0.000771477
*CONN
*I *3864:D I *D sky130_fd_sc_hd__dfrtp_2
*I *3636:X O *D sky130_fd_sc_hd__mux2_1
*CAP
1 *3864:D 0.000142719
2 *3636:X 0.000142719
3 *3864:D *3516:B 0.000307576
4 *3864:D *3865:D 0.000116151
5 *3864:D *900:18 6.23119e-05
*RES
1 *3636:X *3864:D 11.16 
*END

*D_NET *274 0.00104719
*CONN
*I *3865:D I *D sky130_fd_sc_hd__dfrtp_2
*I *3637:X O *D sky130_fd_sc_hd__mux2_1
*CAP
1 *3865:D 0.000300794
2 *3637:X 0.000300794
3 *3865:D *3855:CLK 0
4 *3865:D *3855:D 4.99619e-05
5 *3865:D *610:98 0
6 *3865:D *661:19 0
7 *3865:D *900:18 0.000135771
8 *3865:D *918:6 4.66108e-05
9 *3855:SET_B *3865:D 9.71067e-05
10 *3864:D *3865:D 0.000116151
11 *4188:A *3865:D 0
*RES
1 *3637:X *3865:D 13.305 
*END

*D_NET *275 0.00105339
*CONN
*I *3866:D I *D sky130_fd_sc_hd__dfrtp_2
*I *3638:X O *D sky130_fd_sc_hd__mux2_1
*CAP
1 *3866:D 0.000426728
2 *3638:X 0.000426728
3 *3866:D *3638:A0 0
4 *3866:D *3862:CLK 0
5 *3866:D *3862:RESET_B 4.40446e-05
6 *3866:D *618:20 0
7 *3866:D *646:43 0.000155884
8 *3977:D *3866:D 0
*RES
1 *3638:X *3866:D 13.8 
*END

*D_NET *276 0.000147557
*CONN
*I *3867:D I *D sky130_fd_sc_hd__dfrtp_2
*I *3639:X O *D sky130_fd_sc_hd__mux2_1
*CAP
1 *3867:D 5.43023e-05
2 *3639:X 5.43023e-05
3 *3867:D *618:109 3.89528e-05
4 *3867:D *981:10 0
*RES
1 *3639:X *3867:D 8.325 
*END

*D_NET *277 0.00092179
*CONN
*I *3868:D I *D sky130_fd_sc_hd__dfrtp_2
*I *3640:X O *D sky130_fd_sc_hd__mux2_1
*CAP
1 *3868:D 0.000216673
2 *3640:X 0.000216673
3 *3868:D *3646:A1 0.000245862
4 *3868:D *3870:D 5.14214e-05
5 *4333:A *3868:D 0.00019116
6 *4373:A *3868:D 0
*RES
1 *3640:X *3868:D 12.855 
*END

*D_NET *278 0.000370655
*CONN
*I *3869:D I *D sky130_fd_sc_hd__dfrtp_2
*I *3641:X O *D sky130_fd_sc_hd__mux2_1
*CAP
1 *3869:D 0.000123072
2 *3641:X 0.000123072
3 *3869:D *3707:A 0
4 *3869:D *3869:CLK 7.21296e-06
5 *3869:D *3871:RESET_B 4.66108e-05
6 *3869:D *4310:A 7.06865e-05
7 *3869:D *4396:A 0
*RES
1 *3641:X *3869:D 9.285 
*END

*D_NET *279 0.00040915
*CONN
*I *3870:D I *D sky130_fd_sc_hd__dfrtp_2
*I *3642:X O *D sky130_fd_sc_hd__mux2_1
*CAP
1 *3870:D 0.000116499
2 *3642:X 0.000116499
3 *3870:D *3642:A0 2.49909e-05
4 *3870:D *3642:A1 8.73389e-06
5 *3870:D *3870:CLK 5.12842e-05
6 *3868:D *3870:D 5.14214e-05
7 *4333:A *3870:D 3.97211e-05
*RES
1 *3642:X *3870:D 9.63 
*END

*D_NET *280 0.000270598
*CONN
*I *3871:D I *D sky130_fd_sc_hd__dfrtp_2
*I *3643:X O *D sky130_fd_sc_hd__mux2_1
*CAP
1 *3871:D 5.62299e-05
2 *3643:X 5.62299e-05
3 *3871:D *3647:A1 9.16315e-05
4 *3871:D *3875:D 6.65066e-05
*RES
1 *3643:X *3871:D 9.09 
*END

*D_NET *281 0.00131291
*CONN
*I *3872:D I *D sky130_fd_sc_hd__dfrtp_2
*I *3644:X O *D sky130_fd_sc_hd__mux2_1
*CAP
1 *3872:D 0.000363646
2 *3644:X 0.000363646
3 *3872:D *3644:A1 0.000496214
4 *3872:D *4309:A 0
5 *3872:D *929:10 8.94026e-05
*RES
1 *3644:X *3872:D 15.495 
*END

*D_NET *282 0.000249439
*CONN
*I *3873:D I *D sky130_fd_sc_hd__dfrtp_2
*I *3645:X O *D sky130_fd_sc_hd__mux2_1
*CAP
1 *3873:D 7.92994e-05
2 *3645:X 7.92994e-05
3 o_receive_data[6] *3873:D 5.39718e-05
4 o_receive_data[7] *3873:D 3.68682e-05
*RES
1 *3645:X *3873:D 8.775 
*END

*D_NET *283 0.000651153
*CONN
*I *3874:D I *D sky130_fd_sc_hd__dfrtp_2
*I *3646:X O *D sky130_fd_sc_hd__mux2_1
*CAP
1 *3874:D 0.000159548
2 *3646:X 0.000159548
3 *3874:D *3644:A1 3.86607e-05
4 *3874:D *3646:A1 0
5 *3874:D *3868:CLK 8.53113e-06
6 *3874:D *608:33 0.000120186
7 *3874:D *608:42 0.000164679
*RES
1 *3646:X *3874:D 10.815 
*END

*D_NET *284 0.000990612
*CONN
*I *3875:D I *D sky130_fd_sc_hd__dfrtp_2
*I *3647:X O *D sky130_fd_sc_hd__mux2_1
*CAP
1 *3875:D 0.00028548
2 *3647:X 0.00028548
3 *3875:D *3647:A1 0
4 o_receive_data[6] *3875:D 0.000353145
5 *3871:D *3875:D 6.65066e-05
6 *4366:A *3875:D 0
*RES
1 *3647:X *3875:D 13.2 
*END

*D_NET *285 0.000560266
*CONN
*I *3876:D I *D sky130_fd_sc_hd__dfrtp_2
*I *3650:X O *D sky130_fd_sc_hd__o21a_2
*CAP
1 *3876:D 0.000182217
2 *3650:X 0.000182217
3 *3876:D *613:10 8.25329e-05
4 *3876:D *706:12 9.18057e-05
5 *3876:D *1012:14 2.14921e-05
*RES
1 *3650:X *3876:D 10.815 
*END

*D_NET *286 0.00111461
*CONN
*I *3877:D I *D sky130_fd_sc_hd__dfrtp_2
*I *3652:X O *D sky130_fd_sc_hd__o21a_2
*CAP
1 *3877:D 0.00031237
2 *3652:X 0.00031237
3 *3877:D *3652:A2 3.54721e-05
4 *3877:D *3652:B1 2.69153e-05
5 *3877:D *3654:A1 0.000181741
6 *3877:D *3878:CLK 0
7 *3877:D *3878:D 0.000173763
8 *3877:D *4167:A 7.5687e-06
9 *3877:D *4399:A 6.44134e-05
*RES
1 *3652:X *3877:D 14.31 
*END

*D_NET *287 0.00107771
*CONN
*I *3878:D I *D sky130_fd_sc_hd__dfrtp_2
*I *3654:X O *D sky130_fd_sc_hd__o21a_2
*CAP
1 *3878:D 0.000373879
2 *3654:X 0.000373879
3 *3878:D *3651:A_N 5.95831e-05
4 *3878:D *3653:A_N 0
5 *3878:D *3654:A1 0
6 *3878:D *3654:A2 0
7 *3878:D *4399:A 9.66021e-05
8 *3878:D *650:10 0
9 *3877:D *3878:D 0.000173763
*RES
1 *3654:X *3878:D 14.745 
*END

*D_NET *288 0.00102488
*CONN
*I *3879:D I *D sky130_fd_sc_hd__dfrtp_2
*I *3656:X O *D sky130_fd_sc_hd__o21a_2
*CAP
1 *3879:D 0.000232327
2 *3656:X 0.000232327
3 *3879:D *3393:B1_N 6.75156e-05
4 *3879:D *3652:B1 1.14192e-05
5 *3879:D *3656:A1 1.91597e-05
6 *3879:D *3656:B1 4.22944e-05
7 *3879:D *3658:A1 0.000121032
8 *3879:D *4070:A 9.56017e-06
9 *3879:D *614:10 7.061e-05
10 *3879:D *614:63 0.000104669
11 *3879:D *994:18 0.000113966
*RES
1 *3656:X *3879:D 11.865 
*END

*D_NET *289 0.00152317
*CONN
*I *3880:D I *D sky130_fd_sc_hd__dfrtp_2
*I *3658:X O *D sky130_fd_sc_hd__o21a_2
*CAP
1 *3880:D 0.000379519
2 *3658:X 0.000379519
3 *3880:D *3393:B1_N 0.000151543
4 *3880:D *3654:B1 8.52972e-05
5 *3880:D *3656:A2 0.00011107
6 *3880:D *3658:A1 1.06042e-05
7 *3880:D *3879:CLK 1.56428e-05
8 *3880:D *3880:CLK 7.10578e-05
9 *3880:D *4067:A 8.49205e-05
10 *3880:D *4167:A 8.35363e-05
11 *3880:D *4258:A 3.25831e-05
12 *3880:D *614:10 1.49811e-05
13 *3880:D *614:12 2.03578e-05
14 *3880:D *994:18 8.25394e-05
*RES
1 *3658:X *3880:D 14.79 
*END

*D_NET *290 0.000927773
*CONN
*I *3881:D I *D sky130_fd_sc_hd__dfrtp_2
*I *3659:X O *D sky130_fd_sc_hd__mux2_1
*CAP
1 *3881:D 0.000174991
2 *3659:X 0.000174991
3 *3881:D *3659:A0 0.000266477
4 *3881:D *4168:A 0.000266477
5 *3881:D *910:60 4.48382e-05
*RES
1 *3659:X *3881:D 11.505 
*END

*D_NET *291 0.000416554
*CONN
*I *3882:D I *D sky130_fd_sc_hd__dfrtp_2
*I *3660:X O *D sky130_fd_sc_hd__mux2_1
*CAP
1 *3882:D 0.000117373
2 *3660:X 0.000117373
3 *3882:D *3660:A1 0.000120186
4 *3882:D *4168:A 0
5 *3882:D *4384:A 4.82919e-05
6 *3882:D *910:60 1.33293e-05
*RES
1 *3660:X *3882:D 9.375 
*END

*D_NET *292 0.00111916
*CONN
*I *3883:D I *D sky130_fd_sc_hd__dfstp_2
*I *3662:X O *D sky130_fd_sc_hd__a21o_2
*CAP
1 *3883:D 0.000189569
2 *3662:X 0.000189569
3 *3883:D *3402:B 0.000293712
4 *3883:D *3662:B1 8.15676e-05
5 *3883:D *4073:TE_B 0.000316112
6 *3883:D *354:24 2.75229e-05
7 *3883:D *643:43 2.11084e-05
8 *3883:D *643:67 0
*RES
1 *3662:X *3883:D 13.11 
*END

*D_NET *293 0.000591018
*CONN
*I *3884:D I *D sky130_fd_sc_hd__dfxtp_2
*I *3664:X O *D sky130_fd_sc_hd__mux2_1
*CAP
1 *3884:D 0.000225589
2 *3664:X 0.000225589
3 *3884:D *3664:A0 2.75229e-05
4 *3884:D *3664:A1 0
5 *3884:D *3678:S 0
6 *3884:D *4049:RESET_B 7.55391e-05
7 *3884:D *4053:RESET_B 0
8 *3884:D *4285:A 3.67779e-05
*RES
1 *3664:X *3884:D 10.9537 
*END

*D_NET *294 0.00168989
*CONN
*I *3885:D I *D sky130_fd_sc_hd__dfxtp_2
*I *3666:X O *D sky130_fd_sc_hd__mux2_1
*CAP
1 *3885:D 0.000368125
2 *3666:X 0.000368125
3 *3885:D *3666:A0 0.000321456
4 *3885:D *3666:A1 0.000295989
5 *3885:D *3669:B 4.82319e-06
6 *3885:D *3672:A1 0.000121876
7 *3885:D *3888:D 9.54399e-05
8 *3885:D *359:87 1.86126e-05
9 *3885:D *623:77 9.54399e-05
*RES
1 *3666:X *3885:D 16.4287 
*END

*D_NET *295 0.000939943
*CONN
*I *3886:D I *D sky130_fd_sc_hd__dfxtp_2
*I *3668:X O *D sky130_fd_sc_hd__mux2_1
*CAP
1 *3886:D 0.000220078
2 *3668:X 0.000220078
3 *3886:D *3669:B 4.11678e-06
4 *3886:D *3672:A1 0.000241286
5 *3886:D *3674:A1 7.23602e-05
6 *3886:D *624:59 0.000141599
7 o_receive_data[5] *3886:D 4.04259e-05
*RES
1 *3668:X *3886:D 12.3638 
*END

*D_NET *296 0.00110878
*CONN
*I *3887:D I *D sky130_fd_sc_hd__dfxtp_2
*I *3670:X O *D sky130_fd_sc_hd__mux2_1
*CAP
1 *3887:D 0.000194301
2 *3670:X 0.000194301
3 *3887:D *3666:A1 0.000181145
4 *3887:D *3669:A 0.000127754
5 *3887:D *3672:A1 0.000404775
6 *3887:D *624:59 6.50844e-06
*RES
1 *3670:X *3887:D 12.8438 
*END

*D_NET *297 0.000574782
*CONN
*I *3888:D I *D sky130_fd_sc_hd__dfxtp_2
*I *3672:X O *D sky130_fd_sc_hd__mux2_1
*CAP
1 *3888:D 0.000124433
2 *3672:X 0.000124433
3 *3888:D *3672:A1 9.37731e-05
4 *3888:D *359:87 0.000122331
5 *3888:D *623:77 1.43717e-05
6 *3885:D *3888:D 9.54399e-05
*RES
1 *3672:X *3888:D 9.60375 
*END

*D_NET *298 0.000620276
*CONN
*I *3889:D I *D sky130_fd_sc_hd__dfxtp_2
*I *3674:X O *D sky130_fd_sc_hd__mux2_1
*CAP
1 *3889:D 0.000169927
2 *3674:X 0.000169927
3 *3889:D *3889:CLK 0.000243554
4 *3889:D *623:60 3.68682e-05
*RES
1 *3674:X *3889:D 10.5337 
*END

*D_NET *299 0.000426104
*CONN
*I *3890:D I *D sky130_fd_sc_hd__dfxtp_2
*I *3676:X O *D sky130_fd_sc_hd__mux2_1
*CAP
1 *3890:D 0.000121665
2 *3676:X 0.000121665
3 *3890:D *3676:S 4.77719e-05
4 *3890:D *640:28 0.000135002
*RES
1 *3676:X *3890:D 9.42375 
*END

*D_NET *300 0.000440651
*CONN
*I *3891:D I *D sky130_fd_sc_hd__dfxtp_2
*I *3678:X O *D sky130_fd_sc_hd__mux2_1
*CAP
1 *3891:D 0.000125804
2 *3678:X 0.000125804
3 *3891:D *3712:B 5.05437e-05
4 *3891:D *3905:CLK 4.70343e-05
5 *3891:D *640:14 1.43717e-05
6 *3891:D *641:10 7.70938e-05
7 *3891:D *646:61 0
*RES
1 *3678:X *3891:D 9.76875 
*END

*D_NET *301 0.000175322
*CONN
*I *4250:A I *D sky130_fd_sc_hd__dlygate4sd3_1
*I *3679:X O *D sky130_fd_sc_hd__a22o_2
*CAP
1 *4250:A 8.76612e-05
2 *3679:X 8.76612e-05
*RES
1 *3679:X *4250:A 4.355 
*END

*D_NET *302 0.00067056
*CONN
*I *3893:D I *D sky130_fd_sc_hd__dfrtp_2
*I *3681:Y O *D sky130_fd_sc_hd__nor2_2
*CAP
1 *3893:D 0.000272833
2 *3681:Y 0.000272833
3 *3893:D *3518:A1 0
4 *3893:D *3893:RESET_B 0
5 *3893:D *605:46 0.000124895
6 *3893:D *652:16 0
7 *3976:D *3893:D 0
*RES
1 *3681:Y *3893:D 12.015 
*END

*D_NET *303 0.000797919
*CONN
*I *3894:D I *D sky130_fd_sc_hd__dfrtp_2
*I *3684:X O *D sky130_fd_sc_hd__a22o_2
*CAP
1 *3894:D 0.000209014
2 *3684:X 0.000209014
3 *3894:D *3456:A2 0
4 *3894:D *3685:A1 0.000164686
5 *3894:D *3685:B2 4.24292e-06
6 *3894:D *3946:RESET_B 4.94326e-05
7 *3973:D *3894:D 0.000161529
*RES
1 *3684:X *3894:D 11.85 
*END

*D_NET *304 0.000533582
*CONN
*I *3895:D I *D sky130_fd_sc_hd__dfrtp_2
*I *3685:X O *D sky130_fd_sc_hd__a22o_2
*CAP
1 *3895:D 0.000266791
2 *3685:X 0.000266791
*RES
1 *3685:X *3895:D 6.875 
*END

*D_NET *305 0.000989153
*CONN
*I *4202:A I *D sky130_fd_sc_hd__dlygate4sd3_1
*I *3686:X O *D sky130_fd_sc_hd__a21o_2
*CAP
1 *4202:A 0.000208181
2 *3686:X 0.000208181
3 *4202:A *3686:A1 2.75145e-05
4 *4202:A *4164:A 5.36281e-05
5 *4202:A *905:8 0.000491649
*RES
1 *3686:X *4202:A 8.135 
*END

*D_NET *306 0.000616652
*CONN
*I *3897:D I *D sky130_fd_sc_hd__dfrtp_2
*I *3688:X O *D sky130_fd_sc_hd__o21a_2
*CAP
1 *3897:D 0.000256818
2 *3688:X 0.000256818
3 *3897:D *3688:A1 0
4 *3897:D *3688:B1 3.56402e-05
5 *3897:D *618:68 6.73751e-05
*RES
1 *3688:X *3897:D 11.415 
*END

*D_NET *307 0.00127562
*CONN
*I *3898:D I *D sky130_fd_sc_hd__dfrtp_2
*I *3692:X O *D sky130_fd_sc_hd__a22o_2
*CAP
1 *3898:D 0.000224066
2 *3692:X 0.000224066
3 *3898:D *3620:A2 0.00023257
4 *3898:D *3692:A1 4.97182e-05
5 *3898:D *3696:B1 4.89395e-05
6 *3898:D *3702:B2 7.30505e-05
7 *3898:D *4243:A 0.000197379
8 *3898:D *562:14 7.38779e-05
9 *3898:D *562:35 0.000151955
*RES
1 *3692:X *3898:D 14.025 
*END

*D_NET *308 0.000551067
*CONN
*I *3899:D I *D sky130_fd_sc_hd__dfrtp_2
*I *3694:X O *D sky130_fd_sc_hd__a22o_2
*CAP
1 *3899:D 0.000153004
2 *3694:X 0.000153004
3 *3899:D *3694:B1 0.000152576
4 *3899:D *562:35 9.24825e-05
*RES
1 *3694:X *3899:D 9.74625 
*END

*D_NET *309 0.000753763
*CONN
*I *3900:D I *D sky130_fd_sc_hd__dfrtp_2
*I *3696:X O *D sky130_fd_sc_hd__a22o_2
*CAP
1 *3900:D 0.000165798
2 *3696:X 0.000165798
3 *3900:D *3692:B2 7.59185e-05
4 *3900:D *3696:A2 0.000113222
5 *3900:D *3696:B1 5.13924e-05
6 *3900:D *3702:B2 0.000119873
7 *3900:D *434:43 2.98644e-05
8 *3900:D *632:12 3.18965e-05
*RES
1 *3696:X *3900:D 10.74 
*END

*D_NET *310 0.000868593
*CONN
*I *3901:D I *D sky130_fd_sc_hd__dfrtp_2
*I *3698:X O *D sky130_fd_sc_hd__o22a_2
*CAP
1 *3901:D 0.000248028
2 *3698:X 0.000248028
3 *3901:D *3484:B1 8.87304e-05
4 *3901:D *3698:B1 0.000135168
5 *3901:D *3699:A1 4.6075e-05
6 *3901:D *3901:CLK 7.27003e-05
7 *4368:A *3901:D 2.98644e-05
*RES
1 *3698:X *3901:D 12.705 
*END

*D_NET *311 0.00193345
*CONN
*I *3902:D I *D sky130_fd_sc_hd__dfrtp_2
*I *3700:X O *D sky130_fd_sc_hd__o22a_2
*CAP
1 *3902:D 0.00067605
2 *3700:X 0.00067605
3 *3902:D *3694:B2 2.41307e-05
4 *3902:D *3902:CLK 2.99553e-05
5 *3902:D *3902:RESET_B 3.92944e-05
6 *3902:D *4092:A 7.03276e-05
7 *3902:D *563:22 0.000417642
*RES
1 *3700:X *3902:D 15.8138 
*END

*D_NET *312 0.00166305
*CONN
*I *3903:D I *D sky130_fd_sc_hd__dfrtp_2
*I *3702:X O *D sky130_fd_sc_hd__o22a_2
*CAP
1 *3903:D 0.000510019
2 *3702:X 0.000510019
3 *3903:D *3473:A 4.89295e-05
4 *3903:D *3473:B 4.1652e-06
5 *3903:D *3698:A2 0.000242559
6 *3903:D *3698:B2 0
7 *3903:D *3702:A2 0.000243067
8 *3903:D *3903:CLK 9.59596e-05
9 *3903:D *909:33 8.33066e-06
*RES
1 *3702:X *3903:D 16.0987 
*END

*D_NET *313 0.000845048
*CONN
*I *3904:D I *D sky130_fd_sc_hd__dfrtp_2
*I *3704:X O *D sky130_fd_sc_hd__o22a_2
*CAP
1 *3904:D 0.000303858
2 *3704:X 0.000303858
3 *3904:D *3688:A1 7.58309e-05
4 *3904:D *563:6 0.0001615
*RES
1 *3704:X *3904:D 11.85 
*END

*D_NET *314 0.00104422
*CONN
*I *3905:D I *D sky130_fd_sc_hd__dfrtp_2
*I *3716:Y O *D sky130_fd_sc_hd__nor2_2
*CAP
1 *3905:D 0.00026191
2 *3716:Y 0.00026191
3 *3905:D *3678:A0 6.44051e-05
4 *3905:D *3678:A1 0.000139238
5 *3905:D *3712:B 3.76596e-05
6 *3905:D *3745:A0 6.55328e-05
7 *3905:D *640:14 2.75229e-05
8 *3905:D *871:10 0.00010004
9 *3905:D *907:26 8.60035e-05
*RES
1 *3716:Y *3905:D 13.905 
*END

*D_NET *315 0.000848698
*CONN
*I *3906:D I *D sky130_fd_sc_hd__dfrtp_2
*I *3721:X O *D sky130_fd_sc_hd__and3_2
*CAP
1 *3906:D 0.000322275
2 *3721:X 0.000322275
3 *3906:D *3721:B 0
4 *3906:D *3906:RESET_B 7.63125e-05
5 *3906:D *4172:A 5.07419e-05
6 *3906:D *4182:A 0
7 *3906:D *915:10 7.70938e-05
*RES
1 *3721:X *3906:D 12.645 
*END

*D_NET *316 0.000689289
*CONN
*I *3907:D I *D sky130_fd_sc_hd__dfrtp_2
*I *3724:X O *D sky130_fd_sc_hd__and3b_2
*CAP
1 *3907:D 0.000133967
2 *3724:X 0.000133967
3 *3907:D *3907:CLK 5.83121e-06
4 *3907:D *580:10 0.000182349
5 *3907:D *632:22 0.000180682
6 *3907:D *916:32 5.24934e-05
*RES
1 *3724:X *3907:D 10.485 
*END

*D_NET *317 0.000802696
*CONN
*I *3908:D I *D sky130_fd_sc_hd__dfrtp_2
*I *3727:X O *D sky130_fd_sc_hd__and3b_2
*CAP
1 *3908:D 0.000164699
2 *3727:X 0.000164699
3 *3908:D *3727:C 9.86689e-05
4 *3908:D *3907:CLK 4.66108e-05
5 *3908:D *580:10 0.000287337
6 *3908:D *588:16 0
7 *3908:D *588:29 1.82476e-05
8 *3908:D *588:49 2.97004e-06
9 *3908:D *632:22 1.94636e-05
*RES
1 *3727:X *3908:D 11.58 
*END

*D_NET *318 0.000917328
*CONN
*I *3909:D I *D sky130_fd_sc_hd__dfrtp_2
*I *3730:X O *D sky130_fd_sc_hd__and3_2
*CAP
1 *3909:D 0.000376335
2 *3730:X 0.000376335
3 *3909:D *3730:A 2.16833e-05
4 *3909:D *3909:RESET_B 7.62006e-05
5 *3909:D *579:10 5.51158e-05
6 *3909:D *582:10 1.16578e-05
*RES
1 *3730:X *3909:D 13.185 
*END

*D_NET *319 0.00117381
*CONN
*I *3910:D I *D sky130_fd_sc_hd__dfrtp_2
*I *3733:X O *D sky130_fd_sc_hd__and3b_2
*CAP
1 *3910:D 0.000348342
2 *3733:X 0.000348342
3 *3910:D *3731:B1 0.000124473
4 *3910:D *3733:C 8.64421e-05
5 *3910:D *3910:CLK 3.82008e-05
6 *3910:D *619:14 0.000103192
7 *3910:D *619:34 5.46798e-05
8 *3910:D *916:32 7.01359e-05
*RES
1 *3733:X *3910:D 13.635 
*END

*D_NET *320 0.00159369
*CONN
*I *3911:D I *D sky130_fd_sc_hd__dfrtp_2
*I *3736:X O *D sky130_fd_sc_hd__and3b_2
*CAP
1 *3911:D 0.000525123
2 *3736:X 0.000525123
3 *3911:D *3735:B 0.000197204
4 *3911:D *3911:RESET_B 1.85048e-05
5 *3911:D *4397:A 3.83194e-05
6 *3911:D *595:8 0.000158532
7 *3911:D *619:51 0.000130882
*RES
1 *3736:X *3911:D 15.345 
*END

*D_NET *321 0.00175854
*CONN
*I *3912:D I *D sky130_fd_sc_hd__dfrtp_2
*I *3739:X O *D sky130_fd_sc_hd__and3_2
*CAP
1 *3912:D 0.000576127
2 *3739:X 0.000576127
3 *3912:D *3640:A0 7.4027e-05
4 *3912:D *3739:A 0
5 *3912:D *3742:C 3.47754e-05
6 *3912:D *3913:D 7.23533e-05
7 *3912:D *582:59 0
8 *3912:D *916:77 0.000425128
*RES
1 *3739:X *3912:D 16.4438 
*END

*D_NET *322 0.000488669
*CONN
*I *3913:D I *D sky130_fd_sc_hd__dfrtp_2
*I *3742:X O *D sky130_fd_sc_hd__and3_2
*CAP
1 *3913:D 0.000104919
2 *3742:X 0.000104919
3 *3913:D *3740:B1 0
4 *3913:D *3742:C 0.000153507
5 *3913:D *916:77 5.29707e-05
6 *3912:D *3913:D 7.23533e-05
*RES
1 *3742:X *3913:D 10.365 
*END

*D_NET *323 0.000999387
*CONN
*I *3914:D I *D sky130_fd_sc_hd__dfrtp_2
*I *3744:X O *D sky130_fd_sc_hd__a21o_2
*CAP
1 *3914:D 0.000327702
2 *3744:X 0.000327702
3 *3914:D *3744:A1 0.000252275
4 *3914:D *3744:A2 7.22354e-05
5 *3914:D *3914:RESET_B 1.94723e-05
6 *3914:D *603:13 0
7 *3914:D *1008:10 0
*RES
1 *3744:X *3914:D 13.5 
*END

*D_NET *324 0.00081988
*CONN
*I *3915:D I *D sky130_fd_sc_hd__dfrtp_2
*I *3392:X O *D sky130_fd_sc_hd__o21a_2
*CAP
1 *3915:D 0.000306042
2 *3392:X 0.000306042
3 *3915:D *3391:B1 0
4 *3915:D *4153:A 0
5 *3915:D *4234:A 0.000207797
6 *3915:D *911:10 0
*RES
1 *3392:X *3915:D 12.27 
*END

*D_NET *325 0.000592566
*CONN
*I *3916:D I *D sky130_fd_sc_hd__dfrtp_2
*I *3390:X O *D sky130_fd_sc_hd__o21a_2
*CAP
1 *3916:D 0.000163257
2 *3390:X 0.000163257
3 *3916:D *3324:A 0
4 *3916:D *3390:A2 0.000138544
5 *3916:D *3390:B1 2.65814e-06
6 *3916:D *3846:A2 0.000116629
7 *3916:D *3849:A1 8.22234e-06
*RES
1 *3390:X *3916:D 10.395 
*END

*D_NET *326 0.000515251
*CONN
*I *4220:A I *D sky130_fd_sc_hd__dlygate4sd3_1
*I *3388:Y O *D sky130_fd_sc_hd__a21oi_2
*CAP
1 *4220:A 0.000212985
2 *3388:Y 0.000212985
3 *4220:A *3388:A1 4.92935e-05
4 *4220:A *606:45 3.99879e-05
*RES
1 *3388:Y *4220:A 6.35 
*END

*D_NET *327 0.000761207
*CONN
*I *3918:D I *D sky130_fd_sc_hd__dfrtp_2
*I *3386:X O *D sky130_fd_sc_hd__and3b_2
*CAP
1 *3918:D 0.000217576
2 *3386:X 0.000217576
3 *3918:D *3365:D 7.23533e-05
4 *3918:D *3918:CLK 6.81315e-05
5 *3918:D *392:10 8.53113e-06
6 *3918:D *876:6 5.83121e-06
7 *3918:D *876:20 2.75145e-05
8 *3918:D *1042:25 6.87975e-05
9 *11:10 *3918:D 7.48967e-05
*RES
1 *3386:X *3918:D 11.31 
*END

*D_NET *328 0.000302676
*CONN
*I *3919:D I *D sky130_fd_sc_hd__dfrtp_2
*I *3384:Y O *D sky130_fd_sc_hd__nor2_2
*CAP
1 *3919:D 7.15609e-05
2 *3384:Y 7.15609e-05
3 *3919:D *877:31 3.00381e-05
4 *3919:D *890:27 5.84749e-05
5 *11:10 *3919:D 7.10414e-05
*RES
1 *3384:Y *3919:D 9.03 
*END

*D_NET *329 0.000542103
*CONN
*I *3920:D I *D sky130_fd_sc_hd__dfrtp_2
*I *3382:Y O *D sky130_fd_sc_hd__a21oi_2
*CAP
1 *3920:D 8.73986e-05
2 *3382:Y 8.73986e-05
3 *3920:D *3382:B1 0.000134516
4 *3920:D *4097:A 0.000122331
5 *3920:D *392:29 7.09999e-05
6 *3920:D *396:20 3.94592e-05
*RES
1 *3382:Y *3920:D 9.975 
*END

*D_NET *330 0.000324733
*CONN
*I *3921:D I *D sky130_fd_sc_hd__dfrtp_2
*I *3380:X O *D sky130_fd_sc_hd__and3b_2
*CAP
1 *3921:D 0.000130169
2 *3380:X 0.000130169
3 *3921:D *3380:B 5.83121e-06
4 *3921:D *1045:16 5.85626e-05
*RES
1 *3380:X *3921:D 5.39 
*END

*D_NET *331 0.000603009
*CONN
*I *3922:D I *D sky130_fd_sc_hd__dfrtp_2
*I *3378:Y O *D sky130_fd_sc_hd__nor2_2
*CAP
1 *3922:D 0.000233026
2 *3378:Y 0.000233026
3 *3922:D *3377:A1 3.89528e-05
4 *3922:D *3378:B 4.9253e-06
5 *3922:D *3770:A2 0
6 *3922:RESET_B *3922:D 9.30787e-05
*RES
1 *3378:Y *3922:D 11.415 
*END

*D_NET *332 0.000969028
*CONN
*I *3923:D I *D sky130_fd_sc_hd__dfrtp_2
*I *3376:Y O *D sky130_fd_sc_hd__a21oi_2
*CAP
1 *3923:D 0.000162052
2 *3376:Y 0.000162052
3 *3923:D *3370:A 2.05583e-05
4 *3923:D *3371:A 0.00028899
5 *3923:D *3375:A2 0.00015995
6 *3923:D *3376:B1 9.14049e-05
7 *3923:D *394:58 8.40213e-05
*RES
1 *3376:Y *3923:D 11.415 
*END

*D_NET *333 0.000347417
*CONN
*I *3924:D I *D sky130_fd_sc_hd__dfrtp_2
*I *3374:Y O *D sky130_fd_sc_hd__nor2_2
*CAP
1 *3924:D 8.10124e-05
2 *3374:Y 8.10124e-05
3 *3924:D *3374:A 0
4 *3924:D *626:64 0.000138781
5 *3924:D *644:77 0
6 *3924:D *1048:10 4.66108e-05
*RES
1 *3374:Y *3924:D 9.03 
*END

*D_NET *334 0.00130419
*CONN
*I *3925:D I *D sky130_fd_sc_hd__dfrtp_2
*I *3371:X O *D sky130_fd_sc_hd__and3_2
*CAP
1 *3925:D 0.000418565
2 *3371:X 0.000418565
3 *3925:D *3375:A1 3.10513e-05
4 *3925:D *3375:B1 2.25075e-05
5 *3925:D *3922:CLK 0.000107424
6 *3925:D *3925:CLK 0.00022786
7 *3925:D *396:96 4.18603e-06
8 *3925:D *644:103 7.4027e-05
*RES
1 *3371:X *3925:D 12.9338 
*END

*D_NET *335 0.000472153
*CONN
*I *3926:D I *D sky130_fd_sc_hd__dfrtp_2
*I *3363:X O *D sky130_fd_sc_hd__a31o_2
*CAP
1 *3926:D 8.01298e-05
2 *3363:X 8.01298e-05
3 *3926:D *3363:A1 1.47256e-05
4 *3926:D *3363:A3 0.000161861
5 *3926:D *3434:B 8.40213e-05
6 *3926:D *626:21 4.70995e-05
7 *3926:D *626:23 4.18603e-06
*RES
1 *3363:X *3926:D 9.63 
*END

*D_NET *336 0.000401607
*CONN
*I *3927:D I *D sky130_fd_sc_hd__dfrtp_2
*I *3362:X O *D sky130_fd_sc_hd__mux2_1
*CAP
1 *3927:D 0.000151916
2 *3362:X 0.000151916
3 *3927:D *3337:A 5.07419e-05
4 *3927:RESET_B *3927:D 4.70343e-05
5 *3998:RESET_B *3927:D 0
*RES
1 *3362:X *3927:D 10.065 
*END

*D_NET *337 0.000783587
*CONN
*I *4286:A I *D sky130_fd_sc_hd__dlygate4sd3_1
*I *3745:X O *D sky130_fd_sc_hd__mux2_1
*CAP
1 *4286:A 0.000278608
2 *3745:X 0.000278608
3 *4286:A *3676:S 0
4 *4286:A *3750:A0 0
5 *4286:A *3750:A1 4.40725e-05
6 *4286:A *359:45 1.98869e-05
7 *4286:A *623:101 0
8 *4286:A *646:61 0.000162412
*RES
1 *3745:X *4286:A 12.105 
*END

*D_NET *338 0.000426037
*CONN
*I *4050:D I *D sky130_fd_sc_hd__dfrtp_2
*I *3746:X O *D sky130_fd_sc_hd__mux2_1
*CAP
1 *4050:D 0.000111947
2 *3746:X 0.000111947
3 *4050:D *3667:A 6.28687e-05
4 *4050:D *3668:S 0.000116151
5 *4050:D *3917:CLK 2.31229e-05
*RES
1 *3746:X *4050:D 9.375 
*END

*D_NET *339 0.00106852
*CONN
*I *4051:D I *D sky130_fd_sc_hd__dfrtp_2
*I *3747:X O *D sky130_fd_sc_hd__mux2_1
*CAP
1 *4051:D 0.000315006
2 *3747:X 0.000315006
3 *4051:D *3667:A 1.34361e-05
4 *4051:D *4056:RESET_B 0
5 *4051:D *889:105 0.000425068
*RES
1 *3747:X *4051:D 11.88 
*END

*D_NET *340 0.00118712
*CONN
*I *4229:A I *D sky130_fd_sc_hd__dlygate4sd3_1
*I *3748:X O *D sky130_fd_sc_hd__mux2_1
*CAP
1 *4229:A 0.000268819
2 *3748:X 0.000268819
3 *4229:A *3748:A1 1.83756e-05
4 *4229:A *3883:CLK 0.0001249
5 *4229:A *3982:CLK 9.50342e-06
6 *4229:A *4052:D 0.000116853
7 *4229:A *354:24 1.68092e-05
8 *4229:A *622:80 8.28738e-05
9 *4229:A *622:82 0.000196613
10 *4229:A *939:16 1.33293e-05
11 *11:10 *4229:A 7.02257e-05
*RES
1 *3748:X *4229:A 13.26 
*END

*D_NET *341 0.00026615
*CONN
*I *4053:D I *D sky130_fd_sc_hd__dfrtp_2
*I *3749:X O *D sky130_fd_sc_hd__mux2_1
*CAP
1 *4053:D 0.000108929
2 *3749:X 0.000108929
3 *4053:D *3664:S 0
4 *4053:D *4042:CLK 0
5 *4053:D *622:17 0
6 *4053:D *622:27 4.82919e-05
*RES
1 *3749:X *4053:D 8.775 
*END

*D_NET *342 0.00120978
*CONN
*I *4270:A I *D sky130_fd_sc_hd__dlygate4sd3_1
*I *3750:X O *D sky130_fd_sc_hd__mux2_1
*CAP
1 *4270:A 0.000318627
2 *3750:X 0.000318627
3 *4270:A *3750:S 0
4 *4270:A *4054:D 0
5 *4270:A *4390:A 0.000279787
6 *4270:A *646:61 0.000292738
*RES
1 *3750:X *4270:A 13.14 
*END

*D_NET *343 0.000785846
*CONN
*I *4282:A I *D sky130_fd_sc_hd__dlygate4sd3_1
*I *3751:X O *D sky130_fd_sc_hd__mux2_1
*CAP
1 *4282:A 0.000212127
2 *3751:X 0.000212127
3 *4282:A *3752:S 2.65814e-06
4 *4282:A *641:37 6.36578e-05
5 *4282:A *889:91 0.000202534
6 *4282:A *907:102 9.2741e-05
*RES
1 *3751:X *4282:A 11.205 
*END

*D_NET *344 0.000715656
*CONN
*I *4277:A I *D sky130_fd_sc_hd__dlygate4sd3_1
*I *3752:X O *D sky130_fd_sc_hd__mux2_1
*CAP
1 *4277:A 0.000238952
2 *3752:X 0.000238952
3 *4277:A *4056:D 7.23602e-05
4 *4277:A *4095:A 0.000116853
5 *4277:A *4395:A 0
6 *4277:A *624:44 4.85381e-05
*RES
1 *3752:X *4277:A 11.205 
*END

*D_NET *345 0.000430715
*CONN
*I *4260:A I *D sky130_fd_sc_hd__dlygate4sd3_1
*I *3753:X O *D sky130_fd_sc_hd__mux2_1
*CAP
1 *4260:A 0.000206474
2 *3753:X 0.000206474
3 *4260:A *3753:S 0
4 *4260:A *4057:D 1.77665e-05
*RES
1 *3753:X *4260:A 6.335 
*END

*D_NET *346 0.000677639
*CONN
*I *4272:A I *D sky130_fd_sc_hd__dlygate4sd3_1
*I *3754:X O *D sky130_fd_sc_hd__mux2_1
*CAP
1 *4272:A 0.000246793
2 *3754:X 0.000246793
3 *4272:A *4063:D 0.00011852
4 *4272:A *774:10 6.55328e-05
*RES
1 *3754:X *4272:A 10.755 
*END

*D_NET *347 0.00191834
*CONN
*I *4059:D I *D sky130_fd_sc_hd__dfrtp_2
*I *3755:X O *D sky130_fd_sc_hd__mux2_1
*CAP
1 *4059:D 0.000469714
2 *3755:X 0.000469714
3 *4059:D *3755:A0 0
4 *4059:D *4057:RESET_B 0.000166346
5 *4059:D *4058:CLK 2.76356e-05
6 *4059:D *4059:CLK 0.000148843
7 *4059:D *4064:D 8.98913e-05
8 *4059:D *604:24 1.03833e-05
9 *4059:D *792:10 0.000535811
10 *4059:D *967:16 0
*RES
1 *3755:X *4059:D 17.445 
*END

*D_NET *348 0.000401106
*CONN
*I *4060:D I *D sky130_fd_sc_hd__dfrtp_2
*I *3756:X O *D sky130_fd_sc_hd__mux2_1
*CAP
1 *4060:D 0.000189872
2 *3756:X 0.000189872
3 *4060:D *3757:A0 0
4 *4060:D *3982:D 0
5 *4060:D *4060:RESET_B 0
6 *4060:D *4061:CLK 1.43521e-05
7 *4060:D *617:36 0
8 *4060:D *907:40 7.00889e-06
*RES
1 *3756:X *4060:D 9.885 
*END

*D_NET *349 0.000471445
*CONN
*I *4061:D I *D sky130_fd_sc_hd__dfrtp_2
*I *3757:X O *D sky130_fd_sc_hd__mux2_1
*CAP
1 *4061:D 9.95072e-05
2 *3757:X 9.95072e-05
3 *4061:D *3621:A1 0.00011852
4 *4061:D *3623:B2 3.67779e-05
5 *4061:D *905:30 8.65961e-05
6 *4061:D *968:21 3.05373e-05
*RES
1 *3757:X *4061:D 9.375 
*END

*D_NET *350 0.00164817
*CONN
*I *4062:D I *D sky130_fd_sc_hd__dfrtp_2
*I *3758:X O *D sky130_fd_sc_hd__mux2_1
*CAP
1 *4062:D 0.000614773
2 *3758:X 0.000614773
3 *4062:D *3698:B2 0.000161467
4 *4062:D *4062:RESET_B 4.70393e-05
5 *4062:D *608:27 0.00021012
*RES
1 *3758:X *4062:D 17.73 
*END

*D_NET *351 0.00118502
*CONN
*I *4063:D I *D sky130_fd_sc_hd__dfrtp_2
*I *3759:X O *D sky130_fd_sc_hd__mux2_1
*CAP
1 *4063:D 0.000252816
2 *3759:X 0.000252816
3 *4063:D *3754:A1 0.000140844
4 *4063:D *3754:S 0.000321522
5 *4063:D *4063:CLK 4.82919e-05
6 *4063:D *774:10 4.57758e-05
7 *4063:D *875:58 0
8 *4063:D *962:10 4.43871e-06
9 *4272:A *4063:D 0.00011852
*RES
1 *3759:X *4063:D 14.145 
*END

*D_NET *352 0.00105838
*CONN
*I *4274:A I *D sky130_fd_sc_hd__dlygate4sd3_1
*I *3760:X O *D sky130_fd_sc_hd__mux2_1
*CAP
1 *4274:A 0.000410696
2 *3760:X 0.000410696
3 *4274:A *3760:A1 8.40269e-05
4 *4274:A *4064:D 0
5 *4274:A *4064:RESET_B 0
6 *4274:A *4092:A 0.000104671
7 *4274:A *632:12 0
8 *4274:A *967:16 4.82863e-05
*RES
1 *3760:X *4274:A 13.8 
*END

*D_NET *353 0.0040169
*CONN
*I *3982:D I *D sky130_fd_sc_hd__dfstp_2
*I *3624:X O *D sky130_fd_sc_hd__or3_2
*CAP
1 *3982:D 0.00173349
2 *3624:X 0.00173349
3 *3982:D *3623:A1 0
4 *3982:D *3905:RESET_B 4.66108e-05
5 *3982:D *3909:CLK 0
6 *3982:D *3981:D 5.2089e-05
7 *3982:D *4061:CLK 6.36578e-05
8 *3982:D *4182:A 0
9 *3982:D *4254:A 0
10 *3982:D *604:12 1.88602e-05
11 *3982:D *621:35 0
12 *3982:D *621:49 0
13 *3982:D *636:57 0
14 *3982:D *636:64 0
15 *3982:D *636:74 0
16 *3982:D *646:53 2.49909e-05
17 *3982:D *907:32 0.000202102
18 *3982:D *907:40 0
19 *3982:D *965:27 0
20 *3957:D *3982:D 0.000141599
21 *4060:D *3982:D 0
*RES
1 *3624:X *3982:D 36.255 
*END

*D_NET *354 0.0101059
*CONN
*I *3438:A1 I *D sky130_fd_sc_hd__a22o_2
*I *3716:A I *D sky130_fd_sc_hd__nor2_2
*I *3717:B1 I *D sky130_fd_sc_hd__a21oi_2
*I *3319:Y O *D sky130_fd_sc_hd__inv_2
*CAP
1 *3438:A1 0.000239543
2 *3716:A 5.53433e-05
3 *3717:B1 0.000454706
4 *3319:Y 0
5 *354:24 0.0022663
6 *354:4 0.00199579
7 *3438:A1 *3435:B1 1.1907e-05
8 *3438:A1 *3438:B1 2.75229e-05
9 *3438:A1 *3786:A2 0.000262817
10 *3438:A1 *4262:A 0.000207797
11 *3438:A1 *603:105 3.64622e-05
12 *3438:A1 *892:58 8.53113e-06
13 *3438:A1 *993:46 2.50049e-05
14 *3438:A1 *1065:10 1.1561e-05
15 *3716:A *3716:B 6.44051e-05
16 *3717:B1 *3678:A1 3.00381e-05
17 *3717:B1 *3716:B 0.000227634
18 *3717:B1 *3909:CLK 0
19 *3717:B1 *4210:A 9.4087e-05
20 *3717:B1 *4397:A 7.35729e-05
21 *354:24 *3363:A2 0.000175885
22 *354:24 *3396:A 0.000116158
23 *354:24 *3434:A 4.11198e-05
24 *354:24 *3661:A1 8.08153e-06
25 *354:24 *3824:B1 1.14169e-05
26 *354:24 *3883:CLK 0.000250093
27 *354:24 *3883:SET_B 0.000134493
28 *354:24 *3998:D 0.000492013
29 *354:24 *4038:D 8.041e-05
30 *354:24 *4052:D 4.99619e-05
31 *354:24 *4121:A 2.49909e-05
32 *354:24 *4138:A 0.00105309
33 *354:24 *4151:A 0.000753649
34 *354:24 *603:105 1.17409e-05
35 *354:24 *643:43 3.26265e-05
36 *354:24 *645:78 9.28053e-05
37 *354:24 *894:32 8.53113e-06
38 *354:24 *894:51 0.000354775
39 *354:24 *894:60 4.21314e-05
40 *354:24 *993:46 6.60257e-06
41 *3883:D *354:24 2.75229e-05
42 *4229:A *354:24 1.68092e-05
43 *11:10 *3716:A 7.08148e-05
44 *11:10 *3717:B1 0.000157154
*RES
1 *3319:Y *354:4 1.6 
2 *354:4 *354:24 41.805 
3 *354:24 *3717:B1 13.98 
4 *354:24 *3716:A 5.49 
5 *354:4 *3438:A1 10.7 
*END

*D_NET *355 0.0046714
*CONN
*I *3511:A1_N I *D sky130_fd_sc_hd__o2bb2a_2
*I *3512:B2 I *D sky130_fd_sc_hd__o221a_2
*I *3320:Y O *D sky130_fd_sc_hd__inv_2
*CAP
1 *3511:A1_N 0
2 *3512:B2 0.000373063
3 *3320:Y 0.00106151
4 *355:18 0.00143458
5 *3512:B2 *3505:B 5.30673e-05
6 *3512:B2 *3511:A2_N 0.000290058
7 *3512:B2 *3511:B2 0.000111785
8 *3512:B2 *3512:B1 0.000112123
9 *3512:B2 *387:14 0
10 *3512:B2 *1059:10 7.70828e-05
11 *355:18 *3323:A 0
12 *355:18 *3382:A1 9.80943e-06
13 *355:18 *3382:A2 0.000122331
14 *355:18 *3511:B2 1.59209e-05
15 *355:18 *3512:C1 0
16 *355:18 *3513:B2 0
17 *355:18 *3514:B 0
18 *355:18 *393:10 0
19 *355:18 *396:57 0
20 *355:18 *1044:45 0.000467074
21 *355:18 *1046:10 0
22 *355:18 *1048:35 0.000542994
*RES
1 *3320:Y *355:18 23.72 
2 *355:18 *3512:B2 14.3 
3 *355:18 *3511:A1_N 1.6 
*END

*D_NET *356 0.00148693
*CONN
*I *3511:B2 I *D sky130_fd_sc_hd__o2bb2a_2
*I *3513:B2 I *D sky130_fd_sc_hd__a221oi_2
*I *3321:Y O *D sky130_fd_sc_hd__inv_2
*CAP
1 *3511:B2 0.000242169
2 *3513:B2 0.000150502
3 *3321:Y 9.78325e-06
4 *356:8 0.000402453
5 *3511:B2 *3509:A1 1.01661e-05
6 *3511:B2 *3509:C1 0
7 *3511:B2 *3511:B1 0
8 *3511:B2 *3512:C1 9.54469e-05
9 *3511:B2 *393:10 0
10 *3513:B2 *3509:A1 7.3664e-05
11 *3513:B2 *3513:C1 1.16578e-05
12 *3513:B2 *3514:B 9.30717e-05
13 *3513:B2 *358:8 4.35432e-05
14 *3513:B2 *1048:35 0.000149279
15 *356:8 *3512:C1 2.75229e-05
16 *356:8 *357:12 4.99619e-05
17 *3512:B2 *3511:B2 0.000111785
18 *355:18 *3511:B2 1.59209e-05
19 *355:18 *3513:B2 0
*RES
1 *3321:Y *356:8 4.05 
2 *356:8 *3513:B2 7.185 
3 *356:8 *3511:B2 8.085 
*END

*D_NET *357 0.00208667
*CONN
*I *3512:A1 I *D sky130_fd_sc_hd__o221a_2
*I *3513:A1 I *D sky130_fd_sc_hd__a221oi_2
*I *3322:Y O *D sky130_fd_sc_hd__inv_2
*CAP
1 *3512:A1 7.89121e-05
2 *3513:A1 3.81258e-05
3 *3322:Y 0.000336743
4 *357:12 0.000453781
5 *3512:A1 *3509:B1 0.00015639
6 *3512:A1 *3509:C1 8.53113e-06
7 *3512:A1 *3512:C1 0.00019637
8 *3512:A1 *3513:B1 3.23391e-05
9 *3512:A1 *3803:B1 6.28498e-05
10 *3513:A1 *3513:B1 7.89611e-05
11 *3513:A1 *3803:B1 0.000143266
12 *357:12 *3321:A 8.8266e-05
13 *357:12 *3512:C1 4.77202e-05
14 *357:12 *3514:B 8.40213e-05
15 *357:12 *3515:B 0.000230435
16 *356:8 *357:12 4.99619e-05
*RES
1 *3322:Y *357:12 9 
2 *357:12 *3513:A1 5.235 
3 *357:12 *3512:A1 6.3 
*END

*D_NET *358 0.00215973
*CONN
*I *3509:A1 I *D sky130_fd_sc_hd__o221a_2
*I *3510:A1 I *D sky130_fd_sc_hd__a221o_2
*I *3323:Y O *D sky130_fd_sc_hd__inv_2
*CAP
1 *3509:A1 0.000100283
2 *3510:A1 0.000188042
3 *3323:Y 0.000165123
4 *358:8 0.000453448
5 *3509:A1 *3509:A2 1.26626e-05
6 *3509:A1 *3514:B 2.46007e-05
7 *3509:A1 *3515:B 0.000171172
8 *3510:A1 *3509:A2 6.00081e-05
9 *3510:A1 *3510:A2 5.20437e-05
10 *3510:A1 *3513:C1 0
11 *3510:A1 *3514:A 2.97004e-06
12 *3510:A1 *3514:B 5.30144e-05
13 *3510:A1 *3515:A_N 0.000138551
14 *3510:A1 *3515:B 0.000208491
15 *358:8 *3513:C1 8.40213e-05
16 *358:8 *3514:C 0.00015806
17 *358:8 *1048:35 0.000159867
18 *3511:B2 *3509:A1 1.01661e-05
19 *3513:B2 *3509:A1 7.3664e-05
20 *3513:B2 *358:8 4.35432e-05
*RES
1 *3323:Y *358:8 7.5 
2 *358:8 *3510:A1 8.58 
3 *358:8 *3509:A1 6.255 
*END

*D_NET *359 0.0165519
*CONN
*I *3678:A0 I *D sky130_fd_sc_hd__mux2_1
*I *3676:A0 I *D sky130_fd_sc_hd__mux2_1
*I *3674:A0 I *D sky130_fd_sc_hd__mux2_1
*I *3670:A0 I *D sky130_fd_sc_hd__mux2_1
*I *3668:A0 I *D sky130_fd_sc_hd__mux2_1
*I *3672:A0 I *D sky130_fd_sc_hd__mux2_1
*I *3666:A0 I *D sky130_fd_sc_hd__mux2_1
*I *3664:A0 I *D sky130_fd_sc_hd__mux2_1
*I *3361:A I *D sky130_fd_sc_hd__nor2_2
*I *3324:Y O *D sky130_fd_sc_hd__inv_2
*CAP
1 *3678:A0 0.000193179
2 *3676:A0 0
3 *3674:A0 0
4 *3670:A0 0.00047253
5 *3668:A0 0
6 *3672:A0 0
7 *3666:A0 8.71638e-05
8 *3664:A0 0.0011801
9 *3361:A 0.00110441
10 *3324:Y 0.000123593
11 *359:87 0.000797999
12 *359:67 0.000585946
13 *359:61 0.000971651
14 *359:45 0.00160179
15 *359:43 0.00107067
16 *359:8 0.00233405
17 *3361:A *3396:B 0.000227529
18 *3361:A *3396:C 0
19 *3361:A *3661:A1 0
20 *3361:A *3661:A2 0
21 *3361:A *370:8 4.66108e-05
22 *3361:A *936:41 0
23 *3361:A *937:12 0
24 *3361:A *939:16 0
25 *3664:A0 *3745:A0 2.16833e-05
26 *3664:A0 *3745:A1 0.000123134
27 *3664:A0 *4016:CLK 2.04748e-05
28 *3664:A0 *4016:D 5.83121e-06
29 *3664:A0 *4378:A 1.83847e-05
30 *3664:A0 *640:8 0.000158965
31 *3664:A0 *939:16 0.000986263
32 *3666:A0 *3666:S 6.47326e-05
33 *3666:A0 *3672:A1 4.66108e-05
34 *3666:A0 *3672:S 2.16833e-05
35 *3670:A0 *3668:A1 7.85319e-05
36 *3670:A0 *3669:A 7.07722e-05
37 *3670:A0 *3670:S 4.92062e-05
38 *3670:A0 *4207:A 3.69909e-05
39 *3670:A0 *624:59 0
40 *3670:A0 *624:83 0
41 *3670:A0 *869:10 0
42 *3678:A0 *3712:B 3.09164e-05
43 *3678:A0 *3745:A0 0
44 *3678:A0 *641:10 0
45 *3678:A0 *907:26 2.46089e-05
46 *359:8 *3396:B 0.00024139
47 *359:8 *3398:A 0
48 *359:8 *3661:A1 0
49 *359:43 *3745:A0 0.0001249
50 *359:45 *3641:A0 0.000197081
51 *359:45 *3676:S 2.20732e-05
52 *359:45 *3745:A0 0.000234674
53 *359:45 *4300:A 2.75145e-05
54 *359:61 *3641:A0 8.4841e-05
55 *359:61 *3641:A1 8.53113e-06
56 *359:61 *3643:A0 0.000123225
57 *359:61 *3674:A1 4.40446e-05
58 *359:61 *3676:A1 0.000134373
59 *359:61 *3707:A 4.84393e-05
60 *359:61 *4095:A 0.000160665
61 *359:61 *4305:A 0.000622937
62 *359:61 *640:28 0
63 *359:67 *3672:A1 1.52184e-05
64 *359:67 *3674:A1 0
65 *359:67 *3674:S 5.43599e-05
66 *359:67 *623:60 0.000161419
67 *359:67 *623:77 0.000198265
68 *359:87 *3669:A 0.00019194
69 *359:87 *3672:A1 4.21973e-05
70 *359:87 *3672:S 4.9969e-05
71 *359:87 *869:10 0
72 *359:87 *889:109 8.65961e-05
73 o_receive_data[5] *3670:A0 0.000127802
74 *3884:D *3664:A0 2.75229e-05
75 *3885:D *3666:A0 0.000321456
76 *3885:D *359:87 1.86126e-05
77 *3888:D *359:87 0.000122331
78 *3905:D *3678:A0 6.44051e-05
79 *4075:A *3361:A 0
80 *4286:A *359:45 1.98869e-05
81 *11:14 *3361:A 0.000419205
*RES
1 *3324:Y *359:8 6.51 
2 *359:8 *3361:A 22.32 
3 *359:8 *3664:A0 19.275 
4 *3664:A0 *359:43 2.74 
5 *359:43 *359:45 9.765 
6 *359:45 *359:61 19.45 
7 *359:61 *359:67 8.185 
8 *359:67 *3666:A0 4.81 
9 *359:67 *3672:A0 1.6 
10 *359:67 *359:87 9.155 
11 *359:87 *3668:A0 3.6 
12 *359:87 *3670:A0 11.79 
13 *359:61 *3674:A0 1.6 
14 *359:45 *3676:A0 1.6 
15 *359:43 *3678:A0 9.275 
*END

*D_NET *360 0.013558
*CONN
*I *4149:A I *D sky130_fd_sc_hd__clkdlybuf4s25_1
*I *3431:A I *D sky130_fd_sc_hd__and2_2
*I *3442:B1 I *D sky130_fd_sc_hd__o21a_2
*I *3435:B1 I *D sky130_fd_sc_hd__a2bb2o_2
*I *3428:A1 I *D sky130_fd_sc_hd__a21o_2
*I *3325:Y O *D sky130_fd_sc_hd__inv_2
*CAP
1 *4149:A 0.0003659
2 *3431:A 0.000582707
3 *3442:B1 0.000319124
4 *3435:B1 0.000210079
5 *3428:A1 0.000188006
6 *3325:Y 0.000179757
7 *360:61 0.0012624
8 *360:33 0.00111008
9 *360:14 0.00204049
10 *360:12 0.00176516
11 *3428:A1 *3846:B1 0.00011964
12 *3428:A1 *4151:A 4.76581e-05
13 *3428:A1 *645:42 0
14 *3431:A *3423:A 0
15 *3431:A *3423:B 7.23533e-05
16 *3431:A *3431:B 6.97461e-05
17 *3431:A *3432:B1 5.86036e-05
18 *3431:A *3521:B 0.000118928
19 *3431:A *3783:A1 1.85674e-05
20 *3431:A *3783:B1 0
21 *3431:A *611:102 0
22 *3431:A *611:113 0
23 *3431:A *611:132 0
24 *3431:A *658:56 5.16348e-05
25 *3431:A *658:114 2.07184e-05
26 *3431:A *708:10 2.42236e-05
27 *3431:A *997:10 0
28 *3435:B1 *3435:A1_N 8.41307e-05
29 *3435:B1 *3435:B2 4.77757e-05
30 *3435:B1 *3438:B1 5.75628e-05
31 *3435:B1 *3438:B2 6.23477e-05
32 *3442:B1 *3438:A2 0.000129116
33 *3442:B1 *3438:B1 7.22329e-05
34 *4149:A *3423:A 0
35 *4149:A *3423:B 0.000412569
36 *4149:A *3930:CLK 1.26626e-05
37 *4149:A *658:114 0.000970678
38 *4149:A *1096:8 0
39 *4149:A *1115:8 9.87616e-05
40 *360:12 *3779:A1 5.08701e-05
41 *360:12 *911:24 6.57201e-05
42 *360:12 *1089:22 0
43 *360:14 *3428:B1 1.85451e-05
44 *360:14 *3625:B 0.000208908
45 *360:14 *3846:B1 0.000112622
46 *360:14 *4099:A 0.00030948
47 *360:14 *627:8 5.05437e-05
48 *360:14 *645:59 0.000109386
49 *360:14 *658:64 0.00038879
50 *360:33 *3363:B1 0
51 *360:33 *3440:A1 0.000358944
52 *360:33 *3440:A2 0
53 *360:33 *3441:B 6.74079e-05
54 *360:33 *3786:A1 0.000152814
55 *360:33 *3786:A2 9.60047e-05
56 *360:33 *4038:D 0
57 *360:33 *4151:A 0
58 *360:33 *627:55 9.37612e-05
59 *360:33 *627:59 7.75412e-05
60 *360:33 *878:53 0.000134539
61 *360:33 *892:58 6.32598e-05
62 *360:61 *658:60 0.000268739
63 *360:61 *658:64 0.000188957
64 *3438:A1 *3435:B1 1.1907e-05
65 *3932:D *3431:A 0
66 *3975:D *3431:A 0.000147149
67 *4236:A *3428:A1 8.53113e-06
68 *91:10 *360:33 0
*RES
1 *3325:Y *360:12 8.54 
2 *360:12 *360:14 17.01 
3 *360:14 *3428:A1 8.555 
4 *360:14 *360:33 17.11 
5 *360:33 *3435:B1 5.185 
6 *360:33 *3442:B1 6.67 
7 *360:12 *360:61 6.245 
8 *360:61 *3431:A 15.285 
9 *360:61 *4149:A 15.18 
*END

*D_NET *361 0.0016677
*CONN
*I *3524:A2 I *D sky130_fd_sc_hd__a31o_2
*I *3328:Y O *D sky130_fd_sc_hd__inv_2
*CAP
1 *3524:A2 0.000334815
2 *3328:Y 0.000334815
3 *3524:A2 *3445:A 5.13924e-05
4 *3524:A2 *3459:A1 9.04893e-05
5 *3524:A2 *3466:B 9.24825e-05
6 *3524:A2 *3952:RESET_B 3.36324e-05
7 *3524:A2 *3972:CLK 6.56368e-05
8 *3524:A2 *618:134 0.000109775
9 *3524:A2 *634:42 4.89395e-05
10 *3524:A2 *948:14 8.5242e-05
11 *3524:A2 *948:20 0.00023948
12 *3524:A2 *1002:20 4.77807e-05
13 *3524:A2 *1002:45 0.000112714
14 *113:8 *3524:A2 2.05056e-05
*RES
1 *3328:Y *3524:A2 15.57 
*END

*D_NET *362 0.00299042
*CONN
*I *3451:A1 I *D sky130_fd_sc_hd__a22o_2
*I *3468:A1 I *D sky130_fd_sc_hd__a22o_2
*I *3470:A1 I *D sky130_fd_sc_hd__a22o_2
*I *3329:Y O *D sky130_fd_sc_hd__inv_2
*CAP
1 *3451:A1 0.000301384
2 *3468:A1 0
3 *3470:A1 0.000310731
4 *3329:Y 0
5 *362:25 0.000541721
6 *362:4 0.000551067
7 *3451:A1 *3451:A2 0.00010492
8 *3451:A1 *3468:B2 0.000232116
9 *3451:A1 *4116:A 4.66108e-05
10 *3451:A1 *637:6 0.000123189
11 *3451:A1 *978:18 1.53583e-05
12 *3470:A1 *3470:A2 6.8725e-06
13 *362:25 *3329:A 8.38251e-05
14 *362:25 *3468:A2 6.21477e-05
15 *362:25 *3469:A1 3.32976e-05
16 *362:25 *3469:A2 0.000139933
17 *362:25 *4301:A 6.27114e-05
18 *362:25 *637:6 5.94895e-05
19 *362:25 *646:43 0
20 *362:25 *880:12 8.53113e-06
21 *362:25 *905:16 7.63204e-05
22 *4241:A *3470:A1 3.00109e-05
23 *4241:A *362:25 1.54061e-06
24 *4256:A *3451:A1 2.53301e-05
25 *4302:A *3451:A1 5.18776e-05
26 *4302:A *362:25 0.000121437
*RES
1 *3329:Y *362:4 1.6 
2 *362:4 *3470:A1 5.17 
3 *362:4 *362:25 10.405 
4 *362:25 *3468:A1 1.6 
5 *362:25 *3451:A1 7.69 
*END

*D_NET *363 0.00661174
*CONN
*I *3684:B2 I *D sky130_fd_sc_hd__a22o_2
*I *3457:A1 I *D sky130_fd_sc_hd__a31o_2
*I *3403:B I *D sky130_fd_sc_hd__and2_2
*I *3330:Y O *D sky130_fd_sc_hd__inv_2
*CAP
1 *3684:B2 0.000519809
2 *3457:A1 0.00173686
3 *3403:B 0.000141493
4 *3330:Y 0.000141493
5 *363:18 0.00225667
6 *3403:B *3403:A 0.000101933
7 *3403:B *615:121 2.97339e-05
8 *3457:A1 *3449:A2 4.18603e-06
9 *3457:A1 *3949:CLK 0
10 *3457:A1 *3978:D 1.7635e-05
11 *3457:A1 *426:26 0.000187552
12 *3457:A1 *428:30 0.00010447
13 *3457:A1 *615:86 2.75145e-05
14 *3457:A1 *618:68 0
15 *3457:A1 *949:38 1.88602e-05
16 *3684:B2 *3683:A_N 4.66108e-05
17 *3684:B2 *3685:B1 0.000206123
18 *3684:B2 *3685:B2 7.97852e-05
19 *3684:B2 *4087:A 0.000487985
20 *3684:B2 *560:10 4.66108e-05
21 *3684:B2 *615:86 2.16917e-05
22 *3684:B2 *615:121 0.000294805
23 *3684:B2 *802:12 0.000139933
24 *109:28 *3457:A1 0
*RES
1 *3330:Y *3403:B 5.3 
2 *3330:Y *363:18 1.6 
3 *363:18 *3457:A1 12.3096 
4 *363:18 *3684:B2 16.7 
*END

*D_NET *364 0.00488136
*CONN
*I *3679:A2 I *D sky130_fd_sc_hd__a22o_2
*I *3462:A2 I *D sky130_fd_sc_hd__a22o_2
*I *3453:A2 I *D sky130_fd_sc_hd__a22o_2
*I *3459:A2 I *D sky130_fd_sc_hd__a21o_2
*I *3331:Y O *D sky130_fd_sc_hd__inv_2
*CAP
1 *3679:A2 6.31461e-05
2 *3462:A2 0.000221382
3 *3453:A2 0.000120337
4 *3459:A2 0.000359585
5 *3331:Y 0.000533679
6 *364:45 0.000559963
7 *364:12 0.000738166
8 *3453:A2 *3453:A1 2.66362e-05
9 *3453:A2 *3458:C 2.83118e-05
10 *3453:A2 *3524:A3 9.54399e-05
11 *3453:A2 *3524:B1 0
12 *3453:A2 *3972:CLK 5.83918e-05
13 *3453:A2 *426:26 5.05066e-06
14 *3453:A2 *431:10 0
15 *3453:A2 *618:134 3.59531e-06
16 *3453:A2 *1004:12 3.50033e-05
17 *3459:A2 *3459:A1 4.82863e-05
18 *3459:A2 *1004:18 0.00015639
19 *3462:A2 *3462:B2 0.000439453
20 *3462:A2 *3525:A0 0
21 *3462:A2 *3679:A1 7.30547e-05
22 *3679:A2 *3462:B2 0.00013659
23 *3679:A2 *3679:A1 0.000129726
24 *364:12 *3458:B 4.43871e-06
25 *364:12 *3525:A0 0.000218555
26 *364:12 *948:12 0.000249928
27 *364:45 *3972:RESET_B 2.66586e-05
28 *364:45 *936:41 0.000178465
29 *3459:B1 *3459:A2 0.000227798
30 *3947:D *3462:A2 1.43521e-05
31 *3972:D *3453:A2 5.23362e-05
32 *113:8 *3459:A2 2.49909e-05
33 *113:8 *3462:A2 0
34 *113:8 *364:12 5.16479e-05
*RES
1 *3331:Y *364:12 10.685 
2 *364:12 *3459:A2 7.42 
3 *364:12 *3453:A2 8.51 
4 *3331:Y *364:45 7.155 
5 *364:45 *3462:A2 9.12375 
6 *364:45 *3679:A2 5.5125 
*END

*D_NET *365 0.0169318
*CONN
*I *3455:A1 I *D sky130_fd_sc_hd__a21o_2
*I *3686:A1 I *D sky130_fd_sc_hd__a21o_2
*I *3363:A2 I *D sky130_fd_sc_hd__a31o_2
*I *3332:Y O *D sky130_fd_sc_hd__inv_2
*CAP
1 *3455:A1 0
2 *3686:A1 3.07498e-05
3 *3363:A2 0.00589851
4 *3332:Y 9.66908e-05
5 *365:16 0.00734971
6 *365:6 0.00151714
7 *3363:A2 *3363:A1 1.86443e-05
8 *3363:A2 *3363:A3 2.32724e-05
9 *3363:A2 *3434:B 7.94881e-06
10 *3363:A2 *3998:D 0.000132401
11 *3363:A2 *4138:A 0.000199106
12 *3363:A2 *4151:A 0.000104095
13 *3363:A2 *626:21 2.09665e-05
14 *3363:A2 *646:43 0.00022717
15 *3686:A1 *3679:B1 3.79555e-05
16 *3686:A1 *3686:B1 3.96153e-05
17 *3686:A1 *4164:A 4.66108e-05
18 *365:6 *3455:A2 0.00012657
19 *365:6 *651:34 1.61831e-05
20 *365:16 *3468:B2 2.9381e-05
21 *365:16 *4019:CLK 5.63701e-05
22 *365:16 *4154:A 9.65492e-05
23 *365:16 *651:34 0.000171854
24 *365:16 *958:18 5.89912e-05
25 *4017:RESET_B *365:16 3.31103e-05
26 *4019:D *365:16 0.00038879
27 *4202:A *3686:A1 2.75145e-05
28 *354:24 *3363:A2 0.000175885
*RES
1 *3332:Y *365:6 3.085 
2 *365:6 *365:16 18.2834 
3 *365:16 *3363:A2 14.396 
4 *365:16 *3686:A1 5.0375 
5 *365:6 *3455:A1 1.6 
*END

*D_NET *366 0.000187747
*CONN
*I *3436:B2 I *D sky130_fd_sc_hd__a22o_2
*I *3333:Y O *D sky130_fd_sc_hd__inv_2
*CAP
1 *3436:B2 2.39607e-05
2 *3333:Y 2.39607e-05
3 *3436:B2 *3436:A1 8.57024e-05
4 *3436:B2 *3436:A2 4.82919e-05
5 *3436:B2 *3437:B2 5.83121e-06
*RES
1 *3333:Y *3436:B2 3.995 
*END

*D_NET *367 0.00332276
*CONN
*I *3526:A2 I *D sky130_fd_sc_hd__o21ai_2
*I *3363:A3 I *D sky130_fd_sc_hd__a31o_2
*I *3527:C1 I *D sky130_fd_sc_hd__o211a_2
*I *3334:Y O *D sky130_fd_sc_hd__inv_2
*CAP
1 *3526:A2 4.66849e-05
2 *3363:A3 0.000118237
3 *3527:C1 6.92976e-05
4 *3334:Y 0.00010942
5 *367:20 0.000666503
6 *367:12 0.000635073
7 *3363:A3 *3363:A1 4.82919e-05
8 *3363:A3 *3434:B 0
9 *3363:A3 *3527:B1 0.000113732
10 *3363:A3 *3774:A1 4.18603e-06
11 *3363:A3 *626:23 0
12 *3363:A3 *644:55 0
13 *3363:A3 *645:101 1.71013e-05
14 *3526:A2 *3527:B1 4.41506e-05
15 *3527:C1 *3527:A1 1.47347e-05
16 *3527:C1 *3527:A2 9.83662e-06
17 *3527:C1 *3527:B1 9.47454e-05
18 *3527:C1 *3528:B1 4.82919e-05
19 *3527:C1 *645:101 4.75576e-05
20 *367:12 *3363:B1 0.000296088
21 *367:12 *3437:A2 2.75145e-05
22 *367:12 *3526:A1 0.000294421
23 *367:20 *3527:B1 0.000104476
24 *367:20 *3786:A1 8.49205e-05
25 *367:20 *3786:A2 1.19928e-05
26 *367:20 *3786:B1 2.71072e-05
27 *367:20 *645:101 0.00020326
28 *3363:A2 *3363:A3 2.32724e-05
29 *3926:D *3363:A3 0.000161861
*RES
1 *3334:Y *367:12 9.47 
2 *367:12 *367:20 8.69 
3 *367:20 *3527:C1 5.535 
4 *367:20 *3363:A3 6.96 
5 *367:12 *3526:A2 2.395 
*END

*D_NET *368 0.00189565
*CONN
*I *3432:A2 I *D sky130_fd_sc_hd__a21o_2
*I *3335:Y O *D sky130_fd_sc_hd__inv_2
*CAP
1 *3432:A2 0.000477389
2 *3335:Y 0.000477389
3 *3432:A2 *3335:A 0.000133095
4 *3432:A2 *3399:A 2.30292e-05
5 *3432:A2 *3400:A 0.000201503
6 *3432:A2 *3427:A1 0.00016163
7 *3432:A2 *708:10 9.50342e-06
8 *3432:A2 *711:6 4.82919e-05
9 *3432:A2 *898:91 0.000124007
10 *3932:D *3432:A2 0.000239813
*RES
1 *3335:Y *3432:A2 17.13 
*END

*D_NET *369 0.0010532
*CONN
*I *3433:A2 I *D sky130_fd_sc_hd__a22o_2
*I *3336:Y O *D sky130_fd_sc_hd__inv_2
*CAP
1 *3433:A2 0.00021079
2 *3336:Y 0.00021079
3 *3433:A2 *3433:A1 0.000136416
4 *3433:A2 *3520:B 0.000138097
5 *3433:A2 *911:42 0.000198945
6 *3433:A2 *996:12 4.19967e-05
7 *4265:A *3433:A2 0.000116165
*RES
1 *3336:Y *3433:A2 11.7 
*END

*D_NET *370 0.00325009
*CONN
*I *3430:B2 I *D sky130_fd_sc_hd__a22o_2
*I *3469:A1 I *D sky130_fd_sc_hd__a21o_2
*I *3337:Y O *D sky130_fd_sc_hd__inv_2
*CAP
1 *3430:B2 0.000338288
2 *3469:A1 0.000599884
3 *3337:Y 3.69588e-05
4 *370:8 0.000975131
5 *3430:B2 *3361:B 0
6 *3430:B2 *3430:B1 2.46089e-05
7 *3430:B2 *3883:SET_B 1.85674e-05
8 *3430:B2 *643:6 7.32217e-05
9 *3430:B2 *686:10 2.46089e-05
10 *3430:B2 *880:38 0
11 *3430:B2 *911:48 8.65905e-05
12 *3469:A1 *3469:A2 0.000122155
13 *3469:A1 *3470:A2 0
14 *3469:A1 *3958:D 0
15 *3469:A1 *621:97 0
16 *3469:A1 *646:43 0
17 *3469:A1 *880:12 5.21289e-05
18 *3469:A1 *880:38 0
19 *3361:A *370:8 4.66108e-05
20 *3998:RESET_B *3430:B2 0.000273015
21 *3998:RESET_B *3469:A1 0.000430531
22 *4241:A *3469:A1 0.000114492
23 *362:25 *3469:A1 3.32976e-05
*RES
1 *3337:Y *370:8 4.05 
2 *370:8 *3469:A1 14.805 
3 *370:8 *3430:B2 10.335 
*END

*D_NET *371 0.000509652
*CONN
*I *3435:A1_N I *D sky130_fd_sc_hd__a2bb2o_2
*I *3338:Y O *D sky130_fd_sc_hd__inv_2
*CAP
1 *3435:A1_N 0.000176957
2 *3338:Y 0.000176957
3 *3435:A1_N *3435:B2 2.16833e-05
4 *3435:A1_N *3438:B2 4.99236e-05
5 *3435:B1 *3435:A1_N 8.41307e-05
*RES
1 *3338:Y *3435:A1_N 6.26 
*END

*D_NET *372 0.000348178
*CONN
*I *3450:A2 I *D sky130_fd_sc_hd__a21o_2
*I *3339:Y O *D sky130_fd_sc_hd__inv_2
*CAP
1 *3450:A2 0.000116439
2 *3339:Y 0.000116439
3 *3450:A2 *3444:B 7.53115e-05
4 *3450:A2 *3450:A1 2.75145e-05
5 *3450:A2 *3955:CLK 2.97004e-06
6 *3450:A2 *936:41 0
7 *3450:B1 *3450:A2 9.50342e-06
*RES
1 *3339:Y *3450:A2 9.63 
*END

*D_NET *373 0.00139259
*CONN
*I *3461:A2 I *D sky130_fd_sc_hd__a221o_2
*I *3340:Y O *D sky130_fd_sc_hd__inv_2
*CAP
1 *3461:A2 0.000219142
2 *3340:Y 0.000219142
3 *3461:A2 *3451:B2 0.000255886
4 *3461:A2 *3454:A1 6.02123e-05
5 *3461:A2 *3461:A1 2.91343e-05
6 *3461:A2 *3461:B1 5.98004e-06
7 *3461:A2 *3950:RESET_B 0.000197929
8 *3461:A2 *4251:A 0.000116165
9 *3461:A2 *1003:42 2.92496e-05
10 *3461:A2 *1003:53 0.000259754
*RES
1 *3340:Y *3461:A2 13.7325 
*END

*D_NET *374 0.00270381
*CONN
*I *3467:B2 I *D sky130_fd_sc_hd__a22o_2
*I *3454:A1 I *D sky130_fd_sc_hd__o21a_2
*I *3341:Y O *D sky130_fd_sc_hd__inv_2
*CAP
1 *3467:B2 0.000192609
2 *3454:A1 0.0005343
3 *3341:Y 0.000726909
4 *3454:A1 *3341:A 4.82919e-05
5 *3454:A1 *3460:A_N 0
6 *3454:A1 *3461:B1 9.47454e-05
7 *3454:A1 *3461:B2 1.15688e-05
8 *3454:A1 *3743:B 0
9 *3454:A1 *3945:CLK 1.33285e-05
10 *3454:A1 *433:10 0
11 *3454:A1 *616:23 0.000111236
12 *3454:A1 *616:58 8.82557e-05
13 *3454:A1 *990:18 0.000252289
14 *3454:A1 *1001:43 4.18603e-06
15 *3454:A1 *1001:54 5.42473e-05
16 *3454:A1 *1003:18 1.86491e-05
17 *3454:A1 *1003:42 3.13952e-05
18 *3467:B2 *3456:A1 0
19 *3467:B2 *3456:A2 0.000161623
20 *3467:B2 *3467:B1 0
21 *3467:B2 *3680:B2 0
22 *3467:B2 *4126:A 0.0001249
23 *3461:A2 *3454:A1 6.02123e-05
24 *111:10 *3467:B2 0.000175066
*RES
1 *3341:Y *3454:A1 17.8575 
2 *3341:Y *3467:B2 12.015 
*END

*D_NET *375 0.00115147
*CONN
*I *3456:B2 I *D sky130_fd_sc_hd__a22o_2
*I *3523:A1 I *D sky130_fd_sc_hd__mux2_1
*I *3342:Y O *D sky130_fd_sc_hd__inv_2
*CAP
1 *3456:B2 0.000330295
2 *3523:A1 0
3 *3342:Y 0.000127264
4 *375:6 0.000457559
5 *3456:B2 *3456:B1 3.54536e-05
6 *3456:B2 *3523:S 5.36281e-05
7 *3456:B2 *752:6 0.000126163
8 *375:6 *3523:S 2.11084e-05
*RES
1 *3342:Y *375:6 3.43 
2 *375:6 *3523:A1 1.6 
3 *375:6 *3456:B2 6.895 
*END

*D_NET *376 0.000642127
*CONN
*I *3471:A2 I *D sky130_fd_sc_hd__a21o_2
*I *3343:Y O *D sky130_fd_sc_hd__inv_2
*CAP
1 *3471:A2 0.000205352
2 *3343:Y 0.000205352
3 *3471:A2 *621:10 0.000106522
4 *3957:D *3471:A2 0.0001249
*RES
1 *3343:Y *3471:A2 6.53 
*END

*D_NET *377 0.00144579
*CONN
*I *3535:A1 I *D sky130_fd_sc_hd__a21oi_2
*I *3344:Y O *D sky130_fd_sc_hd__inv_2
*CAP
1 *3535:A1 0.000441025
2 *3344:Y 0.000441025
3 *3535:A1 *3531:A 4.82863e-05
4 *3535:A1 *3535:A2 3.1226e-05
5 *3535:A1 *3626:A1 0.000118527
6 *3535:A1 *1071:53 6.52349e-05
7 *3535:A1 *1071:64 0.000111909
8 *3535:A1 *1079:10 6.36578e-05
9 *4001:D *3535:A1 0.000124895
*RES
1 *3344:Y *3535:A1 15.6 
*END

*D_NET *378 0.00121886
*CONN
*I *3543:A1 I *D sky130_fd_sc_hd__a211oi_2
*I *3345:Y O *D sky130_fd_sc_hd__inv_2
*CAP
1 *3543:A1 0.000418771
2 *3345:Y 0.000418771
3 *3543:A1 *3547:B 7.00889e-06
4 *3543:A1 *902:50 1.90051e-05
5 *3543:A1 *1082:14 2.46089e-05
6 *3543:A1 *1082:16 3.00381e-05
7 *4004:D *3543:A1 0.000300662
*RES
1 *3345:Y *3543:A1 13.035 
*END

*D_NET *379 0.000248576
*CONN
*I *3487:A2 I *D sky130_fd_sc_hd__a21o_2
*I *3346:Y O *D sky130_fd_sc_hd__inv_2
*CAP
1 *3487:A2 4.7287e-05
2 *3346:Y 4.7287e-05
3 *3487:A2 *3540:B 8.40269e-05
4 *3487:A2 *3541:A 4.82919e-05
5 *3487:A2 *656:109 2.16833e-05
*RES
1 *3346:Y *3487:A2 4.34 
*END

*D_NET *380 0.000810713
*CONN
*I *3549:A1 I *D sky130_fd_sc_hd__a21oi_2
*I *3347:Y O *D sky130_fd_sc_hd__inv_2
*CAP
1 *3549:A1 0.000254811
2 *3347:Y 0.000254811
3 *3549:A1 *3549:A2 0.000167709
4 *3549:A1 *3626:A2 0
5 *3549:A1 *612:68 6.71882e-05
6 *3549:A1 *612:94 1.91597e-05
7 *4293:A *3549:A1 4.70343e-05
*RES
1 *3347:Y *3549:A1 12.105 
*END

*D_NET *381 0.00208467
*CONN
*I *3567:A1 I *D sky130_fd_sc_hd__a211oi_2
*I *3348:Y O *D sky130_fd_sc_hd__inv_2
*CAP
1 *3567:A1 0.000534362
2 *3348:Y 0.000534362
3 *3567:A1 *3348:A 4.82919e-05
4 *3567:A1 *3564:C 8.65961e-05
5 *3567:A1 *3567:C1 5.61451e-05
6 *3567:A1 *3820:A1 0.000176728
7 *3567:A1 *4326:A 0.000247465
8 *3567:A1 *881:103 1.34503e-05
9 *3567:A1 *1074:14 4.82863e-05
10 *3567:A1 *1075:12 0.000231571
11 *4011:D *3567:A1 0.000107415
*RES
1 *3348:Y *3567:A1 18.345 
*END

*D_NET *382 0.00159118
*CONN
*I *3579:A1 I *D sky130_fd_sc_hd__a21oi_2
*I *3349:Y O *D sky130_fd_sc_hd__inv_2
*CAP
1 *3579:A1 0.000579603
2 *3349:Y 0.000579603
3 *3579:A1 *3349:A 2.96334e-05
4 *3579:A1 *3579:B1 4.43871e-06
5 *3579:A1 *4023:CLK 0.000142661
6 *3579:A1 *4024:CLK 0
7 *3579:A1 *4158:A 3.76337e-05
8 *3579:A1 *662:33 5.05437e-05
9 *3579:A1 *662:80 2.03321e-05
10 *3579:A1 *1105:6 4.66108e-05
11 *4023:D *3579:A1 0.000100125
*RES
1 *3349:Y *3579:A1 15.6 
*END

*D_NET *383 0.000767439
*CONN
*I *3497:A2 I *D sky130_fd_sc_hd__a211o_2
*I *3350:Y O *D sky130_fd_sc_hd__inv_2
*CAP
1 *3497:A2 0.000247543
2 *3350:Y 0.000247543
3 *3497:A2 *3499:A_N 5.05437e-05
4 *3497:A2 *3499:B 2.06853e-05
5 *3497:A2 *1107:10 6.02186e-05
6 *4025:RESET_B *3497:A2 0.000140905
*RES
1 *3350:Y *3497:A2 11.76 
*END

*D_NET *384 0.000981154
*CONN
*I *3587:A1 I *D sky130_fd_sc_hd__a211oi_2
*I *3351:Y O *D sky130_fd_sc_hd__inv_2
*CAP
1 *3587:A1 0.000267245
2 *3351:Y 0.000267245
3 *3587:A1 *3586:A 0
4 *3587:A1 *3587:A2 0
5 *3587:A1 *511:50 0.000110535
6 *3587:A1 *901:32 0.000162311
7 *3587:A1 *1107:34 0.000136877
8 *3587:A1 *1109:46 3.69421e-05
*RES
1 *3351:Y *3587:A1 12.36 
*END

*D_NET *385 0.000321078
*CONN
*I *3593:A1 I *D sky130_fd_sc_hd__a21oi_2
*I *3352:Y O *D sky130_fd_sc_hd__inv_2
*CAP
1 *3593:A1 0.000100124
2 *3352:Y 0.000100124
3 *3593:A1 *3352:A 0.00012083
*RES
1 *3352:Y *3593:A1 5.045 
*END

*D_NET *386 0.000256799
*CONN
*I *3611:A1 I *D sky130_fd_sc_hd__a211oi_2
*I *3353:Y O *D sky130_fd_sc_hd__inv_2
*CAP
1 *3611:A1 0.0001284
2 *3353:Y 0.0001284
*RES
1 *3353:Y *3611:A1 5.03 
*END

*D_NET *387 0.00348067
*CONN
*I *3510:B1 I *D sky130_fd_sc_hd__a221o_2
*I *3509:B1 I *D sky130_fd_sc_hd__o221a_2
*I *3354:Y O *D sky130_fd_sc_hd__inv_2
*CAP
1 *3510:B1 0.000419821
2 *3509:B1 9.51436e-05
3 *3354:Y 0.000353452
4 *387:14 0.000868416
5 *3509:B1 *3512:C1 7.67474e-05
6 *3509:B1 *3515:B 0.000209903
7 *3510:B1 *3510:B2 2.66464e-05
8 *3510:B1 *3510:C1 0.000188982
9 *3510:B1 *3512:A2 7.24866e-05
10 *3510:B1 *3803:B1 0.000116664
11 *3510:B1 *876:70 0.000160651
12 *3510:B1 *876:87 0
13 *3510:B1 *890:79 0
14 *3510:B1 *1056:6 5.30673e-05
15 *3510:B1 *1057:12 0.000183738
16 *387:14 *3512:A2 4.43871e-06
17 *387:14 *3803:A1 5.54184e-05
18 *387:14 *3803:A2 0.000124007
19 *387:14 *3803:B1 0.000152376
20 *387:14 *876:87 0
21 *387:14 *1059:10 0
22 *3512:A1 *3509:B1 0.00015639
23 *3512:B2 *387:14 0
24 *3995:RESET_B *387:14 0.000162318
*RES
1 *3354:Y *387:14 11.025 
2 *387:14 *3509:B1 6.51375 
3 *387:14 *3510:B1 13.05 
*END

*D_NET *388 0.000862076
*CONN
*I *4148:A I *D sky130_fd_sc_hd__clkdlybuf4s25_1
*I *3356:Y O *D sky130_fd_sc_hd__inv_2
*CAP
1 *4148:A 0.000109886
2 *3356:Y 0.000109886
3 *4148:A *4184:A 0.000303285
4 *4148:A *881:23 0.00033902
*RES
1 *3356:Y *4148:A 6.755 
*END

*D_NET *389 0.00202933
*CONN
*I *3564:A I *D sky130_fd_sc_hd__and3_2
*I *3530:B1 I *D sky130_fd_sc_hd__o31a_2
*I *3529:B1 I *D sky130_fd_sc_hd__o21ai_2
*I *3357:Y O *D sky130_fd_sc_hd__inv_2
*CAP
1 *3564:A 0.000402677
2 *3530:B1 0
3 *3529:B1 0.000262432
4 *3357:Y 0
5 *389:21 0.000575509
6 *389:4 0.000435263
7 *3529:B1 *3357:A 2.11084e-05
8 *3529:B1 *3530:A2 0
9 *3529:B1 *4289:A 0
10 *3529:B1 *479:10 0
11 *3529:B1 *612:21 0
12 *3529:B1 *904:57 0
13 *3564:A *3530:A1 0.000124895
14 *3564:A *3530:A2 0
15 *3564:A *3564:C 5.53249e-06
16 *3564:A *3820:A1 0
17 *3564:A *4326:A 0
18 *3564:A *457:12 0
19 *3564:A *904:57 0
20 *3564:A *1074:14 5.2089e-05
21 *389:21 *3357:A 1.83756e-05
22 *389:21 *3530:A1 7.3093e-05
23 *389:21 *904:44 5.83589e-05
24 *3529:A2 *3529:B1 0
25 *4011:D *3564:A 0
*RES
1 *3357:Y *389:4 1.6 
2 *389:4 *3529:B1 9.74 
3 *389:4 *389:21 3.225 
4 *389:21 *3530:B1 1.6 
5 *389:21 *3564:A 12.455 
*END

*D_NET *390 0.00168508
*CONN
*I *3574:B1 I *D sky130_fd_sc_hd__o31a_2
*I *3573:B1 I *D sky130_fd_sc_hd__o21ai_2
*I *3608:A I *D sky130_fd_sc_hd__and3_2
*I *3358:Y O *D sky130_fd_sc_hd__inv_2
*CAP
1 *3574:B1 0
2 *3573:B1 0.000152156
3 *3608:A 0
4 *3358:Y 1.964e-05
5 *390:19 0.000365049
6 *390:6 0.000232533
7 *390:6 *887:67 4.92062e-05
8 *390:6 *901:59 8.57024e-05
9 *390:19 *3578:B1 0.000292059
10 *390:19 *3608:C 4.43871e-06
11 *390:19 *3829:B1 0
12 *390:19 *4283:A 0.00015829
13 *390:19 *887:67 2.75145e-05
14 *390:19 *901:59 3.66286e-05
15 *390:19 *903:12 7.81221e-05
16 *390:19 *1097:10 0.000183738
*RES
1 *3358:Y *390:6 2.395 
2 *390:6 *3608:A 1.6 
3 *390:6 *390:19 10.165 
4 *390:19 *3573:B1 3.775 
5 *390:19 *3574:B1 1.6 
*END

*D_NET *391 0.00238317
*CONN
*I *3383:A2 I *D sky130_fd_sc_hd__o21ai_2
*I *3386:A_N I *D sky130_fd_sc_hd__and3b_2
*I *3364:X O *D sky130_fd_sc_hd__and3_2
*CAP
1 *3383:A2 0.000295392
2 *3386:A_N 1.36534e-05
3 *3364:X 0.000356593
4 *391:10 0.000665639
5 *3383:A2 *3383:A1 5.00612e-05
6 *3383:A2 *3387:B1 8.35683e-05
7 *3383:A2 *3506:A 8.65961e-05
8 *3383:A2 *3508:A 0
9 *3383:A2 *3513:C1 0
10 *3383:A2 *3514:A 0
11 *3386:A_N *3386:C 4.66108e-05
12 *3386:A_N *1050:16 4.66108e-05
13 *391:10 *3364:A 0.000160635
14 *391:10 *3364:C 4.35432e-05
15 *391:10 *3365:D 1.16578e-05
16 *391:10 *3387:B1 9.30787e-05
17 *391:10 *3667:B 2.75145e-05
18 *391:10 *641:54 6.07575e-06
19 *391:10 *1041:23 8.24245e-05
20 *3919:RESET_B *3383:A2 0.000222112
21 *3919:RESET_B *391:10 9.14049e-05
*RES
1 *3364:X *391:10 8.97 
2 *391:10 *3386:A_N 4.05 
3 *391:10 *3383:A2 9.63 
*END

*D_NET *392 0.00439439
*CONN
*I *3381:A2 I *D sky130_fd_sc_hd__o21ai_2
*I *3367:D I *D sky130_fd_sc_hd__and4_2
*I *3379:A2 I *D sky130_fd_sc_hd__a21o_2
*I *3366:C I *D sky130_fd_sc_hd__and3_2
*I *3382:A2 I *D sky130_fd_sc_hd__a21oi_2
*I *3384:A I *D sky130_fd_sc_hd__nor2_2
*I *3365:X O *D sky130_fd_sc_hd__and4_2
*CAP
1 *3381:A2 3.08966e-05
2 *3367:D 5.25824e-05
3 *3379:A2 3.79051e-06
4 *3366:C 0.000279695
5 *3382:A2 3.1427e-05
6 *3384:A 0
7 *3365:X 0.000150269
8 *392:50 0.000374107
9 *392:44 0.000238041
10 *392:29 0.000287333
11 *392:25 0.000386294
12 *392:10 0.000344597
13 *3366:C *3366:A 0
14 *3366:C *3367:A 7.67415e-06
15 *3366:C *3379:A1 2.76311e-05
16 *3366:C *3380:C 4.82919e-05
17 *3366:C *1045:16 2.49909e-05
18 *3366:C *1045:18 0.000183112
19 *3367:D *1044:49 1.91597e-05
20 *3381:A2 *3997:CLK 8.65961e-05
21 *3382:A2 *3382:A1 3.46615e-05
22 *3382:A2 *1048:35 2.71296e-05
23 *392:10 *3918:CLK 2.25075e-05
24 *392:10 *396:24 4.43871e-06
25 *392:10 *625:92 8.69212e-05
26 *392:10 *1042:25 3.00381e-05
27 *392:25 *3997:CLK 0.000148977
28 *392:25 *396:24 0.000187501
29 *392:25 *625:92 1.16578e-05
30 *392:29 *3381:B1 0
31 *392:29 *3382:B1 6.86563e-05
32 *392:29 *1044:45 8.53113e-06
33 *392:44 *3379:A1 1.01145e-05
34 *392:44 *1044:45 0.00018305
35 *392:44 *1044:49 9.53428e-06
36 *392:50 *3379:A1 4.72605e-05
37 *392:50 *1044:49 2.05056e-05
38 *3918:D *392:10 8.53113e-06
39 *3920:D *392:29 7.09999e-05
40 *3920:RESET_B *392:29 0
41 *11:10 *392:10 0.000175322
42 *11:10 *392:25 0.000211997
43 *11:10 *392:29 0.000226491
44 *11:10 *392:44 0.000100745
45 *355:18 *3382:A2 0.000122331
*RES
1 *3365:X *392:10 7.47 
2 *392:10 *3384:A 3.6 
3 *392:10 *392:25 7.775 
4 *392:25 *392:29 6.44 
5 *392:29 *3382:A2 4.74 
6 *392:29 *392:44 4.505 
7 *392:44 *392:50 1.605 
8 *392:50 *3366:C 5.62 
9 *392:50 *3379:A2 1.96 
10 *392:44 *3367:D 2.395 
11 *392:25 *3381:A2 2.395 
*END

*D_NET *393 0.00195564
*CONN
*I *3377:A2 I *D sky130_fd_sc_hd__o21ai_2
*I *3380:A_N I *D sky130_fd_sc_hd__and3b_2
*I *3366:X O *D sky130_fd_sc_hd__and3_2
*CAP
1 *3377:A2 0.000423366
2 *3380:A_N 5.66458e-05
3 *3366:X 6.0042e-05
4 *393:10 0.000540054
5 *3377:A2 *3377:B1 0.000347186
6 *3377:A2 *3380:B 3.64998e-06
7 *3377:A2 *3380:C 5.83121e-06
8 *3377:A2 *4322:A 0.00011852
9 *3377:A2 *396:57 3.05238e-05
10 *3377:A2 *1046:10 0.000251301
11 *393:10 *1046:10 0.00011852
12 *3511:B2 *393:10 0
13 *355:18 *393:10 0
*RES
1 *3366:X *393:10 6.98 
2 *393:10 *3380:A_N 2.395 
3 *393:10 *3377:A2 15.395 
*END

*D_NET *394 0.00870518
*CONN
*I *3373:A3 I *D sky130_fd_sc_hd__a311o_2
*I *3370:D I *D sky130_fd_sc_hd__nand4_2
*I *3368:A3 I *D sky130_fd_sc_hd__a31o_2
*I *3376:A2 I *D sky130_fd_sc_hd__a21oi_2
*I *3378:A I *D sky130_fd_sc_hd__nor2_2
*I *3375:A2 I *D sky130_fd_sc_hd__o21ai_2
*I *3372:A2 I *D sky130_fd_sc_hd__a21oi_2
*I *3367:X O *D sky130_fd_sc_hd__and4_2
*CAP
1 *3373:A3 0.000213902
2 *3370:D 0
3 *3368:A3 0
4 *3376:A2 0
5 *3378:A 0.000452622
6 *3375:A2 0.00014933
7 *3372:A2 3.48466e-05
8 *3367:X 0.000483626
9 *394:85 0.000273616
10 *394:58 0.000649088
11 *394:52 0.000450787
12 *394:44 0.000344445
13 *394:27 0.000248556
14 *394:12 0.000587288
15 *3372:A2 *396:96 0.000116151
16 *3372:A2 *877:48 0.000116151
17 *3373:A3 *3373:A1 7.23533e-05
18 *3373:A3 *3768:A1 9.95949e-05
19 *3373:A3 *3768:A2 0.00014898
20 *3373:A3 *3771:A2 1.44259e-05
21 *3373:A3 *3773:B1 0.000377051
22 *3373:A3 *893:80 6.4422e-05
23 *3373:A3 *1047:14 0.000203178
24 *3373:A3 *1047:68 1.1561e-05
25 *3375:A2 *3370:A 0.000332802
26 *3375:A2 *3371:A 2.50049e-05
27 *3375:A2 *3371:C 2.97204e-05
28 *3375:A2 *3375:A1 5.4155e-06
29 *3375:A2 *3376:B1 5.83121e-06
30 *3375:A2 *3925:CLK 5.46216e-05
31 *3375:A2 *626:70 1.15688e-05
32 *3375:A2 *1048:69 5.16418e-05
33 *3375:A2 *1049:8 1.19928e-05
34 *3378:A *3376:B1 0
35 *3378:A *3771:B1 0.000190761
36 *394:12 *3768:A2 0.000385327
37 *394:12 *3768:B1 6.59822e-05
38 *394:27 *3370:A 4.82863e-05
39 *394:27 *3768:A1 5.36372e-05
40 *394:27 *3768:A2 0.000196376
41 *394:27 *396:96 4.9968e-05
42 *394:27 *877:48 4.31106e-05
43 *394:44 *3370:A 8.40269e-05
44 *394:44 *3768:A2 0.000150653
45 *394:44 *1048:69 4.85795e-05
46 *394:52 *3368:A1 0.000464196
47 *394:52 *3368:A2 1.08758e-05
48 *394:52 *3368:B1 8.08153e-06
49 *394:52 *3371:A 0.000186627
50 *394:52 *3371:C 0.00011379
51 *394:52 *3376:A1 4.82863e-05
52 *394:52 *3376:B1 0
53 *394:52 *1048:69 7.21296e-06
54 *394:58 *3368:A2 9.53428e-06
55 *394:58 *3376:A1 0.000162759
56 *394:58 *4320:A 9.72742e-06
57 *394:85 *3370:C 5.4155e-06
58 *394:85 *3768:A1 4.36241e-05
59 *394:85 *3768:A2 0.000268129
60 *394:85 *1047:14 3.90495e-05
61 *394:85 *1047:20 3.00381e-05
62 *394:85 *1048:69 4.82919e-05
63 *3920:RESET_B *394:12 4.82863e-05
64 *3923:D *3375:A2 0.00015995
65 *3923:D *394:58 8.40213e-05
*RES
1 *3367:X *394:12 10.725 
2 *394:12 *3372:A2 4.98 
3 *394:12 *394:27 4.445 
4 *394:27 *3375:A2 10.595 
5 *394:27 *394:44 1.485 
6 *394:44 *394:52 10.675 
7 *394:52 *394:58 3.93 
8 *394:58 *3378:A 13.28 
9 *394:58 *3376:A2 1.6 
10 *394:52 *3368:A3 1.6 
11 *394:44 *394:85 2.88 
12 *394:85 *3370:D 1.6 
13 *394:85 *3373:A3 12.65 
*END

*D_NET *395 0.00108563
*CONN
*I *3371:A I *D sky130_fd_sc_hd__and3_2
*I *3368:X O *D sky130_fd_sc_hd__a31o_2
*CAP
1 *3371:A 0.000194766
2 *3368:X 0.000194766
3 *3371:A *3371:C 0.000195476
4 *3375:A2 *3371:A 2.50049e-05
5 *3923:D *3371:A 0.00028899
6 *394:52 *3371:A 0.000186627
*RES
1 *3368:X *3371:A 12.96 
*END

*D_NET *396 0.0112118
*CONN
*I *3375:B1 I *D sky130_fd_sc_hd__o21ai_2
*I *3371:B I *D sky130_fd_sc_hd__and3_2
*I *3381:B1 I *D sky130_fd_sc_hd__o21ai_2
*I *3377:B1 I *D sky130_fd_sc_hd__o21ai_2
*I *3380:B I *D sky130_fd_sc_hd__and3b_2
*I *3383:B1 I *D sky130_fd_sc_hd__o21ai_2
*I *3386:B I *D sky130_fd_sc_hd__and3b_2
*I *3387:B1 I *D sky130_fd_sc_hd__o21ai_2
*I *3369:Y O *D sky130_fd_sc_hd__nor2_2
*CAP
1 *3375:B1 8.42816e-05
2 *3371:B 4.18826e-05
3 *3381:B1 0.000115361
4 *3377:B1 0.000405152
5 *3380:B 0.00010704
6 *3383:B1 0
7 *3386:B 0
8 *3387:B1 0.000310566
9 *3369:Y 0.000460902
10 *396:96 0.0003808
11 *396:57 0.000864817
12 *396:32 0.000502303
13 *396:24 0.000366682
14 *396:20 0.000896725
15 *396:16 0.00105266
16 *396:14 0.00128368
17 *3371:B *3371:C 5.35969e-06
18 *3375:B1 *3370:A 7.21296e-06
19 *3375:B1 *3505:A 2.75229e-05
20 *3375:B1 *3922:CLK 4.82919e-05
21 *3375:B1 *626:81 6.10014e-05
22 *3375:B1 *644:103 0
23 *3377:B1 *3377:A1 8.8266e-05
24 *3377:B1 *3378:B 4.99619e-05
25 *3380:B *3380:C 3.08758e-07
26 *3381:B1 *3381:A1 0
27 *3381:B1 *3382:B1 3.39064e-05
28 *3387:B1 *3387:A1 2.97004e-06
29 *3387:B1 *3508:A 0
30 *3387:B1 *876:20 0.000229541
31 *3387:B1 *877:31 0
32 *3387:B1 *1050:27 4.19967e-05
33 *396:14 *3996:CLK 0.00012657
34 *396:14 *4098:A 0.000147781
35 *396:14 *626:8 0.000163204
36 *396:14 *644:77 9.37731e-05
37 *396:14 *877:48 0
38 *396:14 *1047:76 5.35969e-06
39 *396:14 *1051:10 0.000256157
40 *396:16 *4097:A 3.85943e-05
41 *396:16 *1044:8 2.49909e-05
42 *396:20 *4097:A 2.81884e-05
43 *396:20 *625:80 4.80285e-05
44 *396:24 *625:86 6.10014e-05
45 *396:24 *625:92 0.00038674
46 *396:32 *3383:A1 9.42302e-05
47 *396:32 *3384:B 4.66108e-05
48 *396:32 *3918:CLK 3.86607e-05
49 *396:32 *625:92 0.000121876
50 *396:32 *877:31 0.000116853
51 *396:57 *3323:A 0
52 *396:57 *3380:C 3.18219e-05
53 *396:57 *3921:CLK 0.000224314
54 *396:57 *625:86 2.86623e-05
55 *396:57 *1045:16 0.000116165
56 *396:57 *1046:10 0
57 *396:96 *626:70 0.000196626
58 *396:96 *626:81 2.4997e-05
59 *396:96 *644:77 5.09046e-05
60 *396:96 *644:103 0
61 *396:96 *877:48 0.000146881
62 *396:96 *1047:76 0.000116158
63 *3372:A2 *396:96 0.000116151
64 *3377:A2 *3377:B1 0.000347186
65 *3377:A2 *3380:B 3.64998e-06
66 *3377:A2 *396:57 3.05238e-05
67 *3383:A2 *3387:B1 8.35683e-05
68 *3920:D *396:20 3.94592e-05
69 *3921:D *3380:B 5.83121e-06
70 *3925:D *3375:B1 2.25075e-05
71 *3925:D *396:96 4.18603e-06
72 *3997:D *396:24 0
73 *11:10 *3377:B1 1.1545e-05
74 *11:10 *3381:B1 0
75 *11:10 *396:24 2.95392e-06
76 *11:10 *396:57 4.86948e-06
77 *355:18 *396:57 0
78 *391:10 *3387:B1 9.30787e-05
79 *392:10 *396:24 4.43871e-06
80 *392:25 *396:24 0.000187501
81 *392:29 *3381:B1 0
82 *394:27 *396:96 4.9968e-05
*RES
1 *3369:Y *396:14 14.18 
2 *396:14 *396:16 6.315 
3 *396:16 *396:20 6.245 
4 *396:20 *396:24 7.715 
5 *396:24 *396:32 8.56 
6 *396:32 *3387:B1 10.175 
7 *396:32 *3386:B 1.6 
8 *396:24 *3383:B1 1.6 
9 *396:20 *396:57 7.5 
10 *396:57 *3380:B 4.74 
11 *396:57 *3377:B1 12.39 
12 *396:16 *3381:B1 7.49 
13 *396:14 *396:96 9.5 
14 *396:96 *3371:B 4.05 
15 *396:96 *3375:B1 5.685 
*END

*D_NET *397 0.000940339
*CONN
*I *3371:C I *D sky130_fd_sc_hd__and3_2
*I *3370:Y O *D sky130_fd_sc_hd__nand4_2
*CAP
1 *3371:C 0.000290387
2 *3370:Y 0.000290387
3 *3371:C *1048:69 1.52184e-05
4 *3371:A *3371:C 0.000195476
5 *3371:B *3371:C 5.35969e-06
6 *3375:A2 *3371:C 2.97204e-05
7 *394:52 *3371:C 0.00011379
*RES
1 *3370:Y *3371:C 11.445 
*END

*D_NET *398 0.000242928
*CONN
*I *3374:A I *D sky130_fd_sc_hd__nor2_2
*I *3372:Y O *D sky130_fd_sc_hd__a21oi_2
*CAP
1 *3374:A 6.25515e-05
2 *3372:Y 6.25515e-05
3 *3374:A *626:56 0
4 *3374:A *644:77 0.000117825
5 *3924:D *3374:A 0
*RES
1 *3372:Y *3374:A 8.58 
*END

*D_NET *399 0.000814864
*CONN
*I *3374:B I *D sky130_fd_sc_hd__nor2_2
*I *3373:X O *D sky130_fd_sc_hd__a311o_2
*CAP
1 *3374:B 0.000203718
2 *3373:X 0.000203718
3 *3374:B *626:56 0.000201503
4 *3374:B *1047:76 0.000205925
*RES
1 *3373:X *3374:B 8.135 
*END

*D_NET *400 0.000468345
*CONN
*I *3376:B1 I *D sky130_fd_sc_hd__a21oi_2
*I *3375:Y O *D sky130_fd_sc_hd__o21ai_2
*CAP
1 *3376:B1 0.000115835
2 *3375:Y 0.000115835
3 *3376:B1 *3370:A 2.92496e-05
4 *3376:B1 *3505:A 4.82863e-05
5 *3376:B1 *3771:B1 0
6 *3376:B1 *3922:CLK 5.83121e-06
7 *3376:B1 *3925:CLK 2.03356e-05
8 *3376:B1 *644:103 0
9 *3376:B1 *1049:8 3.57349e-05
10 *3375:A2 *3376:B1 5.83121e-06
11 *3378:A *3376:B1 0
12 *3923:D *3376:B1 9.14049e-05
13 *394:52 *3376:B1 0
*RES
1 *3375:Y *3376:B1 9.63 
*END

*D_NET *401 0.000250442
*CONN
*I *3378:B I *D sky130_fd_sc_hd__nor2_2
*I *3377:Y O *D sky130_fd_sc_hd__o21ai_2
*CAP
1 *3378:B 8.75246e-05
2 *3377:Y 8.75246e-05
3 *3378:B *3377:A1 2.05056e-05
4 *3377:B1 *3378:B 4.99619e-05
5 *3922:D *3378:B 4.9253e-06
*RES
1 *3377:Y *3378:B 4.7 
*END

*D_NET *402 0.000355855
*CONN
*I *3380:C I *D sky130_fd_sc_hd__and3b_2
*I *3379:X O *D sky130_fd_sc_hd__a21o_2
*CAP
1 *3380:C 6.32805e-05
2 *3379:X 6.32805e-05
3 *3380:C *1045:18 4.99619e-05
4 *3380:C *1046:10 9.30787e-05
5 *3366:C *3380:C 4.82919e-05
6 *3377:A2 *3380:C 5.83121e-06
7 *3380:B *3380:C 3.08758e-07
8 *396:57 *3380:C 3.18219e-05
*RES
1 *3379:X *3380:C 8.91375 
*END

*D_NET *403 0.000570739
*CONN
*I *3382:B1 I *D sky130_fd_sc_hd__a21oi_2
*I *3381:Y O *D sky130_fd_sc_hd__o21ai_2
*CAP
1 *3382:B1 0.00016683
2 *3381:Y 0.00016683
3 *3381:B1 *3382:B1 3.39064e-05
4 *3920:D *3382:B1 0.000134516
5 *3920:RESET_B *3382:B1 0
6 *392:29 *3382:B1 6.86563e-05
*RES
1 *3381:Y *3382:B1 10.875 
*END

*D_NET *404 0.000345337
*CONN
*I *3384:B I *D sky130_fd_sc_hd__nor2_2
*I *3383:Y O *D sky130_fd_sc_hd__o21ai_2
*CAP
1 *3384:B 0.000149363
2 *3383:Y 0.000149363
3 *396:32 *3384:B 4.66108e-05
*RES
1 *3383:Y *3384:B 5.39 
*END

*D_NET *405 0.00058472
*CONN
*I *3386:C I *D sky130_fd_sc_hd__and3b_2
*I *3385:X O *D sky130_fd_sc_hd__a21o_2
*CAP
1 *3386:C 0.000191127
2 *3385:X 0.000191127
3 *3386:C *3365:B 8.94496e-05
4 *3386:C *1050:16 6.6406e-05
5 *3386:A_N *3386:C 4.66108e-05
*RES
1 *3385:X *3386:C 5.76875 
*END

*D_NET *406 0.000320654
*CONN
*I *3388:B1 I *D sky130_fd_sc_hd__a21oi_2
*I *3387:Y O *D sky130_fd_sc_hd__o21ai_2
*CAP
1 *3388:B1 0.000117965
2 *3387:Y 0.000117965
3 *3388:B1 *3364:C 5.83121e-06
4 *3388:B1 *641:54 5.72004e-05
5 *3388:B1 *1041:10 0
6 *3388:B1 *1041:21 0
7 *3388:B1 *1041:25 2.16917e-05
*RES
1 *3387:Y *3388:B1 9.285 
*END

*D_NET *407 0.00212905
*CONN
*I *3390:B1 I *D sky130_fd_sc_hd__o21a_2
*I *3389:X O *D sky130_fd_sc_hd__a21o_2
*CAP
1 *3390:B1 0.000514575
2 *3389:X 0.000514575
3 *3390:B1 *3324:A 9.30787e-05
4 *3390:B1 *3390:A1 0.000164874
5 *3390:B1 *3390:A2 4.82919e-05
6 *3390:B1 *3849:A1 0.000273872
7 *3390:B1 *878:92 0.000100301
8 *3390:B1 *934:28 0.000416828
9 *3916:D *3390:B1 2.65814e-06
*RES
1 *3389:X *3390:B1 17.145 
*END

*D_NET *408 0.000336599
*CONN
*I *3392:B1 I *D sky130_fd_sc_hd__o21a_2
*I *3391:X O *D sky130_fd_sc_hd__a21o_2
*CAP
1 *3392:B1 9.5286e-05
2 *3391:X 9.5286e-05
3 *3392:B1 *3391:B1 0.000118513
4 *3392:B1 *3804:B1 2.75145e-05
*RES
1 *3391:X *3392:B1 9.03 
*END

*D_NET *409 0.00383549
*CONN
*I *3394:A3 I *D sky130_fd_sc_hd__o32a_2
*I *3393:X O *D sky130_fd_sc_hd__o21ba_2
*CAP
1 *3394:A3 0.00139643
2 *3393:X 0.00139643
3 *3394:A3 *3394:A1 5.4155e-06
4 *3394:A3 *3394:B1 0.000342857
5 *3394:A3 *3863:D 0
6 *3394:A3 *3881:CLK 3.70009e-05
7 *3394:A3 *3964:RESET_B 0.000135113
8 *3394:A3 *4124:A 6.27529e-05
9 *3394:A3 *4385:A 6.01134e-05
10 *3394:A3 *613:22 0
11 *3394:A3 *647:28 2.98807e-05
12 *3394:A3 *655:111 3.89528e-05
13 *3394:A3 *1012:14 0.000246586
14 *3394:A3 *1013:10 6.78134e-05
15 *3394:A3 *1026:6 1.6147e-05
16 o_cmd_status_reg[3] *3394:A3 0
*RES
1 *3393:X *3394:A3 31.675 
*END

*D_NET *410 0.00391945
*CONN
*I *3395:C I *D sky130_fd_sc_hd__or3_2
*I *3394:X O *D sky130_fd_sc_hd__o32a_2
*CAP
1 *3395:C 0.000895187
2 *3394:X 0.000895187
3 *3395:C *3394:A1 4.35432e-05
4 *3395:C *3394:B1 0.000100738
5 *3395:C *3881:CLK 0.000270409
6 *3395:C *4068:A 0.00021011
7 *3395:C *4257:A 5.83121e-06
8 *3395:C *4379:A 0.000198295
9 *3395:C *647:28 3.0264e-05
10 *3395:C *648:16 7.25046e-05
11 *3395:C *1015:8 0.000271733
12 o_cmd_status_reg[3] *3395:C 0.000925643
*RES
1 *3394:X *3395:C 26.445 
*END

*D_NET *411 0.000482174
*CONN
*I *3427:B1 I *D sky130_fd_sc_hd__a22o_2
*I *3399:Y O *D sky130_fd_sc_hd__inv_2
*CAP
1 *3427:B1 8.64837e-05
2 *3399:Y 8.64837e-05
3 *3427:B1 *3427:A1 0.000160641
4 *3427:B1 *3427:B2 4.94404e-05
5 *3427:B1 *4315:A 9.91257e-05
6 *3975:D *3427:B1 0
*RES
1 *3399:Y *3427:B1 9.81 
*END

*D_NET *412 0.00224608
*CONN
*I *3411:A2 I *D sky130_fd_sc_hd__o21ai_2
*I *3409:B I *D sky130_fd_sc_hd__xnor2_2
*I *3408:B1 I *D sky130_fd_sc_hd__o21ai_2
*I *3406:X O *D sky130_fd_sc_hd__a21o_2
*CAP
1 *3411:A2 0
2 *3409:B 0
3 *3408:B1 0.000265408
4 *3406:X 0.000193001
5 *412:22 0.000382194
6 *412:12 0.000309787
7 *3408:B1 *3406:A1 0
8 *3408:B1 *631:12 0.000226848
9 *3408:B1 *906:12 4.43682e-05
10 *412:12 *3406:A1 0.000312778
11 *412:12 *3406:A2 0
12 *412:12 *3412:A 3.83041e-05
13 *412:12 *3412:B 4.82863e-05
14 *412:12 *625:21 0
15 *412:12 *631:12 0
16 *412:22 *3406:A1 1.56135e-05
17 *412:22 *3412:A 4.82919e-05
18 *412:22 *3412:B 1.16578e-05
19 *412:22 *631:12 0.000135758
20 *3989:D *3408:B1 0.000213785
*RES
1 *3406:X *412:12 9.98 
2 *412:12 *412:22 4.895 
3 *412:22 *3408:B1 9.12 
4 *412:22 *3409:B 3.6 
5 *412:12 *3411:A2 1.6 
*END

*D_NET *413 0.00216108
*CONN
*I *3408:A2 I *D sky130_fd_sc_hd__o21ai_2
*I *3407:Y O *D sky130_fd_sc_hd__nand2_2
*CAP
1 *3408:A2 0.000878676
2 *3407:Y 0.000878676
3 *3408:A2 *3406:A1 0
4 *3408:A2 *3407:A 1.03423e-05
5 *3408:A2 *3407:B 4.92062e-05
6 *3408:A2 *3409:A 2.75145e-05
7 *3408:A2 *4391:A 9.04308e-05
8 *3408:A2 *4394:A 0.000117089
9 *3408:A1 *3408:A2 1.77665e-05
10 *3990:D *3408:A2 9.13777e-05
*RES
1 *3407:Y *3408:A2 23.845 
*END

*D_NET *414 0.00564657
*CONN
*I *3415:A2 I *D sky130_fd_sc_hd__o21ai_2
*I *3413:B I *D sky130_fd_sc_hd__xnor2_2
*I *3414:C I *D sky130_fd_sc_hd__or3_2
*I *3412:A I *D sky130_fd_sc_hd__nand2_2
*I *3410:X O *D sky130_fd_sc_hd__a2111o_2
*CAP
1 *3415:A2 0.000346262
2 *3413:B 0
3 *3414:C 0.000217505
4 *3412:A 0.000407415
5 *3410:X 0.000199433
6 *414:36 0.000425581
7 *414:23 0.00053134
8 *414:10 0.000841364
9 *3412:A *3411:A1 6.58423e-05
10 *3412:A *3412:B 0.0001167
11 *3414:C *3406:B1 5.17571e-05
12 *3414:C *3414:A 0.000497861
13 *3414:C *3414:B 0.000914194
14 *3414:C *416:24 0.000109836
15 *3415:A2 *3414:B 0
16 *3415:A2 *3415:A1 0
17 *3415:A2 *3415:B1 0
18 *3415:A2 *3416:B 7.68164e-05
19 *3415:A2 *3417:A 0
20 *3415:A2 *3419:B 4.82919e-05
21 *3415:A2 *3420:B 0
22 *3415:A2 *416:24 0.00019194
23 *3415:A2 *762:10 0
24 *414:10 *3410:C1 8.8266e-05
25 *414:10 *642:14 0.000153507
26 *414:10 *653:8 0
27 *414:23 *3406:A2 0
28 *414:23 *416:24 1.03755e-05
29 *414:23 *642:14 0.0001864
30 *414:23 *653:8 0
31 *414:23 *664:10 0
32 *414:23 *673:8 0
33 *414:36 *3414:B 0
34 *414:36 *416:24 7.63125e-05
35 *3408:A1 *414:10 2.97004e-06
36 *4335:A *414:23 0
37 *412:12 *3412:A 3.83041e-05
38 *412:22 *3412:A 4.82919e-05
*RES
1 *3410:X *414:10 7.56 
2 *414:10 *3412:A 9.93 
3 *414:10 *414:23 4.95 
4 *414:23 *3414:C 12.6 
5 *414:23 *414:36 1.635 
6 *414:36 *3413:B 3.6 
7 *414:36 *3415:A2 10.275 
*END

*D_NET *415 0.000462651
*CONN
*I *3412:B I *D sky130_fd_sc_hd__nand2_2
*I *3411:Y O *D sky130_fd_sc_hd__o21ai_2
*CAP
1 *3412:B 0.000143003
2 *3411:Y 0.000143003
3 *3412:A *3412:B 0.0001167
4 *412:12 *3412:B 4.82863e-05
5 *412:22 *3412:B 1.16578e-05
*RES
1 *3411:Y *3412:B 6.095 
*END

*D_NET *416 0.0045004
*CONN
*I *3416:A I *D sky130_fd_sc_hd__nand2_2
*I *3417:B I *D sky130_fd_sc_hd__or2_2
*I *3418:B I *D sky130_fd_sc_hd__nand2_2
*I *3414:X O *D sky130_fd_sc_hd__or3_2
*CAP
1 *3416:A 1.97637e-05
2 *3417:B 0.000128004
3 *3418:B 0
4 *3414:X 0.00123286
5 *416:30 0.000384636
6 *416:24 0.00150925
7 *3416:A *3993:CLK 4.87465e-06
8 *3417:B *3417:A 0.000201335
9 *3417:B *762:10 9.50342e-06
10 *416:24 *3414:B 0.000119831
11 *416:24 *3415:A1 0.000174846
12 *416:24 *641:124 1.00941e-05
13 *416:24 *673:8 9.12564e-05
14 *416:30 *3415:B1 2.26468e-05
15 *416:30 *762:10 0.000154745
16 *3414:C *416:24 0.000109836
17 *3415:A2 *416:24 0.00019194
18 *3993:D *416:24 4.82863e-05
19 *4347:A *416:30 0
20 *414:23 *416:24 1.03755e-05
21 *414:36 *416:24 7.63125e-05
*RES
1 *3414:X *416:24 15.5197 
2 *416:24 *416:30 6.665 
3 *416:30 *3418:B 3.6 
4 *416:30 *3417:B 6.45 
5 *416:24 *3416:A 1.96 
*END

*D_NET *417 0.000258119
*CONN
*I *3416:B I *D sky130_fd_sc_hd__nand2_2
*I *3415:Y O *D sky130_fd_sc_hd__o21ai_2
*CAP
1 *3416:B 5.45087e-05
2 *3415:Y 5.45087e-05
3 *3416:B *3415:B1 7.2285e-05
4 *3415:A2 *3416:B 7.68164e-05
*RES
1 *3415:Y *3416:B 8.835 
*END

*D_NET *418 0.00139818
*CONN
*I *3419:A I *D sky130_fd_sc_hd__nand2_2
*I *3420:B I *D sky130_fd_sc_hd__xnor2_2
*I *3417:X O *D sky130_fd_sc_hd__or2_2
*CAP
1 *3419:A 0
2 *3420:B 0.000180232
3 *3417:X 0.000398274
4 *418:10 0.000578505
5 *3420:B *3415:A1 3.32811e-05
6 *3420:B *3993:CLK 0.00020789
7 *3415:A2 *3420:B 0
*RES
1 *3417:X *418:10 9.39 
2 *418:10 *3420:B 7.53 
3 *418:10 *3419:A 3.6 
*END

*D_NET *419 0.000486716
*CONN
*I *3419:B I *D sky130_fd_sc_hd__nand2_2
*I *3418:Y O *D sky130_fd_sc_hd__nand2_2
*CAP
1 *3419:B 0.000185664
2 *3418:Y 0.000185664
3 *3419:B *3415:A1 3.95724e-05
4 *3419:B *3415:B1 2.75229e-05
5 *3415:A2 *3419:B 4.82919e-05
*RES
1 *3418:Y *3419:B 6.425 
*END

*D_NET *420 0.00115583
*CONN
*I *3422:B2 I *D sky130_fd_sc_hd__o2bb2a_2
*I *3421:X O *D sky130_fd_sc_hd__and2b_2
*CAP
1 *3422:B2 0.000440996
2 *3421:X 0.000440996
3 *3422:B2 *3778:B1 6.47326e-05
4 *3422:B2 *509:10 0
5 *3422:B2 *662:41 0
6 *3422:B2 *885:28 1.19928e-05
7 *3422:B2 *885:39 8.30523e-05
8 *3422:B2 *899:47 8.40213e-05
9 *3422:B1 *3422:B2 3.00381e-05
*RES
1 *3421:X *3422:B2 14.37 
*END

*D_NET *421 0.00114082
*CONN
*I *3424:A3 I *D sky130_fd_sc_hd__a32o_2
*I *3423:Y O *D sky130_fd_sc_hd__nand2_2
*CAP
1 *3424:A3 0.000171071
2 *3423:Y 0.000171071
3 *3424:A3 *3423:A 0.000533443
4 *3424:A3 *3423:B 7.67378e-05
5 *3424:A3 *4328:A 0.000102411
6 *3424:A3 *1115:8 8.60912e-05
*RES
1 *3423:Y *3424:A3 13.425 
*END

*D_NET *422 0.00148039
*CONN
*I *3426:C1 I *D sky130_fd_sc_hd__a211oi_2
*I *3425:Y O *D sky130_fd_sc_hd__a21oi_2
*CAP
1 *3426:C1 0.000332967
2 *3425:Y 0.000332967
3 *3426:C1 *3425:B1 4.82919e-05
4 *3426:C1 *3776:A2 0.000136182
5 *3426:C1 *611:132 3.09164e-05
6 *3426:C1 *885:28 0
7 *3426:C1 *1096:29 2.30292e-05
8 *3426:C1 *1114:36 1.34361e-05
9 *3426:C1 *1116:12 0.000363653
10 *3426:C1 *1116:38 8.65961e-05
11 *3928:SET_B *3426:C1 0.000112356
*RES
1 *3425:Y *3426:C1 16.005 
*END

*D_NET *423 0.0034807
*CONN
*I *3521:B I *D sky130_fd_sc_hd__or2_2
*I *3432:B1 I *D sky130_fd_sc_hd__a21o_2
*I *3431:X O *D sky130_fd_sc_hd__and2_2
*CAP
1 *3521:B 0.000792316
2 *3432:B1 0.000102113
3 *3431:X 0.00089443
4 *3432:B1 *611:10 0.000117832
5 *3521:B *3780:A1 1.44259e-05
6 *3521:B *3780:A2 0.00020086
7 *3521:B *4083:A 0
8 *3521:B *4212:A 0.0004262
9 *3521:B *611:8 0.000173988
10 *3521:B *658:50 3.90266e-05
11 *3521:B *708:10 0.000117297
12 *3521:B *1089:22 0.000157595
13 *3431:A *3432:B1 5.86036e-05
14 *3431:A *3521:B 0.000118928
15 *3932:RESET_B *3521:B 4.92284e-05
16 *3975:D *3432:B1 0.000116158
17 *3975:D *3521:B 1.34361e-05
18 *4018:D *3521:B 0
19 *4216:A *3521:B 8.82557e-05
*RES
1 *3431:X *3432:B1 9.375 
2 *3431:X *3521:B 27.04 
*END

*D_NET *424 0.00189096
*CONN
*I *3438:B2 I *D sky130_fd_sc_hd__a22o_2
*I *3435:A2_N I *D sky130_fd_sc_hd__a2bb2o_2
*I *3434:X O *D sky130_fd_sc_hd__or2_2
*CAP
1 *3438:B2 0.000221893
2 *3435:A2_N 0
3 *3434:X 0.000391388
4 *424:12 0.000613281
5 *3438:B2 *3435:B2 8.40213e-05
6 *3438:B2 *3438:B1 4.14666e-06
7 *424:12 *3434:A 0.00041202
8 *424:12 *3527:A1 4.84687e-05
9 *424:12 *3528:B1 3.46637e-06
10 *424:12 *644:55 0
11 *3435:A1_N *3438:B2 4.99236e-05
12 *3435:B1 *3438:B2 6.23477e-05
*RES
1 *3434:X *424:12 11.885 
2 *424:12 *3435:A2_N 1.6 
3 *424:12 *3438:B2 5.185 
*END

*D_NET *425 0.000430377
*CONN
*I *3441:B I *D sky130_fd_sc_hd__nor2_2
*I *3440:Y O *D sky130_fd_sc_hd__a21oi_2
*CAP
1 *3441:B 0.000103379
2 *3440:Y 0.000103379
3 *3441:B *3440:A2 3.51596e-05
4 *3441:B *627:55 0.00011852
5 *3441:B *934:28 2.531e-06
6 *360:33 *3441:B 6.74079e-05
*RES
1 *3440:Y *3441:B 9.375 
*END

*D_NET *426 0.00566027
*CONN
*I *3466:A I *D sky130_fd_sc_hd__nor2_2
*I *3458:B I *D sky130_fd_sc_hd__and3_2
*I *3453:B1 I *D sky130_fd_sc_hd__a22o_2
*I *3449:B1 I *D sky130_fd_sc_hd__o21a_2
*I *3443:Y O *D sky130_fd_sc_hd__nor3_2
*CAP
1 *3466:A 0.000109853
2 *3458:B 0.000155382
3 *3453:B1 0
4 *3449:B1 0.000290741
5 *3443:Y 0.000534704
6 *426:26 0.000631783
7 *426:16 0.000782817
8 *426:10 0.00093095
9 *3449:B1 *3448:B 0.0001947
10 *3449:B1 *3448:C 1.4174e-05
11 *3449:B1 *3457:A3 2.11921e-05
12 *3449:B1 *3458:C 0.000113085
13 *3449:B1 *4090:A 0.000137571
14 *3449:B1 *1004:18 8.4346e-05
15 *3458:B *3458:C 9.76287e-05
16 *3458:B *3525:A0 7.75359e-05
17 *3458:B *948:12 3.38895e-05
18 *3458:B *948:14 1.01661e-05
19 *3466:A *638:37 0.000105279
20 *3466:A *1002:16 0.000283634
21 *426:10 *3443:B 2.30292e-05
22 *426:10 *3443:C 8.8266e-05
23 *426:10 *3947:RESET_B 9.56213e-05
24 *426:10 *989:20 0.000272984
25 *426:10 *1002:8 7.53407e-05
26 *426:16 *3458:C 3.82741e-05
27 *426:16 *3947:CLK 4.65607e-05
28 *426:16 *4306:A 5.4003e-05
29 *426:16 *948:20 1.94636e-05
30 *426:16 *1002:8 9.60582e-07
31 *426:16 *1002:16 0
32 *426:26 *3524:B1 1.03755e-05
33 *3449:A1 *3449:B1 4.82863e-05
34 *3453:A2 *426:26 5.05066e-06
35 *3457:A1 *426:26 0.000187552
36 *3947:D *3458:B 0
37 *3947:D *426:16 1.7386e-05
38 *109:14 *3449:B1 2.92496e-05
39 *109:28 *3449:B1 3.39981e-05
40 *364:12 *3458:B 4.43871e-06
*RES
1 *3443:Y *426:10 10.705 
2 *426:10 *426:16 5.8625 
3 *426:16 *426:26 3.91143 
4 *426:26 *3449:B1 12.05 
5 *426:26 *3453:B1 1.6 
6 *426:16 *3458:B 6.5775 
7 *426:10 *3466:A 9.02 
*END

*D_NET *427 0.00919755
*CONN
*I *3687:B2 I *D sky130_fd_sc_hd__a221o_2
*I *3701:S I *D sky130_fd_sc_hd__mux2_1
*I *3695:S I *D sky130_fd_sc_hd__mux2_1
*I *3699:S I *D sky130_fd_sc_hd__mux2_1
*I *3693:S I *D sky130_fd_sc_hd__mux2_1
*I *3697:S I *D sky130_fd_sc_hd__mux2_1
*I *3691:S I *D sky130_fd_sc_hd__mux2_1
*I *3703:S I *D sky130_fd_sc_hd__mux2_1
*I *3445:Y O *D sky130_fd_sc_hd__nor2_2
*CAP
1 *3687:B2 7.00209e-06
2 *3701:S 1.77753e-05
3 *3695:S 0
4 *3699:S 0
5 *3693:S 0
6 *3697:S 0.000122991
7 *3691:S 0.000211168
8 *3703:S 0
9 *3445:Y 0.000129691
10 *427:67 0.000549147
11 *427:61 0.000470739
12 *427:55 0.000899754
13 *427:43 0.00090696
14 *427:29 0.000444257
15 *427:20 0.000535783
16 *427:12 0.000508952
17 *3687:B2 *3687:C1 6.03947e-06
18 *3691:S *3691:A0 8.49205e-05
19 *3691:S *3692:B2 6.80075e-05
20 *3697:S *3484:A2 0
21 *3697:S *3694:B2 0
22 *3697:S *4108:A 7.03802e-05
23 *427:12 *3445:A 5.19006e-06
24 *427:12 *3687:C1 8.24773e-05
25 *427:12 *434:12 2.98644e-05
26 *427:12 *618:12 1.19028e-05
27 *427:12 *618:57 7.08297e-05
28 *427:12 *1002:51 1.11262e-05
29 *427:20 *3474:A 0.000154488
30 *427:20 *3474:B 5.20968e-05
31 *427:20 *3475:B 8.49205e-05
32 *427:20 *3483:A2 3.1696e-05
33 *427:20 *3483:B1 2.75145e-05
34 *427:20 *3483:B2 3.00381e-05
35 *427:20 *3485:C 0.000352156
36 *427:20 *3687:B1 0
37 *427:20 *3689:A1 5.5429e-05
38 *427:20 *3703:A0 6.04218e-05
39 *427:20 *618:18 0.000103949
40 *427:20 *618:20 0.000103664
41 *427:20 *618:57 4.28943e-05
42 *427:20 *846:23 4.9968e-05
43 *427:20 *988:12 1.52184e-05
44 *427:20 *988:29 3.9442e-05
45 *427:20 *1002:51 3.75882e-06
46 *427:29 *3485:C 2.59926e-05
47 *427:29 *3703:A0 6.97118e-05
48 *427:29 *3703:A1 0.000271308
49 *427:29 *3704:B2 1.46744e-05
50 *427:43 *3485:B 0.000192121
51 *427:43 *3701:A1 0.000428068
52 *427:43 *3704:B2 2.30292e-05
53 *427:43 *842:10 5.68633e-05
54 *427:55 *3482:B 3.83041e-05
55 *427:55 *3485:B 9.77147e-05
56 *427:55 *3692:B2 7.9642e-06
57 *427:55 *3695:A1 0.000121643
58 *427:55 *3700:B2 4.16262e-05
59 *427:55 *3701:A1 0
60 *427:55 *4317:A 4.82863e-05
61 *427:55 *4381:A 0.000110558
62 *427:55 *842:10 0.00030615
63 *427:55 *844:14 0
64 *427:55 *908:49 0
65 *427:55 *986:27 8.8266e-05
66 *427:61 *3693:A1 8.34281e-06
67 *427:61 *986:27 0.000276527
68 *427:67 *3693:A0 1.19928e-05
69 *427:67 *3693:A1 5.88664e-05
70 *427:67 *3694:B2 0
71 *427:67 *3860:RESET_B 0
72 *427:67 *4400:A 0.000320113
73 *427:67 *986:10 4.39001e-05
74 *3858:D *427:55 6.73751e-05
75 *4356:A *427:67 0
76 *4357:A *427:43 1.55369e-05
*RES
1 *3445:Y *427:12 5.97 
2 *427:12 *427:20 12.74 
3 *427:20 *3703:S 1.6 
4 *427:20 *427:29 3.915 
5 *427:29 *427:43 7.02 
6 *427:43 *427:55 17.125 
7 *427:55 *427:61 4.62 
8 *427:61 *427:67 6.89 
9 *427:67 *3691:S 7.17 
10 *427:67 *3697:S 5.745 
11 *427:61 *3693:S 1.6 
12 *427:55 *3699:S 1.6 
13 *427:43 *3695:S 1.6 
14 *427:29 *3701:S 1.96 
15 *427:12 *3687:B2 3.70875 
*END

*D_NET *428 0.00197057
*CONN
*I *3448:C I *D sky130_fd_sc_hd__and4_2
*I *3457:A2 I *D sky130_fd_sc_hd__a31o_2
*I *3464:B I *D sky130_fd_sc_hd__or2_2
*I *3463:B I *D sky130_fd_sc_hd__nor2_2
*I *3446:X O *D sky130_fd_sc_hd__or2_2
*CAP
1 *3448:C 6.88309e-05
2 *3457:A2 3.91027e-05
3 *3464:B 9.36267e-05
4 *3463:B 0
5 *3446:X 0
6 *428:30 0.000210975
7 *428:12 0.000218444
8 *428:6 0.000227859
9 *3448:C *3457:A3 4.33768e-05
10 *3448:C *3457:B1 0.000122325
11 *3448:C *3458:C 0.000235845
12 *3457:A2 *3457:A3 6.65504e-05
13 *3457:A2 *3458:C 2.93284e-05
14 *3464:B *3464:A 8.23457e-05
15 *3464:B *3687:A2 9.56017e-06
16 *428:12 *3687:A2 4.22944e-05
17 *428:12 *434:12 8.46818e-05
18 *428:12 *618:57 0.000134756
19 *428:12 *1002:51 4.23802e-05
20 *428:30 *618:57 5.04423e-05
21 *428:30 *618:68 0
22 *428:30 *1004:26 0
23 *3449:B1 *3448:C 1.4174e-05
24 *3457:A1 *428:30 0.00010447
25 *109:28 *428:30 4.91997e-05
*RES
1 *3446:X *428:6 3.6 
2 *428:6 *428:12 5.12 
3 *428:12 *3463:B 1.6 
4 *428:12 *3464:B 3.1 
5 *428:6 *428:30 4.4 
6 *428:30 *3457:A2 2.5825 
7 *428:30 *3448:C 4.135 
*END

*D_NET *429 0.00114806
*CONN
*I *3457:A3 I *D sky130_fd_sc_hd__a31o_2
*I *3448:D I *D sky130_fd_sc_hd__and4_2
*I *3447:Y O *D sky130_fd_sc_hd__nand2b_2
*CAP
1 *3457:A3 0.000161644
2 *3448:D 0
3 *3447:Y 8.66527e-05
4 *429:12 0.000248297
5 *3457:A3 *3449:A2 4.82863e-05
6 *3457:A3 *3457:B1 0.000122325
7 *3457:A3 *3458:C 2.42747e-05
8 *429:12 *4090:A 0.000134546
9 *429:12 *1004:18 8.53113e-06
10 *429:12 *1004:26 0.000134098
11 *3448:C *3457:A3 4.33768e-05
12 *3449:B1 *3457:A3 2.11921e-05
13 *3457:A2 *3457:A3 6.65504e-05
14 *109:28 *429:12 4.82863e-05
*RES
1 *3447:Y *429:12 7.685 
2 *429:12 *3448:D 1.6 
3 *429:12 *3457:A3 4.825 
*END

*D_NET *430 0.000350059
*CONN
*I *3449:A2 I *D sky130_fd_sc_hd__o21a_2
*I *3448:X O *D sky130_fd_sc_hd__and4_2
*CAP
1 *3449:A2 9.19444e-05
2 *3448:X 9.19444e-05
3 *3457:A1 *3449:A2 4.18603e-06
4 *3457:A3 *3449:A2 4.82863e-05
5 *109:28 *3449:A2 0.000113698
*RES
1 *3448:X *3449:A2 9.03 
*END

*D_NET *431 0.00162263
*CONN
*I *3524:B1 I *D sky130_fd_sc_hd__a31o_2
*I *3453:B2 I *D sky130_fd_sc_hd__a22o_2
*I *3452:X O *D sky130_fd_sc_hd__and3_2
*CAP
1 *3524:B1 0.000141052
2 *3453:B2 0
3 *3452:X 0.000263648
4 *431:10 0.0004047
5 *3524:B1 *3459:A1 4.99619e-05
6 *3524:B1 *3949:RESET_B 6.54596e-05
7 *3524:B1 *1004:12 1.0183e-05
8 *3524:B1 *1004:18 4.99619e-05
9 *431:10 *3447:B 4.01308e-05
10 *431:10 *3448:A 0.000257641
11 *431:10 *3452:C 1.14192e-05
12 *431:10 *3465:A2 8.23457e-05
13 *431:10 *3949:RESET_B 0.000102517
14 *431:10 *618:134 0
15 *431:10 *634:42 0.000133233
16 *3453:A2 *3524:B1 0
17 *3453:A2 *431:10 0
18 *426:26 *3524:B1 1.03755e-05
*RES
1 *3452:X *431:10 8.76 
2 *431:10 *3453:B2 3.6 
3 *431:10 *3524:B1 6.135 
*END

*D_NET *432 0.00218569
*CONN
*I *3458:C I *D sky130_fd_sc_hd__and3_2
*I *3457:X O *D sky130_fd_sc_hd__a31o_2
*CAP
1 *3458:C 0.00059077
2 *3457:X 0.00059077
3 *3458:C *3448:A 8.40213e-05
4 *3458:C *3448:B 1.12578e-05
5 *3458:C *3453:A1 7.37493e-05
6 *3458:C *3947:CLK 0.0001947
7 *3458:C *948:14 3.86607e-05
8 *3458:C *948:20 3.501e-05
9 *3448:C *3458:C 0.000235845
10 *3449:B1 *3458:C 0.000113085
11 *3453:A2 *3458:C 2.83118e-05
12 *3457:A2 *3458:C 2.93284e-05
13 *3457:A3 *3458:C 2.42747e-05
14 *3458:B *3458:C 9.76287e-05
15 *426:16 *3458:C 3.82741e-05
*RES
1 *3457:X *3458:C 18.72 
*END

*D_NET *433 0.00305084
*CONN
*I *3518:B1 I *D sky130_fd_sc_hd__a21o_2
*I *3523:A0 I *D sky130_fd_sc_hd__mux2_1
*I *3461:C1 I *D sky130_fd_sc_hd__a221o_2
*I *3460:X O *D sky130_fd_sc_hd__and3b_2
*CAP
1 *3518:B1 0.000463294
2 *3523:A0 0.000189951
3 *3461:C1 0
4 *3460:X 0
5 *433:10 0.000407546
6 *433:4 0.000680889
7 *3518:B1 *3341:A 5.55722e-05
8 *3518:B1 *3518:A1 0.000337524
9 *3518:B1 *616:10 0.000118294
10 *3518:B1 *616:72 0.000108761
11 *3523:A0 *3461:B2 0.00019929
12 *3523:A0 *3953:D 0
13 *433:10 *3341:A 1.47347e-05
14 *433:10 *3460:B 3.03684e-05
15 *433:10 *3460:C 5.2805e-05
16 *433:10 *3461:B2 5.53249e-06
17 *433:10 *3743:B 0.000117298
18 *3454:A1 *433:10 0
19 *3976:D *3518:B1 0.00026898
*RES
1 *3460:X *433:4 1.6 
2 *433:4 *433:10 6.575 
3 *433:10 *3461:C1 3.6 
4 *433:10 *3523:A0 7.785 
5 *433:4 *3518:B1 15.62 
*END

*D_NET *434 0.007033
*CONN
*I *3687:C1 I *D sky130_fd_sc_hd__a221o_2
*I *3690:B1 I *D sky130_fd_sc_hd__a21o_2
*I *3689:B1 I *D sky130_fd_sc_hd__a21oi_2
*I *3692:A2 I *D sky130_fd_sc_hd__a22o_2
*I *3694:A2 I *D sky130_fd_sc_hd__a22o_2
*I *3696:A2 I *D sky130_fd_sc_hd__a22o_2
*I *3463:Y O *D sky130_fd_sc_hd__nor2_2
*CAP
1 *3687:C1 8.72247e-05
2 *3690:B1 0
3 *3689:B1 0.000129405
4 *3692:A2 0.000192457
5 *3694:A2 0
6 *3696:A2 3.78682e-05
7 *3463:Y 9.4627e-05
8 *434:43 0.000373751
9 *434:22 0.00144375
10 *434:18 0.00138663
11 *434:16 0.000271461
12 *434:12 0.000420679
13 *3687:C1 *3445:A 1.56175e-05
14 *3687:C1 *618:12 3.94931e-05
15 *3689:B1 *3483:B2 8.52972e-05
16 *3689:B1 *3485:C 4.28112e-06
17 *3689:B1 *3690:A2 4.20859e-05
18 *3689:B1 *562:14 6.44082e-05
19 *3692:A2 *3692:A1 3.55658e-05
20 *3692:A2 *3692:B2 0.000122821
21 *3692:A2 *3694:B1 9.16129e-05
22 *3696:A2 *3898:CLK 1.34584e-05
23 *3696:A2 *632:12 0.000115945
24 *434:12 *3687:A2 0.000121043
25 *434:12 *618:57 5.26831e-05
26 *434:12 *1002:51 7.08331e-05
27 *434:16 *3687:B1 1.08105e-05
28 *434:16 *3690:A1 0.000251388
29 *434:18 *3690:A1 5.19006e-06
30 *434:22 *4244:A 1.79174e-05
31 *434:22 *563:6 0.00013093
32 *434:22 *563:22 0.00042782
33 *434:43 *3692:B2 0.000143585
34 *434:43 *3694:A1 9.12494e-06
35 *434:43 *3694:B1 1.2818e-05
36 *434:43 *632:12 0.000349996
37 *3687:B2 *3687:C1 6.03947e-06
38 *3900:D *3696:A2 0.000113222
39 *3900:D *434:43 2.98644e-05
40 *3965:D *3689:B1 1.42674e-05
41 *427:12 *3687:C1 8.24773e-05
42 *427:12 *434:12 2.98644e-05
43 *428:12 *434:12 8.46818e-05
*RES
1 *3463:Y *434:12 8.375 
2 *434:12 *434:16 4.17 
3 *434:16 *434:18 0.615 
4 *434:18 *434:22 17.63 
5 *434:22 *3696:A2 5.10375 
6 *434:22 *434:43 7.37375 
7 *434:43 *3694:A2 1.6 
8 *434:43 *3692:A2 5.74 
9 *434:18 *3689:B1 8.48 
10 *434:16 *3690:B1 1.6 
11 *434:12 *3687:C1 4.015 
*END

*D_NET *435 0.0105679
*CONN
*I *3465:A2 I *D sky130_fd_sc_hd__a21oi_2
*I *3688:A2 I *D sky130_fd_sc_hd__o21a_2
*I *3704:A2 I *D sky130_fd_sc_hd__o22a_2
*I *3700:A2 I *D sky130_fd_sc_hd__o22a_2
*I *3698:A2 I *D sky130_fd_sc_hd__o22a_2
*I *3702:A2 I *D sky130_fd_sc_hd__o22a_2
*I *3464:X O *D sky130_fd_sc_hd__or2_2
*CAP
1 *3465:A2 9.68656e-05
2 *3688:A2 0
3 *3704:A2 9.49346e-05
4 *3700:A2 0
5 *3698:A2 0.000227453
6 *3702:A2 0.00051388
7 *3464:X 0.000886953
8 *435:22 0.00126065
9 *435:14 0.00141538
10 *435:12 0.00119322
11 *435:8 0.000992311
12 *3465:A2 *3447:B 8.35157e-05
13 *3465:A2 *3452:B 4.4495e-05
14 *3465:A2 *1002:45 6.65409e-05
15 *3465:A2 *1007:10 6.65409e-05
16 *3698:A2 *3698:A1 0.000120692
17 *3698:A2 *3698:B2 1.07285e-05
18 *3698:A2 *3902:CLK 4.28943e-05
19 *3698:A2 *608:77 0.000111547
20 *3698:A2 *608:79 0.000155054
21 *3702:A2 *3473:B 1.33285e-05
22 *3702:A2 *3484:A2 0.000336081
23 *3702:A2 *3902:CLK 0.000161986
24 *3702:A2 *909:33 4.35575e-05
25 *3702:A2 *982:48 0
26 *3702:A2 *983:31 5.83121e-06
27 *3704:A2 *3621:A2 3.72007e-05
28 *3704:A2 *3704:A1 6.90254e-05
29 *3704:A2 *563:22 8.46818e-05
30 *435:8 *3687:A2 0.0004652
31 *435:8 *3688:B1 0.000247989
32 *435:8 *634:42 4.89395e-05
33 *435:12 *3704:A1 0.000197862
34 *435:14 *3700:A1 2.49909e-05
35 *435:14 *3899:CLK 6.91967e-05
36 *435:14 *4223:A 6.31102e-05
37 *435:22 *3698:B1 0.00010058
38 *435:22 *3700:A1 2.49909e-05
39 *435:22 *3700:B1 0.000389659
40 *435:22 *3700:B2 6.44053e-05
41 *435:22 *3901:RESET_B 2.35512e-05
42 *435:22 *954:10 2.19562e-06
43 *3903:D *3698:A2 0.000242559
44 *3903:D *3702:A2 0.000243067
45 *3977:D *3465:A2 0.000132827
46 *109:28 *3465:A2 9.12494e-06
47 *431:10 *3465:A2 8.23457e-05
*RES
1 *3464:X *435:8 12.07 
2 *435:8 *435:12 3.915 
3 *435:12 *435:14 10.11 
4 *435:14 *435:22 11.105 
5 *435:22 *3702:A2 12.405 
6 *435:22 *3698:A2 8.76 
7 *435:14 *3700:A2 1.6 
8 *435:12 *3704:A2 7.265 
9 *435:8 *3688:A2 1.6 
10 *3464:X *3465:A2 10.2525 
*END

*D_NET *436 0.00157264
*CONN
*I *3466:B I *D sky130_fd_sc_hd__nor2_2
*I *3465:Y O *D sky130_fd_sc_hd__a21oi_2
*CAP
1 *3466:B 0.000436936
2 *3465:Y 0.000436936
3 *3466:B *3952:RESET_B 9.10613e-05
4 *3466:B *948:20 3.83194e-05
5 *3466:B *1002:16 0.000346781
6 *3466:B *1002:20 4.77769e-05
7 *3466:B *1002:45 8.23457e-05
8 *3524:A2 *3466:B 9.24825e-05
*RES
1 *3465:Y *3466:B 14.76 
*END

*D_NET *437 0.00250902
*CONN
*I *3484:A1 I *D sky130_fd_sc_hd__a221o_2
*I *3472:Y O *D sky130_fd_sc_hd__nand2_2
*CAP
1 *3484:A1 0.000521796
2 *3472:Y 0.000521796
3 *3484:A1 *3472:A 0.000222229
4 *3484:A1 *3472:B 3.64998e-06
5 *3484:A1 *3477:B 0.000134822
6 *3484:A1 *3484:B1 5.72179e-05
7 *3484:A1 *3484:B2 1.12643e-05
8 *3484:A1 *3484:C1 8.35106e-05
9 *3484:A1 *3627:A0 0.000148149
10 *3484:A1 *3856:RESET_B 2.40101e-05
11 *3484:A1 *3902:RESET_B 0.000316654
12 *3484:A1 *913:27 5.21019e-05
13 *3484:A1 *913:44 0.000302951
14 *3484:A1 *982:10 0.000108867
*RES
1 *3472:Y *3484:A1 21.105 
*END

*D_NET *438 0.00293758
*CONN
*I *3484:A2 I *D sky130_fd_sc_hd__a221o_2
*I *3473:X O *D sky130_fd_sc_hd__or2_2
*CAP
1 *3484:A2 0.000699022
2 *3473:X 0.000699022
3 *3484:A2 *3473:A 1.05984e-05
4 *3484:A2 *3473:B 0.000158536
5 *3484:A2 *3485:D 5.1885e-05
6 *3484:A2 *3691:A1 1.92979e-05
7 *3484:A2 *3702:A1 4.89395e-05
8 *3484:A2 *3702:B1 0.000122189
9 *3484:A2 *3702:B2 0.000423642
10 *3484:A2 *909:33 0.000113363
11 *3484:A2 *913:27 8.90225e-05
12 *3484:A2 *983:14 0
13 *3697:S *3484:A2 0
14 *3702:A2 *3484:A2 0.000336081
15 *4356:A *3484:A2 0.000165983
*RES
1 *3473:X *3484:A2 22.5225 
*END

*D_NET *439 0.000338395
*CONN
*I *3483:A1 I *D sky130_fd_sc_hd__a22o_2
*I *3474:X O *D sky130_fd_sc_hd__or2_2
*CAP
1 *3483:A1 7.65823e-05
2 *3474:X 7.65823e-05
3 *3483:A1 *3474:B 3.18137e-05
4 *3483:A1 *3687:B1 0.000116158
5 *3483:A1 *4113:A 2.49909e-05
6 *3483:A1 *988:29 1.22676e-05
*RES
1 *3474:X *3483:A1 9.03 
*END

*D_NET *440 0.000254123
*CONN
*I *3483:A2 I *D sky130_fd_sc_hd__a22o_2
*I *3475:Y O *D sky130_fd_sc_hd__nand2_2
*CAP
1 *3483:A2 4.99897e-05
2 *3475:Y 4.99897e-05
3 *3483:A2 *3475:B 8.49205e-05
4 *3483:A2 *3703:A0 3.75272e-05
5 *427:20 *3483:A2 3.1696e-05
*RES
1 *3475:Y *3483:A2 4.49 
*END

*D_NET *441 0.00208307
*CONN
*I *3485:A I *D sky130_fd_sc_hd__or4_2
*I *3476:X O *D sky130_fd_sc_hd__xor2_2
*CAP
1 *3485:A 0.000505854
2 *3476:X 0.000505854
3 *3485:A *3485:B 0.000145498
4 *3485:A *3485:C 2.69153e-05
5 *3485:A *3485:D 0.00046855
6 *3485:A *3701:A1 0
7 *3485:A *3702:B2 4.41506e-05
8 *3485:A *4170:A 8.33459e-05
9 *3485:A *562:14 0.000159179
10 *3861:D *3485:A 0.000143726
11 *4357:A *3485:A 0
*RES
1 *3476:X *3485:A 19.14 
*END

*D_NET *442 0.00270304
*CONN
*I *3484:B1 I *D sky130_fd_sc_hd__a221o_2
*I *3477:X O *D sky130_fd_sc_hd__or2_2
*CAP
1 *3484:B1 0.000479464
2 *3477:X 0.000479464
3 *3484:B1 *3472:B 0.000363355
4 *3484:B1 *3473:A 0.000142923
5 *3484:B1 *3479:B 1.73877e-05
6 *3484:B1 *3484:B2 0.000139267
7 *3484:B1 *3484:C1 0.000224442
8 *3484:B1 *3627:S 1.01661e-05
9 *3484:B1 *3628:A0 0.000241033
10 *3484:B1 *3628:A1 0.000178672
11 *3484:B1 *4318:A 1.18673e-05
12 *3484:B1 *913:27 0.00016031
13 *3484:B1 *913:44 0
14 *3484:B1 *982:48 5.17226e-05
15 *3484:A1 *3484:B1 5.72179e-05
16 *3901:D *3484:B1 8.87304e-05
17 *4368:A *3484:B1 5.70185e-05
*RES
1 *3477:X *3484:B1 21.48 
*END

*D_NET *443 0.0028504
*CONN
*I *3484:B2 I *D sky130_fd_sc_hd__a221o_2
*I *3478:Y O *D sky130_fd_sc_hd__nand2_2
*CAP
1 *3484:B2 0.000635982
2 *3478:Y 0.000635982
3 *3484:B2 *3472:B 0.000119247
4 *3484:B2 *3473:A 8.9257e-05
5 *3484:B2 *3478:A 1.54665e-05
6 *3484:B2 *3478:B 0.000205403
7 *3484:B2 *3628:A0 0.000118081
8 *3484:B2 *3628:A1 0.000178672
9 *3484:B2 *3630:A0 6.53053e-05
10 *3484:B2 *908:73 0.000121039
11 *3484:B2 *982:10 0.000158976
12 *3484:B2 *982:21 0.000274841
13 *3484:B2 *983:14 3.50033e-05
14 *3484:A1 *3484:B2 1.12643e-05
15 *3484:B1 *3484:B2 0.000139267
16 *3859:D *3484:B2 4.66108e-05
*RES
1 *3478:Y *3484:B2 21.3188 
*END

*D_NET *444 0.00105152
*CONN
*I *3484:C1 I *D sky130_fd_sc_hd__a221o_2
*I *3479:X O *D sky130_fd_sc_hd__xor2_2
*CAP
1 *3484:C1 0.000142614
2 *3479:X 0.000142614
3 *3484:C1 *3479:B 0.000121437
4 *3484:C1 *3627:S 8.83106e-05
5 *3484:C1 *3697:A1 1.61831e-05
6 *3484:C1 *908:63 8.49205e-05
7 *3484:C1 *908:73 0.000119756
8 *3484:C1 *913:27 2.26717e-05
9 *3484:C1 *913:44 5.06382e-06
10 *3484:A1 *3484:C1 8.35106e-05
11 *3484:B1 *3484:C1 0.000224442
*RES
1 *3479:X *3484:C1 11.97 
*END

*D_NET *445 0.00100698
*CONN
*I *3483:B1 I *D sky130_fd_sc_hd__a22o_2
*I *3480:X O *D sky130_fd_sc_hd__or2_2
*CAP
1 *3483:B1 0.000223642
2 *3480:X 0.000223642
3 *3483:B1 *3483:B2 7.44453e-05
4 *3483:B1 *3687:B1 0.000137578
5 *3483:B1 *3703:A0 2.49909e-05
6 *3483:B1 *4113:A 2.05056e-05
7 *3483:B1 *4295:A 0.000274659
8 *427:20 *3483:B1 2.75145e-05
*RES
1 *3480:X *3483:B1 12.15 
*END

*D_NET *446 0.00107283
*CONN
*I *3483:B2 I *D sky130_fd_sc_hd__a22o_2
*I *3481:Y O *D sky130_fd_sc_hd__nand2_2
*CAP
1 *3483:B2 0.00027601
2 *3481:Y 0.00027601
3 *3483:B2 *3485:C 4.77769e-05
4 *3483:B2 *3687:B1 6.62031e-05
5 *3483:B2 *3703:A0 2.75229e-05
6 *3483:B2 *562:14 2.50267e-05
7 *3483:B1 *3483:B2 7.44453e-05
8 *3689:B1 *3483:B2 8.52972e-05
9 *3965:D *3483:B2 0.000164496
10 *427:20 *3483:B2 3.00381e-05
*RES
1 *3481:Y *3483:B2 13.41 
*END

*D_NET *447 0.00175096
*CONN
*I *3485:B I *D sky130_fd_sc_hd__or4_2
*I *3482:X O *D sky130_fd_sc_hd__xor2_2
*CAP
1 *3485:B 0.000490192
2 *3482:X 0.000490192
3 *3485:B *3695:A0 4.77719e-05
4 *3485:B *3695:A1 0.000121643
5 *3485:B *3702:B2 6.62684e-05
6 *3485:B *4381:A 8.40213e-05
7 *3485:A *3485:B 0.000145498
8 *4357:A *3485:B 1.55369e-05
9 *427:43 *3485:B 0.000192121
10 *427:55 *3485:B 9.77147e-05
*RES
1 *3482:X *3485:B 16.905 
*END

*D_NET *448 0.00269463
*CONN
*I *3485:C I *D sky130_fd_sc_hd__or4_2
*I *3483:X O *D sky130_fd_sc_hd__a22o_2
*CAP
1 *3485:C 0.000752614
2 *3483:X 0.000752614
3 *3485:C *3481:A 4.77807e-05
4 *3485:C *3632:A0 0.000182349
5 *3485:C *3687:B1 0
6 *3485:C *3703:A1 5.83121e-06
7 *3485:C *562:14 0.000172927
8 *3485:C *845:10 0
9 *3483:B2 *3485:C 4.77769e-05
10 *3485:A *3485:C 2.69153e-05
11 *3689:B1 *3485:C 4.28112e-06
12 *3965:D *3485:C 0.000323397
13 *427:20 *3485:C 0.000352156
14 *427:29 *3485:C 2.59926e-05
*RES
1 *3483:X *3485:C 21.105 
*END

*D_NET *449 0.00501632
*CONN
*I *3485:D I *D sky130_fd_sc_hd__or4_2
*I *3484:X O *D sky130_fd_sc_hd__a221o_2
*CAP
1 *3485:D 0.00161469
2 *3484:X 0.00161469
3 *3485:D *3691:A1 1.2782e-05
4 *3485:D *3702:B2 0.000287533
5 *3485:D *3704:B2 8.34904e-06
6 *3485:D *4170:A 8.49504e-05
7 *3485:D *4400:A 0.000764521
8 *3485:D *908:32 0
9 *3485:D *908:59 7.74045e-05
10 *3485:D *913:27 1.33293e-05
11 o_transmit_data_request *3485:D 0
12 *3484:A2 *3485:D 5.1885e-05
13 *3485:A *3485:D 0.00046855
14 *4356:A *3485:D 1.7635e-05
15 *4367:A *3485:D 0
*RES
1 *3484:X *3485:D 18.3444 
*END

*D_NET *450 0.000688153
*CONN
*I *3487:B1 I *D sky130_fd_sc_hd__a21o_2
*I *3486:X O *D sky130_fd_sc_hd__xor2_2
*CAP
1 *3487:B1 0.000217982
2 *3486:X 0.000217982
3 *3487:B1 *3626:A2 0.000162261
4 *3487:B1 *451:10 7.00889e-06
5 *3487:B1 *656:109 5.05521e-05
6 *3487:B1 *902:50 3.23663e-05
7 *3487:B1 *1069:18 0
*RES
1 *3486:X *3487:B1 12.435 
*END

*D_NET *451 0.00411273
*CONN
*I *3494:A I *D sky130_fd_sc_hd__nor3_2
*I *3530:A1 I *D sky130_fd_sc_hd__o31a_2
*I *3487:X O *D sky130_fd_sc_hd__a21o_2
*CAP
1 *3494:A 0.000161304
2 *3530:A1 0.000349916
3 *3487:X 0.000246495
4 *451:10 0.000757715
5 *3494:A *3488:D_N 9.52434e-05
6 *3530:A1 *3357:A 0
7 *3530:A1 *3490:A 2.42236e-05
8 *3530:A1 *3494:C 0.000492027
9 *3530:A1 *3530:A3 0.000316415
10 *3530:A1 *3810:A2 9.37731e-05
11 *3530:A1 *457:12 7.21296e-06
12 *3530:A1 *897:60 5.23362e-05
13 *3530:A1 *904:44 6.29692e-05
14 *451:10 *3490:C 1.32017e-05
15 *451:10 *3494:B 1.34361e-05
16 *451:10 *3494:C 9.50342e-06
17 *451:10 *3534:A3 4.66108e-05
18 *451:10 *483:27 3.86529e-05
19 *451:10 *656:109 0.000113882
20 *451:10 *897:60 0.000316213
21 *451:10 *902:50 0.000495112
22 *451:10 *904:25 2.8185e-05
23 *451:10 *1079:12 0.000124302
24 *451:10 *1079:16 4.90031e-05
25 *3487:B1 *451:10 7.00889e-06
26 *3564:A *3530:A1 0.000124895
27 *389:21 *3530:A1 7.3093e-05
*RES
1 *3487:X *451:10 12.12 
2 *451:10 *3530:A1 13.485 
3 *451:10 *3494:A 6.615 
*END

*D_NET *452 0.000972259
*CONN
*I *3490:B I *D sky130_fd_sc_hd__or4b_2
*I *3488:X O *D sky130_fd_sc_hd__or4b_2
*CAP
1 *3490:B 0.000340714
2 *3488:X 0.000340714
3 *3490:B *3494:B 4.11678e-06
4 *3490:B *3548:B1 0.00010131
5 *3490:B *3626:A2 0.000185405
*RES
1 *3488:X *3490:B 12.21 
*END

*D_NET *453 0.00134267
*CONN
*I *3490:C I *D sky130_fd_sc_hd__or4b_2
*I *3489:X O *D sky130_fd_sc_hd__and2b_2
*CAP
1 *3490:C 0.000253299
2 *3489:X 0.000253299
3 *3490:C *3488:A 0.00023468
4 *3490:C *3494:B 0.000205428
5 *3490:C *3626:A1 0.000312077
6 *3490:C *483:27 7.06865e-05
7 *451:10 *3490:C 1.32017e-05
*RES
1 *3489:X *3490:C 13.05 
*END

*D_NET *454 0.00193614
*CONN
*I *3494:B I *D sky130_fd_sc_hd__nor3_2
*I *3530:A2 I *D sky130_fd_sc_hd__o31a_2
*I *3490:X O *D sky130_fd_sc_hd__or4b_2
*CAP
1 *3494:B 0.000195852
2 *3530:A2 0.000460805
3 *3490:X 0
4 *454:4 0.000656657
5 *3494:B *3490:A 5.05437e-05
6 *3494:B *3494:C 0.00022921
7 *3494:B *3626:A1 2.50049e-05
8 *3530:A2 *3490:A 7.00889e-06
9 *3530:A2 *3490:D_N 6.54766e-05
10 *3530:A2 *3810:A2 2.26018e-05
11 *3530:A2 *479:10 0
12 *3530:A2 *904:44 0
13 *3530:A2 *904:57 0
14 *3490:B *3494:B 4.11678e-06
15 *3490:C *3494:B 0.000205428
16 *3529:B1 *3530:A2 0
17 *3564:A *3530:A2 0
18 *451:10 *3494:B 1.34361e-05
*RES
1 *3490:X *454:4 1.6 
2 *454:4 *3530:A2 11.795 
3 *454:4 *3494:B 9.995 
*END

*D_NET *455 0.000849254
*CONN
*I *3493:A I *D sky130_fd_sc_hd__or2_2
*I *3491:X O *D sky130_fd_sc_hd__or4_2
*CAP
1 *3493:A 0.000294896
2 *3491:X 0.000294896
3 *3493:A *3491:A 0
4 *3493:A *3491:C 0
5 *3493:A *4084:A 9.37731e-05
6 *3493:A *904:86 0.00016569
*RES
1 *3491:X *3493:A 12.315 
*END

*D_NET *456 0.0021025
*CONN
*I *3493:B I *D sky130_fd_sc_hd__or2_2
*I *3492:X O *D sky130_fd_sc_hd__or4_2
*CAP
1 *3493:B 0.000656899
2 *3492:X 0.000656899
3 *3493:B *3492:C 0.000203178
4 *3493:B *3551:C 8.53113e-06
5 *3493:B *3556:B 0.000162311
6 *3493:B *4007:CLK 5.05437e-05
7 *3493:B *493:10 0.000122729
8 *3493:B *493:12 7.89689e-05
9 *3493:B *497:12 0.000144537
10 *3493:B *498:12 0
11 *3493:B *904:105 8.09021e-06
12 *3493:B *1072:24 9.80943e-06
*RES
1 *3492:X *3493:B 19.455 
*END

*D_NET *457 0.00325907
*CONN
*I *3494:C I *D sky130_fd_sc_hd__nor3_2
*I *3530:A3 I *D sky130_fd_sc_hd__o31a_2
*I *3493:X O *D sky130_fd_sc_hd__or2_2
*CAP
1 *3494:C 0.000142073
2 *3530:A3 0.000129819
3 *3493:X 0.000374044
4 *457:12 0.000645937
5 *3494:C *3626:A1 0.00010133
6 *3530:A3 *904:44 0.00012657
7 *457:12 *3564:C 0
8 *457:12 *3566:D 7.63125e-05
9 *457:12 *3626:A1 0.000200648
10 *457:12 *4084:A 0.000193757
11 *457:12 *881:103 0.000159957
12 *3494:B *3494:C 0.00022921
13 *3530:A1 *3494:C 0.000492027
14 *3530:A1 *3530:A3 0.000316415
15 *3530:A1 *457:12 7.21296e-06
16 *3564:A *457:12 0
17 *4011:D *457:12 5.4256e-05
18 *451:10 *3494:C 9.50342e-06
*RES
1 *3493:X *457:12 14.66 
2 *457:12 *3530:A3 4.81 
3 *457:12 *3494:C 11.315 
*END

*D_NET *458 0.000938138
*CONN
*I *3497:B1 I *D sky130_fd_sc_hd__a211o_2
*I *3495:X O *D sky130_fd_sc_hd__and2b_2
*CAP
1 *3497:B1 0.00019258
2 *3495:X 0.00019258
3 *3497:B1 *3497:A1 5.20897e-05
4 *3497:B1 *3497:C1 0.000292059
5 *3497:B1 *886:16 4.82919e-05
6 *3497:B1 *1109:46 0.000160536
*RES
1 *3495:X *3497:B1 12.225 
*END

*D_NET *459 0.00137082
*CONN
*I *3497:C1 I *D sky130_fd_sc_hd__a211o_2
*I *3496:X O *D sky130_fd_sc_hd__and2b_2
*CAP
1 *3497:C1 0.00023851
2 *3496:X 0.00023851
3 *3497:C1 *3496:B 0.000133938
4 *3497:C1 *610:19 0.000333503
5 *3497:C1 *660:31 0
6 *3497:C1 *1109:46 1.35491e-05
7 *3497:B1 *3497:C1 0.000292059
8 *3854:SET_B *3497:C1 3.89528e-05
9 *4025:RESET_B *3497:C1 8.17928e-05
*RES
1 *3496:X *3497:C1 14.955 
*END

*D_NET *460 0.00365451
*CONN
*I *3504:A I *D sky130_fd_sc_hd__nor3_2
*I *3574:A1 I *D sky130_fd_sc_hd__o31a_2
*I *3497:X O *D sky130_fd_sc_hd__a211o_2
*CAP
1 *3504:A 8.11213e-05
2 *3574:A1 0.000127455
3 *3497:X 0.000954602
4 *460:10 0.00116318
5 *3504:A *901:51 8.7974e-05
6 *3574:A1 *3574:A2 0.000201503
7 *3574:A1 *3574:A3 0.00012657
8 *460:10 *3498:D_N 8.39009e-05
9 *460:10 *4158:A 0.000116636
10 *460:10 *662:33 0.000185405
11 *460:10 *901:51 0.000418044
12 *460:10 *1106:8 5.38986e-05
13 *4024:RESET_B *460:10 5.42217e-05
*RES
1 *3497:X *460:10 22.86 
2 *460:10 *3574:A1 6.465 
3 *460:10 *3504:A 5.49 
*END

*D_NET *461 0.0003414
*CONN
*I *3500:B I *D sky130_fd_sc_hd__or4b_2
*I *3498:X O *D sky130_fd_sc_hd__or4b_2
*CAP
1 *3500:B 0.000137836
2 *3498:X 0.000137836
3 *3500:B *3500:C 6.57272e-05
*RES
1 *3498:X *3500:B 5.5475 
*END

*D_NET *462 0.00170555
*CONN
*I *3500:C I *D sky130_fd_sc_hd__or4b_2
*I *3499:X O *D sky130_fd_sc_hd__and2b_2
*CAP
1 *3500:C 0.000533038
2 *3499:X 0.000533038
3 *3500:C *3498:A 0
4 *3500:C *3498:B 2.66586e-05
5 *3500:C *3498:C 0.000278111
6 *3500:C *3586:C 0.00026898
7 *3500:C *1097:51 0
8 *3500:C *1107:34 0
9 *3500:B *3500:C 6.57272e-05
*RES
1 *3499:X *3500:C 16.77 
*END

*D_NET *463 0.0014783
*CONN
*I *3504:B I *D sky130_fd_sc_hd__nor3_2
*I *3574:A2 I *D sky130_fd_sc_hd__o31a_2
*I *3500:X O *D sky130_fd_sc_hd__or4b_2
*CAP
1 *3504:B 5.71159e-05
2 *3574:A2 0.000104782
3 *3500:X 9.49156e-05
4 *463:8 0.000256814
5 *3504:B *3574:A3 7.89767e-05
6 *3504:B *3578:B1 0
7 *3504:B *901:51 0.000185405
8 *3574:A2 *3574:A3 3.25635e-05
9 *3574:A2 *507:10 2.75145e-05
10 *463:8 *3578:B1 0
11 *463:8 *507:10 9.05299e-05
12 *463:8 *507:16 5.20968e-05
13 *463:8 *901:51 0.000296088
14 *3574:A1 *3574:A2 0.000201503
*RES
1 *3500:X *463:8 7.02 
2 *463:8 *3574:A2 6.135 
3 *463:8 *3504:B 5.745 
*END

*D_NET *464 0.00201541
*CONN
*I *3503:A I *D sky130_fd_sc_hd__or2_2
*I *3501:X O *D sky130_fd_sc_hd__or4_2
*CAP
1 *3503:A 0.000575568
2 *3501:X 0.000575568
3 *3503:A *3605:B1 0
4 *3503:A *3609:B 0.000136877
5 *3503:A *3610:B 0.00023468
6 *3503:A *466:12 0.000146311
7 *3503:A *529:8 7.85634e-05
8 *3503:A *531:14 0.00026784
*RES
1 *3501:X *3503:A 16.335 
*END

*D_NET *465 0.00204305
*CONN
*I *3503:B I *D sky130_fd_sc_hd__or2_2
*I *3502:X O *D sky130_fd_sc_hd__or4_2
*CAP
1 *3503:B 0.000696278
2 *3502:X 0.000696278
3 *3503:B *3601:A 0
4 *3503:B *3601:C 0.000246783
5 *3503:B *3602:C 0.000162311
6 *3503:B *3605:A1 4.58166e-05
7 *3503:B *3605:B1 0.0001249
8 *3503:B *609:95 7.06865e-05
*RES
1 *3502:X *3503:B 17.37 
*END

*D_NET *466 0.00276803
*CONN
*I *3504:C I *D sky130_fd_sc_hd__nor3_2
*I *3574:A3 I *D sky130_fd_sc_hd__o31a_2
*I *3503:X O *D sky130_fd_sc_hd__or2_2
*CAP
1 *3504:C 0
2 *3574:A3 0.000212351
3 *3503:X 0.000914459
4 *466:12 0.00112681
5 *3574:A3 *3578:B1 0
6 *3574:A3 *901:51 8.08153e-06
7 *466:12 *3501:A 0
8 *466:12 *3604:A 0
9 *466:12 *3609:B 3.1009e-05
10 *466:12 *3610:A 9.5799e-06
11 *466:12 *3610:B 0
12 *466:12 *3829:B1 0
13 *466:12 *525:12 5.34608e-05
14 *466:12 *526:27 9.82856e-06
15 *466:12 *901:51 0
16 *466:12 *901:96 0
17 *466:12 *901:107 0
18 *466:12 *1100:34 1.80324e-05
19 *466:12 *1101:10 0
20 *3503:A *466:12 0.000146311
21 *3504:B *3574:A3 7.89767e-05
22 *3574:A1 *3574:A3 0.00012657
23 *3574:A2 *3574:A3 3.25635e-05
24 *4033:RESET_B *466:12 0
*RES
1 *3503:X *466:12 20.645 
2 *466:12 *3574:A3 9.68 
3 *466:12 *3504:C 1.6 
*END

*D_NET *467 0.000668367
*CONN
*I *3509:C1 I *D sky130_fd_sc_hd__o221a_2
*I *3505:Y O *D sky130_fd_sc_hd__xnor2_2
*CAP
1 *3509:C1 0.000190386
2 *3505:Y 0.000190386
3 *3509:C1 *3505:B 8.66107e-06
4 *3509:C1 *3511:B1 4.11112e-05
5 *3509:C1 *3513:B1 5.16348e-05
6 *3509:C1 *3803:B1 0.000177657
7 *3511:B2 *3509:C1 0
8 *3512:A1 *3509:C1 8.53113e-06
*RES
1 *3505:Y *3509:C1 11.58 
*END

*D_NET *468 0.00316935
*CONN
*I *3513:C1 I *D sky130_fd_sc_hd__a221oi_2
*I *3506:X O *D sky130_fd_sc_hd__xor2_2
*CAP
1 *3513:C1 0.000878001
2 *3506:X 0.000878001
3 *3513:C1 *3383:A1 0
4 *3513:C1 *3506:A 0.000230908
5 *3513:C1 *3506:B 2.65337e-05
6 *3513:C1 *3514:A 0.000388413
7 *3513:C1 *3514:B 0.000282607
8 *3513:C1 *3514:C 0.000332795
9 *3513:C1 *1048:35 5.64111e-05
10 *3383:A2 *3513:C1 0
11 *3510:A1 *3513:C1 0
12 *3513:B2 *3513:C1 1.16578e-05
13 *358:8 *3513:C1 8.40213e-05
*RES
1 *3506:X *3513:C1 23.445 
*END

*D_NET *469 0.00164139
*CONN
*I *3510:C1 I *D sky130_fd_sc_hd__a221o_2
*I *3507:X O *D sky130_fd_sc_hd__xor2_2
*CAP
1 *3510:C1 0.000467302
2 *3507:X 0.000467302
3 *3510:C1 *3797:A2 0
4 *3510:C1 *876:26 4.39656e-05
5 *3510:C1 *876:55 0.000282505
6 *3510:C1 *876:70 6.90055e-05
7 *3510:C1 *890:29 0
8 *3510:C1 *890:60 0
9 *3510:C1 *890:79 0
10 *3510:C1 *1056:6 0.000122331
11 *3510:B1 *3510:C1 0.000188982
12 *3988:RESET_B *3510:C1 0
13 *3990:RESET_B *3510:C1 0
*RES
1 *3507:X *3510:C1 17.55 
*END

*D_NET *470 0.000949201
*CONN
*I *3514:A I *D sky130_fd_sc_hd__and3_2
*I *3508:Y O *D sky130_fd_sc_hd__xnor2_2
*CAP
1 *3514:A 0.000272775
2 *3508:Y 0.000272775
3 *3514:A *3508:A 1.22676e-05
4 *3383:A2 *3514:A 0
5 *3510:A1 *3514:A 2.97004e-06
6 *3513:C1 *3514:A 0.000388413
*RES
1 *3508:Y *3514:A 13.17 
*END

*D_NET *471 0.00133175
*CONN
*I *3514:B I *D sky130_fd_sc_hd__and3_2
*I *3509:X O *D sky130_fd_sc_hd__o221a_2
*CAP
1 *3514:B 0.00036039
2 *3509:X 0.00036039
3 *3514:B *3323:A 0
4 *3514:B *3515:A_N 7.36562e-05
5 *3509:A1 *3514:B 2.46007e-05
6 *3510:A1 *3514:B 5.30144e-05
7 *3513:B2 *3514:B 9.30717e-05
8 *3513:C1 *3514:B 0.000282607
9 *355:18 *3514:B 0
10 *357:12 *3514:B 8.40213e-05
*RES
1 *3509:X *3514:B 13.74 
*END

*D_NET *472 0.00055636
*CONN
*I *3515:A_N I *D sky130_fd_sc_hd__and3b_2
*I *3510:X O *D sky130_fd_sc_hd__a221o_2
*CAP
1 *3515:A_N 9.92533e-05
2 *3510:X 9.92533e-05
3 *3515:A_N *4097:A 2.49909e-05
4 *3515:A_N *625:80 0.000120655
5 *3510:A1 *3515:A_N 0.000138551
6 *3514:B *3515:A_N 7.36562e-05
*RES
1 *3510:X *3515:A_N 9.975 
*END

*D_NET *473 0.00184285
*CONN
*I *3512:C1 I *D sky130_fd_sc_hd__o221a_2
*I *3511:X O *D sky130_fd_sc_hd__o2bb2a_2
*CAP
1 *3512:C1 0.000373389
2 *3511:X 0.000373389
3 *3512:C1 *3511:B1 7.57202e-05
4 *3512:C1 *3512:A2 2.75145e-05
5 *3512:C1 *3512:B1 1.12643e-05
6 *3512:C1 *3515:B 4.26546e-05
7 *3512:C1 *1058:6 0.000495107
8 *3509:B1 *3512:C1 7.67474e-05
9 *3511:B2 *3512:C1 9.54469e-05
10 *3512:A1 *3512:C1 0.00019637
11 *355:18 *3512:C1 0
12 *356:8 *3512:C1 2.75229e-05
13 *357:12 *3512:C1 4.77202e-05
*RES
1 *3511:X *3512:C1 16.38 
*END

*D_NET *474 0.00241577
*CONN
*I *3515:B I *D sky130_fd_sc_hd__and3b_2
*I *3512:X O *D sky130_fd_sc_hd__o221a_2
*CAP
1 *3515:B 0.000490439
2 *3512:X 0.000490439
3 *3515:B *3509:A2 0.000383684
4 *3515:B *625:80 0.000188556
5 *3509:A1 *3515:B 0.000171172
6 *3509:B1 *3515:B 0.000209903
7 *3510:A1 *3515:B 0.000208491
8 *3512:C1 *3515:B 4.26546e-05
9 *357:12 *3515:B 0.000230435
*RES
1 *3512:X *3515:B 18.06 
*END

*D_NET *475 0.00109459
*CONN
*I *3514:C I *D sky130_fd_sc_hd__and3_2
*I *3513:Y O *D sky130_fd_sc_hd__a221oi_2
*CAP
1 *3514:C 0.000258316
2 *3513:Y 0.000258316
3 *3514:C *3515:C 8.71001e-05
4 *3513:C1 *3514:C 0.000332795
5 *358:8 *3514:C 0.00015806
*RES
1 *3513:Y *3514:C 12.615 
*END

*D_NET *476 0.00038467
*CONN
*I *3515:C I *D sky130_fd_sc_hd__and3b_2
*I *3514:X O *D sky130_fd_sc_hd__and3_2
*CAP
1 *3515:C 9.45308e-05
2 *3514:X 9.45308e-05
3 *3515:C *4097:A 5.20391e-05
4 *3515:C *625:80 2.97758e-05
5 *3514:C *3515:C 8.71001e-05
6 *3997:D *3515:C 2.66935e-05
*RES
1 *3514:X *3515:C 9.57375 
*END

*D_NET *477 0.00159379
*CONN
*I *3525:A0 I *D sky130_fd_sc_hd__mux2_1
*I *3524:X O *D sky130_fd_sc_hd__a31o_2
*CAP
1 *3525:A0 0.000458798
2 *3524:X 0.000458798
3 *3525:A0 *3462:B2 0
4 *3525:A0 *3679:A1 0
5 *3525:A0 *3679:B1 3.32709e-05
6 *3525:A0 *936:41 0.00011215
7 *3525:A0 *948:10 0
8 *3525:A0 *948:12 0
9 *3458:B *3525:A0 7.75359e-05
10 *3462:A2 *3525:A0 0
11 *113:8 *3525:A0 0.000234685
12 *364:12 *3525:A0 0.000218555
*RES
1 *3524:X *3525:A0 16.62 
*END

*D_NET *478 0.00178488
*CONN
*I *3528:B1 I *D sky130_fd_sc_hd__a21o_2
*I *3527:X O *D sky130_fd_sc_hd__o211a_2
*CAP
1 *3528:B1 0.000642892
2 *3527:X 0.000642892
3 *3528:B1 *3363:B1 0
4 *3528:B1 *3434:A 1.34503e-05
5 *3528:B1 *3434:B 2.75145e-05
6 *3528:B1 *3527:A1 2.99016e-05
7 *3528:B1 *3527:A2 2.67184e-05
8 *3528:B1 *3786:A1 4.75576e-05
9 *3528:B1 *3786:A2 0.000137571
10 *3528:B1 *3938:CLK 3.08892e-05
11 *3528:B1 *645:114 8.44437e-05
12 *3528:B1 *993:58 0
13 *3527:C1 *3528:B1 4.82919e-05
14 *3938:D *3528:B1 4.92935e-05
15 *424:12 *3528:B1 3.46637e-06
*RES
1 *3527:X *3528:B1 16.515 
*END

*D_NET *479 0.00755737
*CONN
*I *3541:A I *D sky130_fd_sc_hd__and3_2
*I *3546:A I *D sky130_fd_sc_hd__and3_2
*I *3533:A I *D sky130_fd_sc_hd__and3_2
*I *3538:C I *D sky130_fd_sc_hd__and3b_2
*I *3530:X O *D sky130_fd_sc_hd__o31a_2
*CAP
1 *3541:A 0.000151541
2 *3546:A 0.000176141
3 *3533:A 0.000303325
4 *3538:C 4.2098e-06
5 *3530:X 0.000348145
6 *479:42 0.00124239
7 *479:21 0.00128453
8 *479:10 0.000418851
9 *3533:A *3532:B 2.86817e-05
10 *3533:A *3533:B 7.23933e-05
11 *3533:A *3533:C 0.000278111
12 *3533:A *3535:A2 0.000160651
13 *3533:A *3535:B1 0.000143266
14 *3533:A *4001:CLK 3.00381e-05
15 *3533:A *1071:38 7.17312e-05
16 *3538:C *3537:A1 1.43717e-05
17 *3538:C *3537:B1 1.43717e-05
18 *3541:A *3346:A 3.23391e-05
19 *3541:A *3539:B 5.16418e-05
20 *3541:A *3540:B 8.34748e-05
21 *3541:A *483:86 0.000103592
22 *3541:A *902:50 7.06865e-05
23 *3546:A *3346:A 5.75242e-06
24 *3546:A *3544:A 2.49909e-05
25 *3546:A *3545:B 4.82863e-05
26 *3546:A *3549:A2 7.4027e-05
27 *3546:A *483:39 0.00025207
28 *3546:A *483:86 0.000201714
29 *3546:A *487:12 6.71226e-05
30 *3546:A *902:50 8.53113e-06
31 *3546:A *1083:36 4.03932e-05
32 *3546:A *1083:38 7.45509e-05
33 *479:10 *3810:A1 0
34 *479:10 *3810:B1 0
35 *479:10 *4289:A 0.000231564
36 *479:10 *904:44 4.99619e-05
37 *479:10 *1071:21 0.000267591
38 *479:21 *3807:A1 0
39 *479:21 *656:109 0
40 *479:21 *1071:21 6.05081e-05
41 *479:21 *1071:38 9.34773e-06
42 *479:42 *3488:A 2.10134e-05
43 *479:42 *3489:B 0.000349587
44 *479:42 *3536:A 0.000158072
45 *479:42 *3537:A3 0.000157877
46 *479:42 *3543:C1 0.000114189
47 *479:42 *1071:38 6.71767e-05
48 *3487:A2 *3541:A 4.82919e-05
49 *3529:B1 *479:10 0
50 *3530:A2 *479:10 0
51 *4001:D *3533:A 5.12942e-05
52 *4002:RESET_B *479:10 8.89751e-05
*RES
1 *3530:X *479:10 11.295 
2 *479:10 *3538:C 3.73875 
3 *479:10 *479:21 1.2525 
4 *479:21 *3533:A 11.9625 
5 *479:21 *479:42 15.8275 
6 *479:42 *3546:A 9.255 
7 *479:42 *3541:A 6.975 
*END

*D_NET *480 0.00102906
*CONN
*I *3533:B I *D sky130_fd_sc_hd__and3_2
*I *3531:X O *D sky130_fd_sc_hd__or2_2
*CAP
1 *3533:B 0.000383204
2 *3531:X 0.000383204
3 *3533:B *3532:B 7.23533e-05
4 *3533:B *3533:C 3.1562e-06
5 *3533:B *4001:CLK 7.60965e-05
6 *3533:B *1078:10 3.86529e-05
7 *3533:A *3533:B 7.23933e-05
*RES
1 *3531:X *3533:B 12.315 
*END

*D_NET *481 0.00234817
*CONN
*I *3533:C I *D sky130_fd_sc_hd__and3_2
*I *3535:A2 I *D sky130_fd_sc_hd__a21oi_2
*I *3532:Y O *D sky130_fd_sc_hd__nand2_2
*CAP
1 *3533:C 0.000263716
2 *3535:A2 0.000256381
3 *3532:Y 0.000122974
4 *481:8 0.000643072
5 *3533:C *4001:CLK 2.96426e-05
6 *3535:A2 *3532:B 0.000183731
7 *3535:A2 *4001:CLK 0
8 *481:8 *3532:B 0.000252282
9 *481:8 *4001:CLK 0
10 *481:8 *610:25 0
11 *3533:A *3533:C 0.000278111
12 *3533:A *3535:A2 0.000160651
13 *3533:B *3533:C 3.1562e-06
14 *3535:A1 *3535:A2 3.1226e-05
15 *4001:D *3535:A2 0.000123225
*RES
1 *3532:Y *481:8 6.51 
2 *481:8 *3535:A2 8.64 
3 *481:8 *3533:C 7.155 
*END

*D_NET *482 0.000347783
*CONN
*I *3535:B1 I *D sky130_fd_sc_hd__a21oi_2
*I *3534:X O *D sky130_fd_sc_hd__a31o_2
*CAP
1 *3535:B1 3.06251e-05
2 *3534:X 3.06251e-05
3 *3535:B1 *3532:B 2.30797e-05
4 *3535:B1 *1071:38 3.25831e-05
5 *3535:B1 *1071:49 8.76033e-05
6 *3533:A *3535:B1 0.000143266
*RES
1 *3534:X *3535:B1 8.835 
*END

*D_NET *483 0.00970118
*CONN
*I *3542:C I *D sky130_fd_sc_hd__and3_2
*I *3539:B I *D sky130_fd_sc_hd__nand2_2
*I *3540:B I *D sky130_fd_sc_hd__or2_2
*I *3548:A1 I *D sky130_fd_sc_hd__a21o_2
*I *3550:A1 I *D sky130_fd_sc_hd__a21oi_2
*I *3559:A I *D sky130_fd_sc_hd__and3_2
*I *3566:A I *D sky130_fd_sc_hd__and4_2
*I *3551:B I *D sky130_fd_sc_hd__and3_2
*I *3538:A_N I *D sky130_fd_sc_hd__and3b_2
*I *3536:X O *D sky130_fd_sc_hd__and4_2
*CAP
1 *3542:C 2.74059e-05
2 *3539:B 0.00031736
3 *3540:B 0.000128085
4 *3548:A1 0
5 *3550:A1 0.000100235
6 *3559:A 0
7 *3566:A 4.19854e-05
8 *3551:B 0.000132216
9 *3538:A_N 0.000278997
10 *3536:X 0
11 *483:86 0.000583826
12 *483:56 8.71114e-05
13 *483:54 0.000145361
14 *483:41 0.000198726
15 *483:39 0.000520574
16 *483:29 0.000592444
17 *483:27 0.000490232
18 *483:4 0.000741823
19 *3538:A_N *3488:A 3.66286e-05
20 *3538:A_N *3536:C 8.40269e-05
21 *3538:A_N *3536:D 3.24882e-05
22 *3538:A_N *3537:A1 4.66108e-05
23 *3538:A_N *3537:B1 0.000230435
24 *3539:B *3486:A 0.000100536
25 *3539:B *3489:A_N 1.34361e-05
26 *3539:B *4003:CLK 0
27 *3539:B *897:54 6.97202e-05
28 *3539:B *1069:18 0.000306778
29 *3539:B *1081:53 0
30 *3540:B *3540:A 0.000198939
31 *3540:B *3541:C 0.000163204
32 *3540:B *656:109 0.000191906
33 *3542:C *3488:C 3.57349e-05
34 *3550:A1 *490:14 4.66108e-05
35 *3550:A1 *490:20 4.66108e-05
36 *3550:A1 *490:33 2.8185e-05
37 *3550:A1 *497:12 6.52265e-05
38 *3551:B *3551:C 3.67779e-05
39 *3551:B *4007:CLK 0.000212862
40 *3551:B *490:20 2.60986e-05
41 *3551:B *497:12 1.52945e-05
42 *3566:A *3566:B 5.92345e-05
43 *3566:A *3566:C 0.000164874
44 *3566:A *490:33 1.17409e-05
45 *3566:A *497:12 7.66083e-05
46 *3566:A *498:12 5.07419e-05
47 *483:27 *3488:B 2.66586e-05
48 *483:27 *3488:C 0.000198934
49 *483:27 *3488:D_N 0.000205904
50 *483:39 *3488:B 2.75145e-05
51 *483:39 *3488:C 8.23457e-05
52 *483:39 *3549:A2 7.97852e-05
53 *483:39 *4007:CLK 0.00035042
54 *483:39 *487:12 5.16348e-05
55 *483:39 *490:8 0
56 *483:39 *490:14 0
57 *483:39 *612:72 0.000185398
58 *483:39 *612:98 6.86563e-05
59 *483:39 *1082:31 2.49909e-05
60 *483:39 *1083:36 0.000158297
61 *483:41 *4007:CLK 0.000130707
62 *483:41 *490:14 0
63 *483:41 *497:12 1.0183e-05
64 *483:56 *490:33 5.63959e-05
65 *483:56 *497:12 0.000198934
66 *483:86 *3489:A_N 7.82993e-05
67 *483:86 *3543:B1 0.000120186
68 *483:86 *3626:A2 0
69 *483:86 *487:12 2.23922e-05
70 *3487:A2 *3540:B 8.40269e-05
71 *3490:C *483:27 7.06865e-05
72 *3541:A *3539:B 5.16418e-05
73 *3541:A *3540:B 8.34748e-05
74 *3541:A *483:86 0.000103592
75 *3546:A *483:39 0.00025207
76 *3546:A *483:86 0.000201714
77 *451:10 *483:27 3.86529e-05
*RES
1 *3536:X *483:4 1.6 
2 *483:4 *3538:A_N 5.965 
3 *483:4 *483:27 11.305 
4 *483:27 *483:29 2 
5 *483:29 *483:39 15.715 
6 *483:39 *483:41 1.635 
7 *483:41 *3551:B 6.285 
8 *483:41 *483:54 2 
9 *483:54 *483:56 1.83 
10 *483:56 *3566:A 3.775 
11 *483:56 *3559:A 1.6 
12 *483:54 *3550:A1 3.79 
13 *483:39 *3548:A1 3.6 
14 *483:29 *483:86 3.675 
15 *483:86 *3540:B 7.965 
16 *483:86 *3539:B 11.58 
17 *483:27 *3542:C 2.05 
*END

*D_NET *484 0.000941166
*CONN
*I *3538:B I *D sky130_fd_sc_hd__and3b_2
*I *3537:X O *D sky130_fd_sc_hd__a31o_2
*CAP
1 *3538:B 0.000284058
2 *3537:X 0.000284058
3 *3538:B *3537:A2 0.00032378
4 *3538:B *1071:38 4.66108e-05
5 *4015:D *3538:B 2.65814e-06
*RES
1 *3537:X *3538:B 7.115 
*END

*D_NET *485 0.00187562
*CONN
*I *3541:B I *D sky130_fd_sc_hd__and3_2
*I *3543:A2 I *D sky130_fd_sc_hd__a211oi_2
*I *3539:Y O *D sky130_fd_sc_hd__nand2_2
*CAP
1 *3541:B 0
2 *3543:A2 0.000142066
3 *3539:Y 0.000322499
4 *485:10 0.000464565
5 *3543:A2 *3346:A 9.21178e-05
6 *3543:A2 *4003:CLK 8.30109e-05
7 *3543:A2 *612:98 5.23974e-05
8 *3543:A2 *656:109 0.000118081
9 *3543:A2 *1083:38 4.92861e-05
10 *485:10 *3486:A 0
11 *485:10 *3539:A 7.3664e-05
12 *485:10 *3762:B1 0
13 *485:10 *897:54 0
14 *485:10 *1081:10 0.000137571
15 *485:10 *1081:12 4.9968e-05
16 *485:10 *1081:53 0.000195649
17 *3855:SET_B *485:10 0
18 *4003:D *485:10 9.47454e-05
*RES
1 *3539:Y *485:10 12.59 
2 *485:10 *3543:A2 8.375 
3 *485:10 *3541:B 1.6 
*END

*D_NET *486 0.00055654
*CONN
*I *3541:C I *D sky130_fd_sc_hd__and3_2
*I *3540:X O *D sky130_fd_sc_hd__or2_2
*CAP
1 *3541:C 0.000132475
2 *3540:X 0.000132475
3 *3541:C *3540:A 4.60584e-05
4 *3541:C *656:109 3.23663e-05
5 *3540:B *3541:C 0.000163204
6 *4003:D *3541:C 4.99619e-05
*RES
1 *3540:X *3541:C 6.065 
*END

*D_NET *487 0.00155135
*CONN
*I *3543:B1 I *D sky130_fd_sc_hd__a211oi_2
*I *3544:B I *D sky130_fd_sc_hd__nand2_2
*I *3545:B I *D sky130_fd_sc_hd__or2_2
*I *3542:X O *D sky130_fd_sc_hd__and3_2
*CAP
1 *3543:B1 5.71991e-05
2 *3544:B 0
3 *3545:B 0.000233405
4 *3542:X 0
5 *487:12 0.00039385
6 *487:6 0.000217644
7 *3543:B1 *3488:A 0
8 *3545:B *3544:A 2.99597e-05
9 *3545:B *3546:C 0.000153549
10 *3545:B *1083:23 1.12578e-05
11 *487:12 *3488:A 0
12 *487:12 *3544:A 4.66108e-05
13 *487:12 *3549:A2 5.16418e-05
14 *487:12 *3626:A2 0
15 *3546:A *3545:B 4.82863e-05
16 *3546:A *487:12 6.71226e-05
17 *4005:D *3545:B 4.66108e-05
18 *483:39 *487:12 5.16348e-05
19 *483:86 *3543:B1 0.000120186
20 *483:86 *487:12 2.23922e-05
*RES
1 *3542:X *487:6 3.6 
2 *487:6 *487:12 5.36 
3 *487:12 *3545:B 5.545 
4 *487:12 *3544:B 1.6 
5 *487:6 *3543:B1 4.98 
*END

*D_NET *488 0.00156482
*CONN
*I *3546:B I *D sky130_fd_sc_hd__and3_2
*I *3549:A2 I *D sky130_fd_sc_hd__a21oi_2
*I *3544:Y O *D sky130_fd_sc_hd__nand2_2
*CAP
1 *3546:B 0.000149389
2 *3549:A2 0.000231081
3 *3544:Y 0
4 *488:4 0.00038047
5 *3546:B *3544:A 6.33103e-05
6 *3546:B *1083:23 2.75229e-05
7 *3549:A2 *3626:A2 0
8 *3549:A2 *4007:CLK 0.000163992
9 *3549:A2 *612:72 0.000175894
10 *3546:A *3549:A2 7.4027e-05
11 *3549:A1 *3549:A2 0.000167709
12 *483:39 *3549:A2 7.97852e-05
13 *487:12 *3549:A2 5.16418e-05
*RES
1 *3544:Y *488:4 1.6 
2 *488:4 *3549:A2 12.08 
3 *488:4 *3546:B 3.445 
*END

*D_NET *489 0.000658169
*CONN
*I *3546:C I *D sky130_fd_sc_hd__and3_2
*I *3545:X O *D sky130_fd_sc_hd__or2_2
*CAP
1 *3546:C 0.000134973
2 *3545:X 0.000134973
3 *3546:C *1083:23 0.000234674
4 *3545:B *3546:C 0.000153549
*RES
1 *3545:X *3546:C 6.425 
*END

*D_NET *490 0.00391146
*CONN
*I *3548:A2 I *D sky130_fd_sc_hd__a21o_2
*I *3550:A2 I *D sky130_fd_sc_hd__a21oi_2
*I *3559:B I *D sky130_fd_sc_hd__and3_2
*I *3566:B I *D sky130_fd_sc_hd__and4_2
*I *3551:C I *D sky130_fd_sc_hd__and3_2
*I *3547:X O *D sky130_fd_sc_hd__and4_2
*CAP
1 *3548:A2 5.05434e-05
2 *3550:A2 0
3 *3559:B 0
4 *3566:B 0.000172369
5 *3551:C 6.23642e-05
6 *3547:X 0.000562507
7 *490:33 0.000423391
8 *490:20 0.000348808
9 *490:14 0.000178691
10 *490:8 0.00075632
11 *3548:A2 *896:133 0.000124895
12 *3551:C *4007:CLK 1.82563e-05
13 *3551:C *497:12 0.000159957
14 *3551:C *498:12 0
15 *3566:B *3566:C 4.60584e-05
16 *3566:B *498:12 8.8266e-05
17 *490:8 *3547:A 0
18 *490:8 *612:98 0.0003321
19 *490:8 *1083:10 0
20 *490:8 *1084:10 0
21 *490:8 *1084:27 0
22 *490:14 *497:12 7.30547e-05
23 *490:20 *497:12 5.23362e-05
24 *490:33 *498:12 4.82863e-05
25 *3493:B *3551:C 8.53113e-06
26 *3550:A1 *490:14 4.66108e-05
27 *3550:A1 *490:20 4.66108e-05
28 *3550:A1 *490:33 2.8185e-05
29 *3551:B *3551:C 3.67779e-05
30 *3551:B *490:20 2.60986e-05
31 *3566:A *3566:B 5.92345e-05
32 *3566:A *490:33 1.17409e-05
33 *4005:D *490:8 9.30717e-05
34 *4006:RESET_B *490:8 0
35 *483:39 *490:8 0
36 *483:39 *490:14 0
37 *483:41 *490:14 0
38 *483:56 *490:33 5.63959e-05
*RES
1 *3547:X *490:8 13.905 
2 *490:8 *490:14 4.595 
3 *490:14 *490:20 3.065 
4 *490:20 *3551:C 5.49 
5 *490:20 *490:33 5.21 
6 *490:33 *3566:B 4.75 
7 *490:33 *3559:B 1.6 
8 *490:14 *3550:A2 1.6 
9 *490:8 *3548:A2 4.74 
*END

*D_NET *491 0.000530726
*CONN
*I *3549:B1 I *D sky130_fd_sc_hd__a21oi_2
*I *3548:X O *D sky130_fd_sc_hd__a21o_2
*CAP
1 *3549:B1 0.000177935
2 *3548:X 0.000177935
3 *3549:B1 *4007:CLK 0
4 *3549:B1 *657:53 0.000124895
5 *3549:B1 *881:103 4.99619e-05
6 *3549:B1 *896:133 0
*RES
1 *3548:X *3549:B1 10.17 
*END

*D_NET *492 0.000577052
*CONN
*I *3552:B I *D sky130_fd_sc_hd__nor3_2
*I *3550:Y O *D sky130_fd_sc_hd__a21oi_2
*CAP
1 *3552:B 0.000239669
2 *3550:Y 0.000239669
3 *3552:B *3550:B1 0
4 *3552:B *497:12 0
5 *3552:B *657:23 0
6 *3552:B *904:105 2.97004e-06
7 *3552:B *1085:19 0
8 *4007:D *3552:B 9.47454e-05
*RES
1 *3550:Y *3552:B 11.325 
*END

*D_NET *493 0.00524568
*CONN
*I *3555:A2 I *D sky130_fd_sc_hd__a21oi_2
*I *3552:C I *D sky130_fd_sc_hd__nor3_2
*I *3556:C I *D sky130_fd_sc_hd__and3_2
*I *3553:A2 I *D sky130_fd_sc_hd__a21oi_2
*I *3554:A2 I *D sky130_fd_sc_hd__o21a_2
*I *3551:X O *D sky130_fd_sc_hd__and3_2
*CAP
1 *3555:A2 0.000234489
2 *3552:C 0
3 *3556:C 3.69588e-05
4 *3553:A2 5.23724e-05
5 *3554:A2 0.000267459
6 *3551:X 0.000115981
7 *493:55 0.000420347
8 *493:18 0.000582784
9 *493:12 0.000389765
10 *493:10 0.000391692
11 *3553:A2 *3553:A1 4.82863e-05
12 *3553:A2 *613:103 4.60584e-05
13 *3554:A2 *3554:B1 0.000266184
14 *3554:A2 *3816:B1 6.2084e-05
15 *3554:A2 *3822:A1 0
16 *3554:A2 *613:82 1.64132e-05
17 *3554:A2 *881:23 2.27628e-05
18 *3554:A2 *896:31 0.000345546
19 *3554:A2 *1118:14 4.77807e-05
20 *3555:A2 *3558:B 7.47215e-05
21 *3555:A2 *3815:A1 1.91597e-05
22 *3555:A2 *3815:A2 4.66108e-05
23 *3555:A2 *3815:B1 1.08758e-05
24 *3555:A2 *656:69 0.000180675
25 *3555:A2 *657:23 5.74791e-05
26 *3555:A2 *1085:19 0.00011379
27 *3556:C *3556:A 4.66108e-05
28 *493:10 *498:12 0
29 *493:12 *3561:B1 0.000195932
30 *493:12 *496:10 8.53113e-06
31 *493:12 *904:105 0
32 *493:18 *3561:B1 0.000118513
33 *493:18 *3822:A1 0
34 *493:18 *4014:CLK 0
35 *493:18 *496:10 0.000118513
36 *493:18 *613:103 0
37 *493:18 *904:111 0
38 *493:55 *904:94 0.000158965
39 *493:55 *904:105 3.57349e-05
40 *3493:B *493:10 0.000122729
41 *3493:B *493:12 7.89689e-05
42 *4007:D *3555:A2 2.11084e-05
43 *4007:D *493:55 4.9253e-06
44 *4010:D *493:18 9.24127e-05
45 *4010:RESET_B *3554:A2 0.000184758
46 *4010:RESET_B *493:18 0.000157602
47 *4246:A *3554:A2 5.01003e-05
*RES
1 *3551:X *493:10 5.685 
2 *493:10 *493:12 2.655 
3 *493:12 *493:18 6.27 
4 *493:18 *3554:A2 11.805 
5 *493:18 *3553:A2 4.74 
6 *493:12 *3556:C 4.05 
7 *493:10 *493:55 5.21 
8 *493:55 *3552:C 1.6 
9 *493:55 *3555:A2 10.955 
*END

*D_NET *494 0.00114986
*CONN
*I *3554:B1 I *D sky130_fd_sc_hd__o21a_2
*I *3553:Y O *D sky130_fd_sc_hd__a21oi_2
*CAP
1 *3554:B1 0.000137507
2 *3553:Y 0.000137507
3 *3554:B1 *4008:CLK 2.05571e-05
4 *3554:B1 *613:82 5.43405e-05
5 *3554:B1 *613:97 6.64918e-05
6 *3554:B1 *881:23 0.000233604
7 *3554:A2 *3554:B1 0.000266184
8 *4008:RESET_B *3554:B1 7.03276e-05
9 *4010:RESET_B *3554:B1 0.000163345
*RES
1 *3553:Y *3554:B1 13.05 
*END

*D_NET *495 0.00117653
*CONN
*I *3557:B I *D sky130_fd_sc_hd__nor3_2
*I *3555:Y O *D sky130_fd_sc_hd__a21oi_2
*CAP
1 *3557:B 0.000196664
2 *3555:Y 0.000196664
3 *3557:B *3557:C 4.82863e-05
4 *3557:B *3561:A1 0.000162311
5 *3557:B *4239:A 0.000267187
6 *3557:B *656:69 0.000118527
7 *3557:B *881:65 0.000118527
8 *3557:B *896:10 4.21973e-05
9 *3557:B *896:110 7.00889e-06
10 *3557:B *1073:22 1.91597e-05
*RES
1 *3555:Y *3557:B 12.825 
*END

*D_NET *496 0.000866863
*CONN
*I *3561:A2 I *D sky130_fd_sc_hd__o21a_2
*I *3557:C I *D sky130_fd_sc_hd__nor3_2
*I *3556:X O *D sky130_fd_sc_hd__and3_2
*CAP
1 *3561:A2 0
2 *3557:C 0.00014278
3 *3556:X 7.4604e-05
4 *496:10 0.000217384
5 *3557:C *3561:A1 0.000136109
6 *3557:C *1073:22 0.000120655
7 *496:10 *904:105 0
8 *496:10 *904:111 0
9 *3557:B *3557:C 4.82863e-05
10 *493:12 *496:10 8.53113e-06
11 *493:18 *496:10 0.000118513
*RES
1 *3556:X *496:10 6.98 
2 *496:10 *3557:C 4.825 
3 *496:10 *3561:A2 1.6 
*END

*D_NET *497 0.00253927
*CONN
*I *3559:C I *D sky130_fd_sc_hd__and3_2
*I *3566:C I *D sky130_fd_sc_hd__and4_2
*I *3558:X O *D sky130_fd_sc_hd__and4_2
*CAP
1 *3559:C 0
2 *3566:C 0.000182005
3 *3558:X 0.00051448
4 *497:12 0.000696485
5 *497:12 *904:105 0.000139238
6 *3493:B *497:12 0.000144537
7 *3550:A1 *497:12 6.52265e-05
8 *3551:B *497:12 1.52945e-05
9 *3551:C *497:12 0.000159957
10 *3552:B *497:12 0
11 *3566:A *3566:C 0.000164874
12 *3566:A *497:12 7.66083e-05
13 *3566:B *3566:C 4.60584e-05
14 *483:41 *497:12 1.0183e-05
15 *483:56 *497:12 0.000198934
16 *490:14 *497:12 7.30547e-05
17 *490:20 *497:12 5.23362e-05
*RES
1 *3558:X *497:12 15.38 
2 *497:12 *3566:C 4.12 
3 *497:12 *3559:C 1.6 
*END

*D_NET *498 0.00304635
*CONN
*I *3563:B I *D sky130_fd_sc_hd__nand2_2
*I *3562:B I *D sky130_fd_sc_hd__or2_2
*I *3560:B I *D sky130_fd_sc_hd__nor2_2
*I *3559:X O *D sky130_fd_sc_hd__and3_2
*CAP
1 *3563:B 1.88809e-05
2 *3562:B 5.58148e-05
3 *3560:B 0
4 *3559:X 0.000278675
5 *498:21 0.000358452
6 *498:12 0.000562431
7 *3562:B *3563:A 3.00381e-05
8 *3562:B *4084:A 4.82919e-05
9 *3562:B *501:12 0.000117825
10 *3562:B *1074:16 4.40812e-05
11 *3563:B *3563:A 5.4155e-06
12 *3563:B *904:86 0
13 *498:12 *4007:CLK 0
14 *498:12 *4084:A 0
15 *498:21 *3563:A 3.96653e-05
16 *498:21 *4084:A 0.000540225
17 *498:21 *904:86 0.00069825
18 *498:21 *904:94 6.10082e-05
19 *3493:B *498:12 0
20 *3551:C *498:12 0
21 *3566:A *498:12 5.07419e-05
22 *3566:B *498:12 8.8266e-05
23 *490:33 *498:12 4.82863e-05
24 *493:10 *498:12 0
*RES
1 *3559:X *498:12 10.415 
2 *498:12 *3560:B 1.6 
3 *498:12 *498:21 8.745 
4 *498:21 *3562:B 7.43 
5 *498:21 *3563:B 1.96 
*END

*D_NET *499 0.000893856
*CONN
*I *3561:B1 I *D sky130_fd_sc_hd__o21a_2
*I *3560:Y O *D sky130_fd_sc_hd__nor2_2
*CAP
1 *3561:B1 0.000250595
2 *3560:Y 0.000250595
3 *3561:B1 *4014:CLK 0
4 *3561:B1 *904:94 7.82218e-05
5 *493:12 *3561:B1 0.000195932
6 *493:18 *3561:B1 0.000118513
*RES
1 *3560:Y *3561:B1 12.015 
*END

*D_NET *500 0.000591458
*CONN
*I *3564:B I *D sky130_fd_sc_hd__and3_2
*I *3562:X O *D sky130_fd_sc_hd__or2_2
*CAP
1 *3564:B 0.000165915
2 *3562:X 0.000165915
3 *3564:B *503:10 0.000113247
4 *3564:B *1074:14 7.23533e-05
5 *3564:B *1075:12 7.4027e-05
*RES
1 *3562:X *3564:B 9.9 
*END

*D_NET *501 0.00170452
*CONN
*I *3564:C I *D sky130_fd_sc_hd__and3_2
*I *3567:A2 I *D sky130_fd_sc_hd__a211oi_2
*I *3563:Y O *D sky130_fd_sc_hd__nand2_2
*CAP
1 *3564:C 0.000254794
2 *3567:A2 0
3 *3563:Y 0.000107945
4 *501:12 0.000362739
5 *3564:C *3491:A 1.0183e-05
6 *3564:C *3562:A 4.82863e-05
7 *3564:C *3565:A 7.57202e-05
8 *3564:C *3565:B 0.000198945
9 *3564:C *3566:D 5.33874e-05
10 *3564:C *4084:A 0
11 *3564:C *1074:14 0
12 *3564:C *1075:12 0.000119756
13 *501:12 *3491:D 1.65192e-05
14 *501:12 *3563:A 4.82919e-05
15 *501:12 *3820:A1 0.000162325
16 *501:12 *904:63 3.12378e-05
17 *501:12 *904:86 4.43871e-06
18 *501:12 *1074:14 0
19 *501:12 *1074:16 0
20 *3562:B *501:12 0.000117825
21 *3564:A *3564:C 5.53249e-06
22 *3567:A1 *3564:C 8.65961e-05
23 *457:12 *3564:C 0
*RES
1 *3563:Y *501:12 8.45 
2 *501:12 *3567:A2 1.6 
3 *501:12 *3564:C 11.465 
*END

*D_NET *502 0.000582034
*CONN
*I *3566:D I *D sky130_fd_sc_hd__and4_2
*I *3565:X O *D sky130_fd_sc_hd__and2_2
*CAP
1 *3566:D 0.000164999
2 *3565:X 0.000164999
3 *3566:D *503:10 0.000122337
4 *3564:C *3566:D 5.33874e-05
5 *457:12 *3566:D 7.63125e-05
*RES
1 *3565:X *3566:D 10.665 
*END

*D_NET *503 0.00451847
*CONN
*I *3567:B1 I *D sky130_fd_sc_hd__a211oi_2
*I *3568:A2 I *D sky130_fd_sc_hd__a21oi_2
*I *3570:A2 I *D sky130_fd_sc_hd__a21oi_2
*I *3569:A2 I *D sky130_fd_sc_hd__o21a_2
*I *3571:A3 I *D sky130_fd_sc_hd__a31o_2
*I *3566:X O *D sky130_fd_sc_hd__and4_2
*CAP
1 *3567:B1 0
2 *3568:A2 9.73191e-06
3 *3570:A2 0.000170291
4 *3569:A2 0
5 *3571:A3 0.000196923
6 *3566:X 0.00057972
7 *503:24 0.000437849
8 *503:18 0.000562293
9 *503:16 0.000422542
10 *503:10 0.000841454
11 *3568:A2 *3570:B1 4.82863e-05
12 *3568:A2 *3572:B 4.82863e-05
13 *3570:A2 *3570:A1 3.00381e-05
14 *3571:A3 *3571:A1 5.4155e-06
15 *3571:A3 *1076:23 0.000205925
16 *3571:A3 *1076:31 4.82863e-05
17 *503:10 *657:59 0.000103192
18 *503:16 *3568:A1 1.74043e-05
19 *503:16 *3570:A1 0
20 *503:16 *3820:A2 8.13313e-06
21 *503:16 *4128:A 7.89689e-05
22 *503:16 *657:59 8.26536e-05
23 *503:18 *3568:A1 2.97004e-06
24 *503:18 *3569:B1 0
25 *503:18 *3570:A1 0
26 *503:18 *3570:B1 0.000120186
27 *503:18 *654:72 0
28 *503:18 *1076:31 0
29 *503:24 *3569:B1 0
30 *503:24 *3973:RESET_B 6.05513e-05
31 *503:24 *654:72 0
32 *503:24 *919:10 4.82863e-05
33 *503:24 *1076:31 2.0514e-05
34 *3564:B *503:10 0.000113247
35 *3566:D *503:10 0.000122337
36 *4012:D *503:10 0
37 *4014:D *3570:A2 0.000124895
38 *4014:D *503:18 8.09021e-06
*RES
1 *3566:X *503:10 13.095 
2 *503:10 *503:16 5.085 
3 *503:16 *503:18 2.4 
4 *503:18 *503:24 5.9 
5 *503:24 *3571:A3 5.875 
6 *503:24 *3569:A2 1.6 
7 *503:18 *3570:A2 6.48 
8 *503:16 *3568:A2 4.05 
9 *503:10 *3567:B1 3.6 
*END

*D_NET *504 0.000719509
*CONN
*I *3569:B1 I *D sky130_fd_sc_hd__o21a_2
*I *3568:Y O *D sky130_fd_sc_hd__a21oi_2
*CAP
1 *3569:B1 0.000188752
2 *3568:Y 0.000188752
3 *3569:B1 *3570:B1 4.82863e-05
4 *3569:B1 *1076:31 0.000293719
5 *503:18 *3569:B1 0
6 *503:24 *3569:B1 0
*RES
1 *3568:Y *3569:B1 11.07 
*END

*D_NET *505 0.000232567
*CONN
*I *3572:A I *D sky130_fd_sc_hd__nor2_2
*I *3570:Y O *D sky130_fd_sc_hd__a21oi_2
*CAP
1 *3572:A 5.61903e-05
2 *3570:Y 5.61903e-05
3 *3572:A *3570:A1 0.000120186
4 *3572:A *654:72 0
*RES
1 *3570:Y *3572:A 8.58 
*END

*D_NET *506 0.001841
*CONN
*I *3572:B I *D sky130_fd_sc_hd__nor2_2
*I *3571:X O *D sky130_fd_sc_hd__a31o_2
*CAP
1 *3572:B 0.000466381
2 *3571:X 0.000466381
3 *3572:B *3491:C 1.52184e-05
4 *3572:B *3568:A1 8.65905e-05
5 *3572:B *3568:B1 8.40213e-05
6 *3572:B *3570:B1 5.37324e-05
7 *3572:B *3571:A1 3.89528e-05
8 *3572:B *3820:A2 0.000382758
9 *3572:B *4128:A 2.30292e-05
10 *3572:B *1077:27 0.000175646
11 *3568:A2 *3572:B 4.82863e-05
*RES
1 *3571:X *3572:B 17.805 
*END

*D_NET *507 0.00508992
*CONN
*I *3585:A I *D sky130_fd_sc_hd__and3_2
*I *3590:A I *D sky130_fd_sc_hd__and3_2
*I *3582:C I *D sky130_fd_sc_hd__and3b_2
*I *3577:A I *D sky130_fd_sc_hd__and3_2
*I *3574:X O *D sky130_fd_sc_hd__o31a_2
*CAP
1 *3585:A 0.000198219
2 *3590:A 0
3 *3582:C 8.43174e-05
4 *3577:A 0.000364511
5 *3574:X 0.000116842
6 *507:56 0.000781797
7 *507:16 0.00070412
8 *507:10 0.000955712
9 *3577:A *3579:B1 9.82856e-06
10 *3577:A *3581:A3 0
11 *3577:A *3581:B1 0.000374983
12 *3577:A *3582:B 0.0001249
13 *3582:C *3579:B1 0
14 *3582:C *3581:A1 5.20335e-05
15 *3582:C *3581:A3 5.37091e-05
16 *3582:C *3582:A_N 2.46089e-05
17 *3585:A *3586:A 0.000203769
18 *3585:A *3586:C 0.000244412
19 *3585:A *3587:C1 0
20 *3585:A *3588:A 2.75145e-05
21 *3585:A *3588:B 3.68682e-05
22 *3585:A *3590:C 8.53113e-06
23 *3585:A *1107:34 0
24 *507:10 *3578:B1 0
25 *507:16 *3578:B1 0
26 *507:16 *3580:B 0.000137571
27 *507:16 *3581:B1 5.93953e-05
28 *507:16 *3582:A_N 8.40269e-05
29 *507:16 *901:51 1.23331e-05
30 *507:16 *1104:36 0.000137571
31 *507:16 *1104:51 4.9968e-05
32 *507:56 *3588:A 7.22354e-05
33 *3574:A2 *507:10 2.75145e-05
34 *4024:D *3582:C 0
35 *463:8 *507:10 9.05299e-05
36 *463:8 *507:16 5.20968e-05
*RES
1 *3574:X *507:10 5.94 
2 *507:10 *507:16 6.995 
3 *507:16 *3577:A 12.44 
4 *507:16 *3582:C 7.20875 
5 *507:10 *507:56 10.04 
6 *507:56 *3590:A 1.6 
7 *507:56 *3585:A 10.79 
*END

*D_NET *508 0.000377702
*CONN
*I *3577:B I *D sky130_fd_sc_hd__and3_2
*I *3575:X O *D sky130_fd_sc_hd__or2_2
*CAP
1 *3577:B 0.000152674
2 *3575:X 0.000152674
3 *3577:B *509:10 7.23533e-05
4 *3577:B *662:41 0
*RES
1 *3575:X *3577:B 9.21 
*END

*D_NET *509 0.00120577
*CONN
*I *3577:C I *D sky130_fd_sc_hd__and3_2
*I *3579:A2 I *D sky130_fd_sc_hd__a21oi_2
*I *3576:Y O *D sky130_fd_sc_hd__nand2_2
*CAP
1 *3577:C 3.61979e-05
2 *3579:A2 9.96667e-05
3 *3576:Y 0.000379671
4 *509:10 0.000515535
5 *3579:A2 *3579:B1 0
6 *3579:A2 *3581:A2 0
7 *3579:A2 *662:41 2.75229e-05
8 *3579:A2 *662:80 2.86623e-05
9 *509:10 *3576:A 0
10 *509:10 *3581:A2 0
11 *509:10 *662:41 0
12 *3422:B2 *509:10 0
13 *3577:B *509:10 7.23533e-05
14 *4022:D *3579:A2 4.61658e-05
*RES
1 *3576:Y *509:10 9.615 
2 *509:10 *3579:A2 5.685 
3 *509:10 *3577:C 4.05 
*END

*D_NET *510 0.000725564
*CONN
*I *3579:B1 I *D sky130_fd_sc_hd__a21oi_2
*I *3578:X O *D sky130_fd_sc_hd__a31o_2
*CAP
1 *3579:B1 0.000273283
2 *3578:X 0.000273283
3 *3579:B1 *3581:A2 0.00011398
4 *3579:B1 *662:80 0
5 *3579:B1 *1097:18 5.0751e-05
6 *3577:A *3579:B1 9.82856e-06
7 *3579:A1 *3579:B1 4.43871e-06
8 *3579:A2 *3579:B1 0
9 *3582:C *3579:B1 0
10 *4024:D *3579:B1 0
*RES
1 *3578:X *3579:B1 12.015 
*END

*D_NET *511 0.0112131
*CONN
*I *3582:A_N I *D sky130_fd_sc_hd__and3b_2
*I *3583:B I *D sky130_fd_sc_hd__nand2_2
*I *3595:B I *D sky130_fd_sc_hd__and3_2
*I *3610:A I *D sky130_fd_sc_hd__and4_2
*I *3603:A I *D sky130_fd_sc_hd__and3_2
*I *3594:A1 I *D sky130_fd_sc_hd__a21oi_2
*I *3592:A1 I *D sky130_fd_sc_hd__a21o_2
*I *3586:C I *D sky130_fd_sc_hd__and3_2
*I *3584:B I *D sky130_fd_sc_hd__or2_2
*I *3580:X O *D sky130_fd_sc_hd__and4_2
*CAP
1 *3582:A_N 0.000159961
2 *3583:B 0
3 *3595:B 0
4 *3610:A 0.000331087
5 *3603:A 0
6 *3594:A1 6.5218e-05
7 *3592:A1 0.000131986
8 *3586:C 7.91232e-05
9 *3584:B 2.08101e-05
10 *3580:X 0.000590992
11 *511:88 0.000604402
12 *511:82 0.000715437
13 *511:65 0.000661605
14 *511:50 0.000872523
15 *511:34 0.000793751
16 *511:15 0.000385121
17 *511:6 0.000550361
18 *3582:A_N *3581:B1 0.000192125
19 *3582:A_N *1104:10 9.50342e-06
20 *3582:A_N *1104:36 6.28498e-05
21 *3582:A_N *1106:12 4.21973e-05
22 *3584:B *3585:C 0
23 *3586:C *1107:34 0
24 *3592:A1 *4312:A 0.00012324
25 *3594:A1 *3596:B 1.47347e-05
26 *3594:A1 *3597:B1 3.67871e-05
27 *3594:A1 *518:27 5.29032e-05
28 *3594:A1 *661:53 0.000206304
29 *3610:A *3610:B 9.82856e-06
30 *3610:A *526:27 0.00017313
31 *3610:A *887:52 0
32 *511:6 *3498:A 0.000275553
33 *511:15 *3584:A 1.56428e-05
34 *511:34 *3584:A 1.34594e-05
35 *511:34 *3585:C 8.56308e-05
36 *511:34 *1107:36 3.87723e-05
37 *511:34 *1107:60 6.92961e-05
38 *511:50 *3586:A 0
39 *511:50 *3589:B 6.48472e-05
40 *511:50 *3591:B 0.00016492
41 *511:50 *4027:CLK 0.000169368
42 *511:50 *4312:A 0.000158175
43 *511:50 *887:52 0
44 *511:50 *1109:46 0.00042675
45 *511:50 *1110:33 0.000191736
46 *511:65 *3589:A 0.00012819
47 *511:65 *3589:B 0.000130065
48 *511:65 *518:27 4.85442e-05
49 *511:82 *3594:B1 0.000313099
50 *511:82 *3597:A1 0
51 *511:82 *3602:B 0.000119221
52 *511:82 *518:27 3.61388e-06
53 *511:82 *521:14 0.000141377
54 *511:82 *521:33 0.0001249
55 *511:82 *521:42 3.96653e-05
56 *511:82 *609:86 0.000183043
57 *511:82 *609:95 6.52181e-05
58 *511:88 *3604:A 9.02924e-05
59 *511:88 *3607:A 2.8531e-05
60 *511:88 *3609:B 2.3115e-05
61 *511:88 *518:44 0.000349592
62 *3500:C *3586:C 0.00026898
63 *3582:C *3582:A_N 2.46089e-05
64 *3585:A *3586:C 0.000244412
65 *3587:A1 *511:50 0.000110535
66 *4025:D *511:34 0.000122331
67 *4028:RESET_B *511:50 0
68 *466:12 *3610:A 9.5799e-06
69 *507:16 *3582:A_N 8.40269e-05
*RES
1 *3580:X *511:6 6.88 
2 *511:6 *3584:B 1.96 
3 *511:6 *511:15 1.14 
4 *511:15 *3586:C 8.765 
5 *511:15 *511:34 4.035 
6 *511:34 *511:50 14.9876 
7 *511:50 *3592:A1 3.55 
8 *511:50 *511:65 6.185 
9 *511:65 *3594:A1 5.79 
10 *511:65 *511:82 10.76 
11 *511:82 *511:88 6.335 
12 *511:88 *3603:A 3.6 
13 *511:88 *3610:A 5.33663 
14 *511:82 *3595:B 1.6 
15 *511:34 *3583:B 1.6 
16 *3580:X *3582:A_N 10.59 
*END

*D_NET *512 0.00039851
*CONN
*I *3582:B I *D sky130_fd_sc_hd__and3b_2
*I *3581:X O *D sky130_fd_sc_hd__a31o_2
*CAP
1 *3582:B 0.00012529
2 *3581:X 0.00012529
3 *3582:B *3581:B1 2.30292e-05
4 *3577:A *3582:B 0.0001249
*RES
1 *3581:X *3582:B 5.045 
*END

*D_NET *513 0.000747186
*CONN
*I *3585:B I *D sky130_fd_sc_hd__and3_2
*I *3587:A2 I *D sky130_fd_sc_hd__a211oi_2
*I *3583:Y O *D sky130_fd_sc_hd__nand2_2
*CAP
1 *3585:B 0
2 *3587:A2 9.99345e-05
3 *3583:Y 0.000145546
4 *513:6 0.00024548
5 *3587:A2 *3586:A 0.000115464
6 *3587:A2 *1107:36 3.00381e-05
7 *513:6 *1107:36 4.35348e-05
8 *513:6 *1107:60 6.71882e-05
9 *3587:A1 *3587:A2 0
*RES
1 *3583:Y *513:6 3.43 
2 *513:6 *3587:A2 7.43 
3 *513:6 *3585:B 1.6 
*END

*D_NET *514 0.000290505
*CONN
*I *3585:C I *D sky130_fd_sc_hd__and3_2
*I *3584:X O *D sky130_fd_sc_hd__or2_2
*CAP
1 *3585:C 4.12717e-05
2 *3584:X 4.12717e-05
3 *3585:C *3584:A 4.66108e-05
4 *3585:C *1107:36 7.57202e-05
5 *3584:B *3585:C 0
6 *511:34 *3585:C 8.56308e-05
*RES
1 *3584:X *3585:C 4.7 
*END

*D_NET *515 0.00309502
*CONN
*I *3588:B I *D sky130_fd_sc_hd__nand2_2
*I *3589:B I *D sky130_fd_sc_hd__or2_2
*I *3587:B1 I *D sky130_fd_sc_hd__a211oi_2
*I *3586:X O *D sky130_fd_sc_hd__and3_2
*CAP
1 *3588:B 7.74188e-05
2 *3589:B 0.000387765
3 *3587:B1 0
4 *3586:X 0.000223666
5 *515:8 0.000534012
6 *3588:B *3590:C 0
7 *3589:B *3352:A 3.45516e-05
8 *3589:B *3587:C1 8.49205e-05
9 *3589:B *3591:A 0.000328392
10 *3589:B *3591:B 0.000423304
11 *3589:B *1108:6 5.83121e-06
12 *3589:B *1108:8 6.1357e-05
13 *3589:B *1109:46 0
14 *515:8 *3498:B 8.40213e-05
15 *515:8 *3498:C 0.000135118
16 *515:8 *3587:C1 8.52112e-05
17 *515:8 *1108:8 0.000378513
18 *3585:A *3588:B 3.68682e-05
19 *4026:D *3589:B 1.91597e-05
20 *511:50 *3589:B 6.48472e-05
21 *511:65 *3589:B 0.000130065
*RES
1 *3586:X *515:8 6.205 
2 *515:8 *3587:B1 1.6 
3 *515:8 *3589:B 15.71 
4 *3586:X *3588:B 8.58 
*END

*D_NET *516 0.000586983
*CONN
*I *3590:B I *D sky130_fd_sc_hd__and3_2
*I *3593:A2 I *D sky130_fd_sc_hd__a21oi_2
*I *3588:Y O *D sky130_fd_sc_hd__nand2_2
*CAP
1 *3590:B 0.000108504
2 *3593:A2 0.000125172
3 *3588:Y 0
4 *516:4 0.000233676
5 *3590:B *3588:A 8.95933e-05
6 *3593:A2 *3588:A 3.00381e-05
7 *3593:A2 *3590:C 0
*RES
1 *3588:Y *516:4 1.6 
2 *516:4 *3593:A2 7.43 
3 *516:4 *3590:B 3.085 
*END

*D_NET *517 0.00126798
*CONN
*I *3590:C I *D sky130_fd_sc_hd__and3_2
*I *3589:X O *D sky130_fd_sc_hd__or2_2
*CAP
1 *3590:C 0.000439805
2 *3589:X 0.000439805
3 *3590:C *3587:C1 3.26111e-05
4 *3590:C *3588:A 9.23551e-05
5 *3590:C *3593:B1 0.000143266
6 *3590:C *903:78 2.47313e-05
7 *3590:C *903:80 8.68724e-05
8 *3585:A *3590:C 8.53113e-06
9 *3588:B *3590:C 0
10 *3593:A2 *3590:C 0
*RES
1 *3589:X *3590:C 15.6 
*END

*D_NET *518 0.00420466
*CONN
*I *3594:A2 I *D sky130_fd_sc_hd__a21oi_2
*I *3603:B I *D sky130_fd_sc_hd__and3_2
*I *3610:B I *D sky130_fd_sc_hd__and4_2
*I *3595:C I *D sky130_fd_sc_hd__and3_2
*I *3592:A2 I *D sky130_fd_sc_hd__a21o_2
*I *3591:X O *D sky130_fd_sc_hd__and4_2
*CAP
1 *3594:A2 0
2 *3603:B 2.08101e-05
3 *3610:B 0.000140417
4 *3595:C 0
5 *3592:A2 0
6 *3591:X 0.000127479
7 *518:44 0.000330883
8 *518:35 0.000380082
9 *518:27 0.000398168
10 *518:12 0.00031522
11 *3610:B *3610:D 2.97561e-05
12 *3610:B *525:12 4.9968e-05
13 *3610:B *529:8 0.000308724
14 *3610:B *901:107 0
15 *518:12 *3588:A 0.000120655
16 *518:12 *3589:A 9.47454e-05
17 *518:12 *4027:CLK 0
18 *518:12 *4312:A 9.47454e-05
19 *518:12 *1109:16 1.08758e-05
20 *518:12 *1110:33 9.50342e-06
21 *518:27 *3589:A 0.000230876
22 *518:27 *3594:B1 4.55864e-06
23 *518:27 *3596:B 1.16578e-05
24 *518:27 *3597:B1 9.11561e-05
25 *518:27 *4312:A 2.14129e-05
26 *518:27 *609:43 0.000192663
27 *518:27 *661:53 3.1492e-05
28 *518:35 *3597:B1 5.83121e-06
29 *518:35 *3604:A 0
30 *518:35 *4081:A 6.44307e-05
31 *518:35 *526:27 0
32 *518:35 *661:53 7.35729e-05
33 *518:35 *903:110 2.24423e-05
34 *518:35 *903:125 0.0001043
35 *518:44 *3607:A 2.16917e-05
36 *518:44 *521:14 8.67111e-05
37 *518:44 *529:8 0.000110668
38 *3503:A *3610:B 0.00023468
39 *3594:A1 *518:27 5.29032e-05
40 *3610:A *3610:B 9.82856e-06
41 *466:12 *3610:B 0
42 *511:65 *518:27 4.85442e-05
43 *511:82 *518:27 3.61388e-06
44 *511:88 *518:44 0.000349592
*RES
1 *3591:X *518:12 6.225 
2 *518:12 *3592:A2 3.6 
3 *518:12 *518:27 8.285 
4 *518:27 *518:35 8.815 
5 *518:35 *3595:C 1.6 
6 *518:35 *518:44 4.77 
7 *518:44 *3610:B 9.59 
8 *518:44 *3603:B 1.96 
9 *518:27 *3594:A2 1.6 
*END

*D_NET *519 0.000299568
*CONN
*I *3593:B1 I *D sky130_fd_sc_hd__a21oi_2
*I *3592:X O *D sky130_fd_sc_hd__a21o_2
*CAP
1 *3593:B1 3.57432e-05
2 *3592:X 3.57432e-05
3 *3593:B1 *3587:C1 7.53115e-05
4 *3593:B1 *3588:A 9.50342e-06
5 *3590:C *3593:B1 0.000143266
*RES
1 *3592:X *3593:B1 8.835 
*END

*D_NET *520 0.000643475
*CONN
*I *3596:B I *D sky130_fd_sc_hd__nor3_2
*I *3594:Y O *D sky130_fd_sc_hd__a21oi_2
*CAP
1 *3596:B 0.000159643
2 *3594:Y 0.000159643
3 *3596:B *3594:B1 0.000147093
4 *3596:B *3597:B1 4.82919e-05
5 *3596:B *3601:A 0
6 *3596:B *3602:B 2.60986e-05
7 *3596:B *609:43 7.63125e-05
8 *3596:B *903:125 0
9 *3594:A1 *3596:B 1.47347e-05
10 *518:27 *3596:B 1.16578e-05
*RES
1 *3594:Y *3596:B 11.325 
*END

*D_NET *521 0.00448369
*CONN
*I *3599:A2 I *D sky130_fd_sc_hd__a21oi_2
*I *3598:A2 I *D sky130_fd_sc_hd__o21a_2
*I *3597:A2 I *D sky130_fd_sc_hd__a21oi_2
*I *3596:C I *D sky130_fd_sc_hd__nor3_2
*I *3600:C I *D sky130_fd_sc_hd__and3_2
*I *3595:X O *D sky130_fd_sc_hd__and3_2
*CAP
1 *3599:A2 0.000210614
2 *3598:A2 0.00013443
3 *3597:A2 0.000207396
4 *3596:C 0
5 *3600:C 0.00017507
6 *3595:X 0.0001794
7 *521:55 0.000396578
8 *521:42 0.000464208
9 *521:33 0.00024202
10 *521:14 0.000391214
11 *3597:A2 *3502:B 7.5416e-05
12 *3597:A2 *3597:A1 0.00011086
13 *3597:A2 *3598:B1 0
14 *3597:A2 *661:53 7.60965e-05
15 *3598:A2 *3502:D 3.64998e-06
16 *3598:A2 *1112:25 7.38019e-05
17 *3599:A2 *3597:A1 1.44177e-05
18 *3599:A2 *3598:B1 0
19 *3599:A2 *3599:B1 0.000116853
20 *3599:A2 *661:94 0
21 *3599:A2 *1098:12 0.000206811
22 *3599:A2 *1099:14 1.26548e-05
23 *3599:A2 *1112:14 0
24 *3600:C *3600:A 0.000122331
25 *3600:C *3600:B 1.56315e-05
26 *3600:C *3601:A 8.25609e-05
27 *3600:C *3602:D 5.23362e-05
28 *3600:C *524:12 3.00381e-05
29 *3600:C *525:12 9.52646e-05
30 *521:14 *3595:A 7.51003e-05
31 *521:33 *3595:A 3.13457e-05
32 *521:42 *3595:A 1.83756e-05
33 *521:42 *1111:6 1.56428e-05
34 *521:42 *1111:8 6.98113e-05
35 *521:55 *3502:B 0.000109995
36 *521:55 *3597:A1 8.08153e-06
37 *521:55 *3598:B1 0
38 *4029:D *521:42 9.2741e-05
39 *4030:D *3597:A2 0.000114753
40 *4030:D *521:55 6.55406e-05
41 *4031:RESET_B *3599:A2 0
42 *511:82 *521:14 0.000141377
43 *511:82 *521:33 0.0001249
44 *511:82 *521:42 3.96653e-05
45 *518:44 *521:14 8.67111e-05
*RES
1 *3595:X *521:14 5.56 
2 *521:14 *3600:C 9.68 
3 *521:14 *521:33 1.5 
4 *521:33 *3596:C 1.6 
5 *521:33 *521:42 5.9 
6 *521:42 *3597:A2 8.925 
7 *521:42 *521:55 1.635 
8 *521:55 *3598:A2 5.775 
9 *521:55 *3599:A2 8.04 
*END

*D_NET *522 0.00171563
*CONN
*I *3598:B1 I *D sky130_fd_sc_hd__o21a_2
*I *3597:Y O *D sky130_fd_sc_hd__a21oi_2
*CAP
1 *3598:B1 0.000525313
2 *3597:Y 0.000525313
3 *3598:B1 *3597:A1 0
4 *3598:B1 *661:41 1.0183e-05
5 *3598:B1 *661:53 0.000354719
6 *3598:B1 *661:83 0
7 *3598:B1 *900:92 0
8 *3598:B1 *1112:14 0
9 *3597:A2 *3598:B1 0
10 *3599:A2 *3598:B1 0
11 *4029:RESET_B *3598:B1 0.000121597
12 *4030:D *3598:B1 0.000178504
13 *521:55 *3598:B1 0
*RES
1 *3597:Y *3598:B1 17.145 
*END

*D_NET *523 0.000649861
*CONN
*I *3601:B I *D sky130_fd_sc_hd__nor3_2
*I *3599:Y O *D sky130_fd_sc_hd__a21oi_2
*CAP
1 *3601:B 0.000224833
2 *3599:Y 0.000224833
3 *3601:B *3599:B1 4.99619e-05
4 *3601:B *3601:A 0
5 *3601:B *3605:A1 0.000137578
6 *3601:B *4032:CLK 7.12228e-06
7 *3601:B *609:95 5.53249e-06
*RES
1 *3599:Y *3601:B 10.92 
*END

*D_NET *524 0.00102197
*CONN
*I *3605:A2 I *D sky130_fd_sc_hd__o21a_2
*I *3601:C I *D sky130_fd_sc_hd__nor3_2
*I *3600:X O *D sky130_fd_sc_hd__and3_2
*CAP
1 *3605:A2 0
2 *3601:C 8.21409e-05
3 *3600:X 0.000183082
4 *524:12 0.000265223
5 *3601:C *3601:A 0
6 *3601:C *3605:A1 0.000127828
7 *524:12 *3601:A 6.02202e-05
8 *524:12 *3605:B1 0
9 *524:12 *525:12 2.66586e-05
10 *3503:B *3601:C 0.000246783
11 *3600:C *524:12 3.00381e-05
12 *4031:D *3601:C 0
*RES
1 *3600:X *524:12 8.12 
2 *524:12 *3601:C 4.495 
3 *524:12 *3605:A2 1.6 
*END

*D_NET *525 0.00256257
*CONN
*I *3603:C I *D sky130_fd_sc_hd__and3_2
*I *3610:C I *D sky130_fd_sc_hd__and4_2
*I *3602:X O *D sky130_fd_sc_hd__and4_2
*CAP
1 *3603:C 0.000104781
2 *3610:C 1.82322e-05
3 *3602:X 0.000448308
4 *525:12 0.000571321
5 *3603:C *3606:B 0.000108761
6 *3603:C *529:8 0.000254696
7 *3610:C *3606:B 8.57024e-05
8 *3610:C *529:8 8.40213e-05
9 *525:12 *3501:A 0
10 *525:12 *3600:B 0.000162311
11 *525:12 *3609:A 7.40446e-05
12 *525:12 *3610:D 0.000338445
13 *525:12 *1101:27 8.65961e-05
14 *3600:C *525:12 9.52646e-05
15 *3610:B *525:12 4.9968e-05
16 *466:12 *525:12 5.34608e-05
17 *524:12 *525:12 2.66586e-05
*RES
1 *3602:X *525:12 15.185 
2 *525:12 *3610:C 2.395 
3 *525:12 *3603:C 4.585 
*END

*D_NET *526 0.0026926
*CONN
*I *3604:B I *D sky130_fd_sc_hd__nor2_2
*I *3607:B I *D sky130_fd_sc_hd__nand2_2
*I *3606:B I *D sky130_fd_sc_hd__or2_2
*I *3603:X O *D sky130_fd_sc_hd__and3_2
*CAP
1 *3604:B 0.000123393
2 *3607:B 0
3 *3606:B 0.000504866
4 *3603:X 0
5 *526:27 0.00034853
6 *526:4 0.000730002
7 *3604:B *3601:A 0
8 *3604:B *3604:A 7.29248e-05
9 *3604:B *903:125 0
10 *3606:B *3501:A 0.000344459
11 *3606:B *3501:C 2.30292e-05
12 *3606:B *3501:D 4.99619e-05
13 *3606:B *529:8 6.20787e-05
14 *3606:B *531:14 1.47256e-05
15 *526:27 *3604:A 2.35678e-05
16 *526:27 *3609:B 9.67081e-06
17 *526:27 *887:52 0
18 *526:27 *903:125 0
19 *526:27 *1100:34 7.9642e-06
20 *3603:C *3606:B 0.000108761
21 *3610:A *526:27 0.00017313
22 *3610:C *3606:B 8.57024e-05
23 *466:12 *526:27 9.82856e-06
24 *518:35 *526:27 0
*RES
1 *3603:X *526:4 1.6 
2 *526:4 *3606:B 10.105 
3 *526:4 *526:27 4.47913 
4 *526:27 *3607:B 3.6 
5 *526:27 *3604:B 6 
*END

*D_NET *527 0.00043089
*CONN
*I *3605:B1 I *D sky130_fd_sc_hd__o21a_2
*I *3604:Y O *D sky130_fd_sc_hd__nor2_2
*CAP
1 *3605:B1 0.000152995
2 *3604:Y 0.000152995
3 *3605:B1 *3601:A 0
4 *3503:A *3605:B1 0
5 *3503:B *3605:B1 0.0001249
6 *524:12 *3605:B1 0
*RES
1 *3604:Y *3605:B1 9.975 
*END

*D_NET *528 0.00145461
*CONN
*I *3608:B I *D sky130_fd_sc_hd__and3_2
*I *3606:X O *D sky130_fd_sc_hd__or2_2
*CAP
1 *3608:B 0.00042891
2 *3606:X 0.00042891
3 *3608:B *4034:CLK 0.000166346
4 *3608:B *4081:A 0.00043044
5 *3608:B *903:25 0
*RES
1 *3606:X *3608:B 14.265 
*END

*D_NET *529 0.00280982
*CONN
*I *3611:A2 I *D sky130_fd_sc_hd__a211oi_2
*I *3608:C I *D sky130_fd_sc_hd__and3_2
*I *3607:Y O *D sky130_fd_sc_hd__nand2_2
*CAP
1 *3611:A2 8.71323e-05
2 *3608:C 0.000240432
3 *3607:Y 0.000176302
4 *529:8 0.000503866
5 *3608:C *3842:B1 0.000151574
6 *3608:C *887:67 2.75145e-05
7 *3608:C *901:59 4.99619e-05
8 *3608:C *903:12 0
9 *3608:C *903:25 0
10 *3611:A2 *3842:B1 8.70923e-05
11 *3611:A2 *903:25 0
12 *529:8 *3501:A 0.000192125
13 *529:8 *3607:A 8.23457e-05
14 *529:8 *531:14 0.000192125
15 *3503:A *529:8 7.85634e-05
16 *3603:C *529:8 0.000254696
17 *3606:B *529:8 6.20787e-05
18 *3610:B *529:8 0.000308724
19 *3610:C *529:8 8.40213e-05
20 *4033:D *3608:C 0.000116158
21 *390:19 *3608:C 4.43871e-06
22 *518:44 *529:8 0.000110668
*RES
1 *3607:Y *529:8 10.605 
2 *529:8 *3608:C 8.745 
3 *529:8 *3611:A2 5.49 
*END

*D_NET *530 0.00121789
*CONN
*I *3610:D I *D sky130_fd_sc_hd__and4_2
*I *3609:X O *D sky130_fd_sc_hd__and2_2
*CAP
1 *3610:D 0.000356731
2 *3609:X 0.000356731
3 *3610:D *3501:A 9.85228e-05
4 *3610:D *1101:27 3.77036e-05
5 *3610:B *3610:D 2.97561e-05
6 *525:12 *3610:D 0.000338445
*RES
1 *3609:X *3610:D 12.735 
*END

*D_NET *531 0.0040966
*CONN
*I *3611:B1 I *D sky130_fd_sc_hd__a211oi_2
*I *3615:A3 I *D sky130_fd_sc_hd__a31o_2
*I *3614:A2 I *D sky130_fd_sc_hd__a21oi_2
*I *3612:A2 I *D sky130_fd_sc_hd__a21oi_2
*I *3613:A2 I *D sky130_fd_sc_hd__o21a_2
*I *3610:X O *D sky130_fd_sc_hd__and4_2
*CAP
1 *3611:B1 0
2 *3615:A3 0
3 *3614:A2 0.000155526
4 *3612:A2 3.01484e-05
5 *3613:A2 4.23943e-05
6 *3610:X 0.000229941
7 *531:38 0.000259858
8 *531:32 0.000421541
9 *531:28 0.000407835
10 *531:14 0.000559077
11 *3612:A2 *899:116 0
12 *3612:A2 *1102:22 1.65105e-05
13 *3613:A2 *3613:B1 8.65905e-05
14 *3614:A2 *3614:A1 0.000216325
15 *3614:A2 *3616:A 4.60584e-05
16 *3614:A2 *1102:22 5.4003e-05
17 *531:14 *3501:A 8.82557e-05
18 *531:14 *3501:B 0
19 *531:14 *4034:CLK 0
20 *531:14 *903:25 0.00022653
21 *531:28 *3501:C 4.20983e-05
22 *531:28 *4299:A 2.42236e-05
23 *531:28 *903:25 3.90495e-05
24 *531:28 *903:29 6.97118e-05
25 *531:28 *1102:22 0
26 *531:28 *1103:8 3.1835e-05
27 *531:28 *1103:21 3.23391e-05
28 *531:32 *3615:A2 9.4087e-05
29 *531:32 *3616:B 4.65607e-05
30 *531:38 *3613:B1 7.57202e-05
31 *531:38 *899:116 0
32 *531:38 *1102:22 0.000319862
33 *3503:A *531:14 0.00026784
34 *3606:B *531:14 1.47256e-05
35 *4035:RESET_B *3614:A2 5.83121e-06
36 *4035:RESET_B *531:38 0
37 *4036:RESET_B *3614:A2 0
38 *4036:RESET_B *531:38 0
39 *529:8 *531:14 0.000192125
*RES
1 *3610:X *531:14 11.585 
2 *531:14 *531:28 10.18 
3 *531:28 *531:32 3.83 
4 *531:32 *531:38 6.47 
5 *531:38 *3613:A2 2.395 
6 *531:38 *3612:A2 6.215 
7 *531:32 *3614:A2 7.23 
8 *531:28 *3615:A3 1.6 
9 *531:14 *3611:B1 1.6 
*END

*D_NET *532 0.000632707
*CONN
*I *3613:B1 I *D sky130_fd_sc_hd__o21a_2
*I *3612:Y O *D sky130_fd_sc_hd__a21oi_2
*CAP
1 *3613:B1 0.000133213
2 *3612:Y 0.000133213
3 *3613:B1 *3501:D 8.65961e-05
4 *3613:B1 *3613:A1 6.90876e-05
5 *3613:B1 *1102:24 4.82863e-05
6 *3613:A2 *3613:B1 8.65905e-05
7 *531:38 *3613:B1 7.57202e-05
*RES
1 *3612:Y *3613:B1 6.41 
*END

*D_NET *533 0.00077642
*CONN
*I *3616:A I *D sky130_fd_sc_hd__nor2_2
*I *3614:Y O *D sky130_fd_sc_hd__a21oi_2
*CAP
1 *3616:A 0.000250531
2 *3614:Y 0.000250531
3 *3616:A *3614:A1 1.16578e-05
4 *3616:A *3843:A2 0.000160635
5 *3616:A *659:99 4.21973e-05
6 *3614:A2 *3616:A 4.60584e-05
7 *4035:RESET_B *3616:A 1.48096e-05
*RES
1 *3614:Y *3616:A 7.475 
*END

*D_NET *534 0.00147798
*CONN
*I *3616:B I *D sky130_fd_sc_hd__nor2_2
*I *3615:X O *D sky130_fd_sc_hd__a31o_2
*CAP
1 *3616:B 0.000660563
2 *3615:X 0.000660563
3 *3616:B *885:104 1.65192e-05
4 *4036:D *3616:B 9.37731e-05
5 *531:32 *3616:B 4.65607e-05
*RES
1 *3615:X *3616:B 15.165 
*END

*D_NET *535 0.00126002
*CONN
*I *3619:A I *D sky130_fd_sc_hd__nor2_2
*I *3617:X O *D sky130_fd_sc_hd__or4_2
*CAP
1 *3619:A 0.000402413
2 *3617:X 0.000402413
3 *3619:A *3753:A1 0.000200615
4 *3619:A *632:12 4.92096e-05
5 *3619:A *905:42 0.000205372
6 *3619:A *962:10 0
7 *3619:A *962:16 0
*RES
1 *3617:X *3619:A 14.22 
*END

*D_NET *536 0.00104747
*CONN
*I *3619:B I *D sky130_fd_sc_hd__nor2_2
*I *3618:X O *D sky130_fd_sc_hd__or4_2
*CAP
1 *3619:B 0.000181062
2 *3618:X 0.000181062
3 *3619:B *3754:S 0.000154288
4 *3619:B *4058:RESET_B 0.00035915
5 *3619:B *905:42 0.00011003
6 *3619:B *961:26 6.18754e-05
*RES
1 *3618:X *3619:B 13.11 
*END

*D_NET *537 0.000694588
*CONN
*I *3624:A I *D sky130_fd_sc_hd__or3_2
*I *3619:Y O *D sky130_fd_sc_hd__nor2_2
*CAP
1 *3624:A 0.000222744
2 *3619:Y 0.000222744
3 *3624:A *3621:A1 2.87395e-05
4 *3624:A *3621:A2 0.000105357
5 *3624:A *3621:B1 1.47256e-05
6 *3624:A *3621:B2 5.36034e-05
7 *3624:A *3624:B 4.66742e-05
*RES
1 *3619:Y *3624:A 7.1 
*END

*D_NET *538 0.00128111
*CONN
*I *3621:C1 I *D sky130_fd_sc_hd__a221o_2
*I *3620:X O *D sky130_fd_sc_hd__a22o_2
*CAP
1 *3621:C1 0.000368967
2 *3620:X 0.000368967
3 *3621:C1 *3753:A1 0.00046686
4 *3621:C1 *4063:RESET_B 7.63204e-05
*RES
1 *3620:X *3621:C1 13.08 
*END

*D_NET *539 0.000179507
*CONN
*I *3624:B I *D sky130_fd_sc_hd__or3_2
*I *3621:X O *D sky130_fd_sc_hd__a221o_2
*CAP
1 *3624:B 6.64165e-05
2 *3621:X 6.64165e-05
3 *3624:A *3624:B 4.66742e-05
*RES
1 *3621:X *3624:B 3.995 
*END

*D_NET *540 0.00172811
*CONN
*I *3623:C1 I *D sky130_fd_sc_hd__a221o_2
*I *3622:X O *D sky130_fd_sc_hd__a22o_2
*CAP
1 *3623:C1 0.000715996
2 *3622:X 0.000715996
3 *3623:C1 *3621:B1 6.00003e-05
4 *3623:C1 *3623:B2 9.50342e-06
5 *3623:C1 *3694:A1 5.98029e-05
6 *3623:C1 *4063:RESET_B 0.000166812
*RES
1 *3622:X *3623:C1 16.2113 
*END

*D_NET *541 0.000466965
*CONN
*I *3624:C I *D sky130_fd_sc_hd__or3_2
*I *3623:X O *D sky130_fd_sc_hd__a221o_2
*CAP
1 *3624:C 8.69559e-05
2 *3623:X 8.69559e-05
3 *3624:C *3621:A2 0.000136877
4 *3624:C *3623:A1 0.000136884
5 *3624:C *3623:A2 1.56428e-05
6 *3624:C *4231:A 3.64998e-06
*RES
1 *3623:X *3624:C 9.285 
*END

*D_NET *542 0.00325441
*CONN
*I *3635:C I *D sky130_fd_sc_hd__nor3_2
*I *3634:X O *D sky130_fd_sc_hd__or3b_2
*CAP
1 *3635:C 0.000730612
2 *3634:X 0.000730612
3 *3635:C *3634:A 0.000617727
4 *3635:C *3634:B 0.000315527
5 *3635:C *3634:C_N 4.29969e-05
6 *3635:C *3964:D 0.000222081
7 *3635:C *3968:D 2.97473e-05
8 *3635:C *4047:D 0.000162311
9 *3635:C *4065:A 0.000116158
10 *3635:C *4180:A 0
11 *3635:C *613:35 7.35729e-05
12 *3635:C *1011:10 0
13 *4174:A *3635:C 8.52972e-05
14 *4246:A *3635:C 0.000127765
*RES
1 *3634:X *3635:C 23.8125 
*END

*D_NET *543 0.00586955
*CONN
*I *3658:B1 I *D sky130_fd_sc_hd__o21a_2
*I *3654:B1 I *D sky130_fd_sc_hd__o21a_2
*I *3656:B1 I *D sky130_fd_sc_hd__o21a_2
*I *3652:B1 I *D sky130_fd_sc_hd__o21a_2
*I *3650:B1 I *D sky130_fd_sc_hd__o21a_2
*I *3648:Y O *D sky130_fd_sc_hd__nand2b_2
*CAP
1 *3658:B1 0
2 *3654:B1 0.000237834
3 *3656:B1 1.88424e-05
4 *3652:B1 0.000183163
5 *3650:B1 1.50077e-05
6 *3648:Y 0.000200255
7 *543:31 0.000309663
8 *543:27 0.000373653
9 *543:25 0.00158972
10 *543:6 0.00177683
11 *3650:B1 *3650:A1 1.22325e-05
12 *3652:B1 *3652:A1 0.00019608
13 *3652:B1 *3652:A2 4.77769e-05
14 *3652:B1 *4070:A 4.90894e-05
15 *3652:B1 *4167:A 5.59597e-05
16 *3654:B1 *3654:A2 5.09431e-05
17 *3656:B1 *4070:A 8.41384e-05
18 *543:6 *3648:B 2.69217e-05
19 *543:25 *3649:A_N 4.9339e-06
20 *543:25 *3650:A1 0.000122821
21 *543:25 *3657:B 3.12855e-05
22 *543:25 *3658:A2 9.7209e-05
23 *543:25 *3967:CLK 3.19424e-05
24 *543:25 *4384:A 0.000121659
25 *543:27 *3658:A1 1.10435e-05
26 *543:31 *3652:A1 2.0851e-06
27 *543:31 *3654:A1 0
28 *543:31 *3658:A1 2.61744e-05
29 *543:31 *4167:A 2.22478e-05
30 o_cmd_status_reg[3] *543:25 4.11678e-06
31 *3877:D *3652:B1 2.69153e-05
32 *3879:D *3652:B1 1.14192e-05
33 *3879:D *3656:B1 4.22944e-05
34 *3880:D *3654:B1 8.52972e-05
*RES
1 *3648:Y *543:6 4.465 
2 *543:6 *3650:B1 1.96 
3 *543:6 *543:25 22.235 
4 *543:25 *543:27 0.615 
5 *543:27 *543:31 3.635 
6 *543:31 *3652:B1 5.86 
7 *543:31 *3656:B1 2.395 
8 *543:27 *3654:B1 7.515 
9 *543:25 *3658:B1 3.6 
*END

*D_NET *544 0.00155791
*CONN
*I *3650:A2 I *D sky130_fd_sc_hd__o21a_2
*I *3649:X O *D sky130_fd_sc_hd__and2b_2
*CAP
1 *3650:A2 0.000704544
2 *3649:X 0.000704544
3 *3650:A2 *614:101 8.83862e-05
4 *3650:A2 *1012:14 6.04361e-05
*RES
1 *3649:X *3650:A2 15.99 
*END

*D_NET *545 0.000307047
*CONN
*I *3652:A2 I *D sky130_fd_sc_hd__o21a_2
*I *3651:X O *D sky130_fd_sc_hd__and2b_2
*CAP
1 *3652:A2 6.57203e-05
2 *3651:X 6.57203e-05
3 *3652:A2 *3654:A1 9.23578e-05
4 *3652:B1 *3652:A2 4.77769e-05
5 *3877:D *3652:A2 3.54721e-05
*RES
1 *3651:X *3652:A2 8.775 
*END

*D_NET *546 0.00145816
*CONN
*I *3654:A2 I *D sky130_fd_sc_hd__o21a_2
*I *3653:X O *D sky130_fd_sc_hd__and2b_2
*CAP
1 *3654:A2 0.000497124
2 *3653:X 0.000497124
3 *3654:A2 *3651:B 3.81908e-06
4 *3654:A2 *3653:A_N 0.000155196
5 *3654:A2 *3653:B 1.4399e-05
6 *3654:A2 *3946:RESET_B 1.82111e-05
7 *3654:A2 *650:10 0.000147459
8 *3654:A2 *650:17 7.38869e-05
9 *3654:B1 *3654:A2 5.09431e-05
10 *3878:D *3654:A2 0
*RES
1 *3653:X *3654:A2 16.845 
*END

*D_NET *547 0.000616843
*CONN
*I *3656:A2 I *D sky130_fd_sc_hd__o21a_2
*I *3655:X O *D sky130_fd_sc_hd__and2b_2
*CAP
1 *3656:A2 0.000111617
2 *3655:X 0.000111617
3 *3656:A2 *3658:A1 0.000154765
4 *3656:A2 *3658:A2 5.01003e-05
5 *3656:A2 *994:18 7.76733e-05
6 *3880:D *3656:A2 0.00011107
*RES
1 *3655:X *3656:A2 10.62 
*END

*D_NET *548 0.000541405
*CONN
*I *3658:A2 I *D sky130_fd_sc_hd__o21a_2
*I *3657:X O *D sky130_fd_sc_hd__and2b_2
*CAP
1 *3658:A2 0.000197048
2 *3657:X 0.000197048
3 *3656:A2 *3658:A2 5.01003e-05
4 *543:25 *3658:A2 9.7209e-05
*RES
1 *3657:X *3658:A2 10.155 
*END

*D_NET *549 0.00207401
*CONN
*I *3662:B1 I *D sky130_fd_sc_hd__a21o_2
*I *3661:X O *D sky130_fd_sc_hd__a21bo_2
*CAP
1 *3662:B1 0.000271976
2 *3661:X 0.000271976
3 *3662:B1 *3402:B 5.93588e-05
4 *3662:B1 *3661:B1_N 0.00046298
5 *3662:B1 *3662:A2 5.84989e-05
6 *3662:B1 *4073:TE_B 0.000378975
7 *3662:B1 *4228:A 0.000219012
8 *3662:B1 *646:53 0.000232111
9 *3662:B1 *936:21 1.33293e-05
10 *3662:B1 *939:16 2.42236e-05
11 *3883:D *3662:B1 8.15676e-05
*RES
1 *3661:X *3662:B1 17.385 
*END

*D_NET *550 0.00192621
*CONN
*I *3664:S I *D sky130_fd_sc_hd__mux2_1
*I *3663:Y O *D sky130_fd_sc_hd__nand2_2
*CAP
1 *3664:S 0.000274555
2 *3663:Y 0.000274555
3 *3664:S *3664:A1 0.000517225
4 *3664:S *3745:A0 2.30292e-05
5 *3664:S *3745:A1 8.40269e-05
6 *3664:S *907:12 0
7 *3664:S *907:18 0.000712391
8 *3664:S *907:26 9.50342e-06
9 *3664:S *907:102 3.09233e-05
10 *4053:D *3664:S 0
*RES
1 *3663:Y *3664:S 16.515 
*END

*D_NET *551 0.0037407
*CONN
*I *3666:S I *D sky130_fd_sc_hd__mux2_1
*I *3665:Y O *D sky130_fd_sc_hd__nand2_2
*CAP
1 *3666:S 0.00122618
2 *3665:Y 0.00122618
3 *3666:S *3671:B 3.45588e-05
4 *3666:S *3672:S 0.00034356
5 *3666:S *3746:S 0.000185405
6 *3666:S *3747:A0 7.91457e-05
7 *3666:S *3747:S 4.82863e-05
8 *3666:S *646:61 8.18011e-05
9 *3666:S *889:105 0.000100491
10 *3666:S *889:109 3.23663e-05
11 *3666:S *907:102 3.66286e-05
12 *3666:S *907:104 0.000267241
13 *3666:S *945:12 1.41186e-05
14 *3666:A0 *3666:S 6.47326e-05
*RES
1 *3665:Y *3666:S 24.81 
*END

*D_NET *552 0.00258537
*CONN
*I *3668:S I *D sky130_fd_sc_hd__mux2_1
*I *3667:Y O *D sky130_fd_sc_hd__nand2_2
*CAP
1 *3668:S 0.000905971
2 *3667:Y 0.000905971
3 *3668:S *3667:A 0.000196333
4 *3668:S *3669:B 0.000112214
5 *3668:S *4055:CLK 5.0751e-05
6 *3668:S *4056:CLK 2.68526e-05
7 *3668:S *624:10 6.10014e-05
8 *3668:S *624:12 0.00012819
9 *3668:S *624:16 3.3641e-05
10 *3668:S *641:54 4.82919e-05
11 *4050:D *3668:S 0.000116151
*RES
1 *3667:Y *3668:S 22.545 
*END

*D_NET *553 0.001939
*CONN
*I *3670:S I *D sky130_fd_sc_hd__mux2_1
*I *3669:Y O *D sky130_fd_sc_hd__nand2_2
*CAP
1 *3670:S 0.000399554
2 *3669:Y 0.000399554
3 *3670:S *3669:A 3.75937e-05
4 *3670:S *3670:A1 0.000124895
5 *3670:S *3672:A1 0.000160635
6 *3670:S *4207:A 0.000130461
7 *3670:S *865:12 0.000296081
8 *3670:S *868:18 0.000341025
9 *3670:A0 *3670:S 4.92062e-05
*RES
1 *3669:Y *3670:S 16.71 
*END

*D_NET *554 0.000819043
*CONN
*I *3672:S I *D sky130_fd_sc_hd__mux2_1
*I *3671:Y O *D sky130_fd_sc_hd__nand2_2
*CAP
1 *3672:S 0.000126988
2 *3671:Y 0.000126988
3 *3672:S *3672:A1 0.000122331
4 *3672:S *889:109 2.75229e-05
5 *3666:A0 *3672:S 2.16833e-05
6 *3666:S *3672:S 0.00034356
7 *359:87 *3672:S 4.9969e-05
*RES
1 *3671:Y *3672:S 7.13 
*END

*D_NET *555 0.00039179
*CONN
*I *3674:S I *D sky130_fd_sc_hd__mux2_1
*I *3673:Y O *D sky130_fd_sc_hd__nand2_2
*CAP
1 *3674:S 9.87308e-05
2 *3673:Y 9.87308e-05
3 *3674:S *3647:A0 3.48037e-05
4 *3674:S *3674:A1 9.37731e-05
5 *3674:S *623:60 0
6 *3674:S *869:10 1.1392e-05
7 *359:67 *3674:S 5.43599e-05
*RES
1 *3673:Y *3674:S 9.54 
*END

*D_NET *556 0.000876534
*CONN
*I *3676:S I *D sky130_fd_sc_hd__mux2_1
*I *3675:Y O *D sky130_fd_sc_hd__nand2_2
*CAP
1 *3676:S 0.000274507
2 *3675:Y 0.000274507
3 *3676:S *3641:A0 0.000106565
4 *3676:S *623:101 9.50342e-06
5 *3676:S *623:107 0.000141606
6 *3676:S *646:61 0
7 *3890:D *3676:S 4.77719e-05
8 *4286:A *3676:S 0
9 *359:45 *3676:S 2.20732e-05
*RES
1 *3675:Y *3676:S 12.405 
*END

*D_NET *557 0.00143565
*CONN
*I *3678:S I *D sky130_fd_sc_hd__mux2_1
*I *3677:Y O *D sky130_fd_sc_hd__nand2_2
*CAP
1 *3678:S 0.000366332
2 *3677:Y 0.000366332
3 *3678:S *3716:B 0.00018305
4 *3678:S *3745:A1 8.09021e-06
5 *3678:S *4053:RESET_B 4.38051e-05
6 *3678:S *4285:A 0.00032714
7 *3678:S *4378:A 0.000140905
8 *3678:S *871:10 0
9 *3884:D *3678:S 0
10 *11:10 *3678:S 0
*RES
1 *3677:Y *3678:S 15.69 
*END

*D_NET *558 0.000575224
*CONN
*I *3681:B I *D sky130_fd_sc_hd__nor2_2
*I *3680:X O *D sky130_fd_sc_hd__a2bb2o_2
*CAP
1 *3681:B 0.000242416
2 *3680:X 0.000242416
3 *3681:B *3680:A1_N 2.75229e-05
4 *3681:B *3945:SET_B 0
5 *3681:B *3951:RESET_B 6.28687e-05
6 *3681:B *652:16 0
7 *3945:D *3681:B 0
*RES
1 *3680:X *3681:B 11.07 
*END

*D_NET *559 0.00119495
*CONN
*I *3684:A2 I *D sky130_fd_sc_hd__a22o_2
*I *3685:A2 I *D sky130_fd_sc_hd__a22o_2
*I *3682:Y O *D sky130_fd_sc_hd__a21oi_2
*CAP
1 *3684:A2 7.18416e-06
2 *3685:A2 7.00999e-05
3 *3682:Y 0.000258752
4 *559:10 0.000336036
5 *3684:A2 *3684:A1 1.2818e-05
6 *3685:A2 *3685:A1 0.000220557
7 *3685:A2 *3685:B1 9.87616e-05
8 *3685:A2 *3685:B2 3.09164e-05
9 *559:10 *3456:A2 0
10 *559:10 *3682:B1 1.19928e-05
11 *559:10 *3683:A_N 2.66935e-05
12 *559:10 *3685:A1 3.09233e-05
13 *559:10 *4087:A 0
14 *559:10 *605:12 9.02174e-05
*RES
1 *3682:Y *559:10 7.155 
2 *559:10 *3685:A2 6.12375 
3 *559:10 *3684:A2 3.72375 
*END

*D_NET *560 0.000756232
*CONN
*I *3684:B1 I *D sky130_fd_sc_hd__a22o_2
*I *3685:B1 I *D sky130_fd_sc_hd__a22o_2
*I *3683:X O *D sky130_fd_sc_hd__and3b_2
*CAP
1 *3684:B1 0
2 *3685:B1 6.61083e-05
3 *3683:X 9.48775e-05
4 *560:10 0.000160986
5 *3685:B1 *3685:B2 3.09164e-05
6 *560:10 *3683:A_N 1.91597e-05
7 *560:10 *3684:A1 3.26889e-05
8 *3684:B2 *3685:B1 0.000206123
9 *3684:B2 *560:10 4.66108e-05
10 *3685:A2 *3685:B1 9.87616e-05
*RES
1 *3683:X *560:10 3.46 
2 *560:10 *3685:B1 8 
3 *560:10 *3684:B1 1.6 
*END

*D_NET *561 0.000778835
*CONN
*I *3688:B1 I *D sky130_fd_sc_hd__o21a_2
*I *3687:X O *D sky130_fd_sc_hd__a221o_2
*CAP
1 *3688:B1 0.000219298
2 *3687:X 0.000219298
3 *3688:B1 *3687:A2 4.93336e-05
4 *3688:B1 *1002:51 7.27704e-06
5 *3897:D *3688:B1 3.56402e-05
6 *435:8 *3688:B1 0.000247989
*RES
1 *3687:X *3688:B1 12.48 
*END

*D_NET *562 0.00518626
*CONN
*I *3692:B1 I *D sky130_fd_sc_hd__a22o_2
*I *3694:B1 I *D sky130_fd_sc_hd__a22o_2
*I *3696:B1 I *D sky130_fd_sc_hd__a22o_2
*I *3689:Y O *D sky130_fd_sc_hd__a21oi_2
*CAP
1 *3692:B1 0
2 *3694:B1 0.000146944
3 *3696:B1 0.000204891
4 *3689:Y 0.0010334
5 *562:35 0.000447597
6 *562:14 0.00153894
7 *3694:B1 *3692:B2 0.000122821
8 *3696:B1 *3692:B2 5.00903e-05
9 *3696:B1 *3696:A1 0.000119873
10 *3696:B1 *3702:B2 3.8121e-05
11 *562:14 *3481:A 2.69217e-05
12 *562:14 *3690:A2 4.77807e-05
13 *562:14 *3702:B2 0.00026275
14 *562:14 *951:10 4.89395e-05
15 *3483:B2 *562:14 2.50267e-05
16 *3485:A *562:14 0.000159179
17 *3485:C *562:14 0.000172927
18 *3689:B1 *562:14 6.44082e-05
19 *3692:A2 *3694:B1 9.16129e-05
20 *3898:D *3696:B1 4.89395e-05
21 *3898:D *562:14 7.38779e-05
22 *3898:D *562:35 0.000151955
23 *3899:D *3694:B1 0.000152576
24 *3899:D *562:35 9.24825e-05
25 *3900:D *3696:B1 5.13924e-05
26 *434:43 *3694:B1 1.2818e-05
*RES
1 *3689:Y *562:14 16.435 
2 *562:14 *3696:B1 8.735 
3 *562:14 *562:35 9.655 
4 *562:35 *3694:B1 4.81 
5 *562:35 *3692:B1 1.6 
*END

*D_NET *563 0.0078593
*CONN
*I *3704:B1 I *D sky130_fd_sc_hd__o22a_2
*I *3700:B1 I *D sky130_fd_sc_hd__o22a_2
*I *3698:B1 I *D sky130_fd_sc_hd__o22a_2
*I *3702:B1 I *D sky130_fd_sc_hd__o22a_2
*I *3690:X O *D sky130_fd_sc_hd__a21o_2
*CAP
1 *3704:B1 3.43921e-05
2 *3700:B1 0.00023708
3 *3698:B1 0.000581335
4 *3702:B1 0.000166052
5 *3690:X 0.000162447
6 *563:39 0.000895673
7 *563:22 0.00112446
8 *563:6 0.00107799
9 *3698:B1 *3901:CLK 0.000235335
10 *3698:B1 *608:77 0
11 *3698:B1 *608:79 0
12 *3700:B1 *3700:B2 5.83121e-06
13 *3700:B1 *3901:RESET_B 4.20673e-05
14 *3700:B1 *954:10 0.000196873
15 *3702:B1 *3473:A 2.20014e-05
16 *3702:B1 *3698:B2 0.000206884
17 *3702:B1 *3702:B2 8.35068e-05
18 *3702:B1 *4224:A 0
19 *3702:B1 *913:78 3.63701e-06
20 *563:22 *3622:A2 0.000192502
21 *563:22 *4244:A 4.77807e-05
22 *563:22 *913:78 3.38817e-05
23 *563:22 *953:8 0.000112204
24 *563:22 *955:6 0.000157937
25 *563:39 *3698:B2 0.000199899
26 *563:39 *913:78 6.20864e-05
27 *563:39 *913:88 7.27704e-06
28 *3484:A2 *3702:B1 0.000122189
29 *3704:A2 *563:22 8.46818e-05
30 *3901:D *3698:B1 0.000135168
31 *3902:D *563:22 0.000417642
32 *3904:D *563:6 0.0001615
33 *434:22 *563:6 0.00013093
34 *434:22 *563:22 0.00042782
35 *435:22 *3698:B1 0.00010058
36 *435:22 *3700:B1 0.000389659
*RES
1 *3690:X *563:6 5.5 
2 *563:6 *563:22 20.9675 
3 *563:22 *3702:B1 7.6275 
4 *563:22 *563:39 4.5275 
5 *563:39 *3698:B1 14.21 
6 *563:39 *3700:B1 7.255 
7 *563:6 *3704:B1 2.215 
*END

*D_NET *564 0.00349511
*CONN
*I *3692:B2 I *D sky130_fd_sc_hd__a22o_2
*I *3691:X O *D sky130_fd_sc_hd__mux2_1
*CAP
1 *3692:B2 0.00104932
2 *3691:X 0.00104932
3 *3692:B2 *3482:B 0.000155497
4 *3692:B2 *3631:A1 3.63701e-06
5 *3692:B2 *3631:S 9.28481e-05
6 *3692:B2 *3696:A1 1.10951e-05
7 *3692:B2 *3696:B2 0.0003074
8 *3692:B2 *3860:RESET_B 0.000196376
9 *3692:B2 *4381:A 2.46534e-05
10 *3692:B2 *632:12 0
11 *3692:B2 *844:14 1.3758e-05
12 *3691:S *3692:B2 6.80075e-05
13 *3692:A2 *3692:B2 0.000122821
14 *3694:B1 *3692:B2 0.000122821
15 *3696:B1 *3692:B2 5.00903e-05
16 *3900:D *3692:B2 7.59185e-05
17 *427:55 *3692:B2 7.9642e-06
18 *434:43 *3692:B2 0.000143585
*RES
1 *3691:X *3692:B2 27.285 
*END

*D_NET *565 0.00263739
*CONN
*I *3694:B2 I *D sky130_fd_sc_hd__a22o_2
*I *3693:X O *D sky130_fd_sc_hd__mux2_1
*CAP
1 *3694:B2 0.000793074
2 *3693:X 0.000793074
3 *3694:B2 *3473:B 2.68037e-05
4 *3694:B2 *3622:B1 3.72742e-05
5 *3694:B2 *3699:A1 0.000291141
6 *3694:B2 *3860:RESET_B 0.00016133
7 *3694:B2 *4092:A 0
8 *3694:B2 *4224:A 0.000467452
9 *3694:B2 *4230:A 4.31127e-05
10 *3697:S *3694:B2 0
11 *3902:D *3694:B2 2.41307e-05
12 *427:67 *3694:B2 0
*RES
1 *3693:X *3694:B2 23.445 
*END

*D_NET *566 0.00141995
*CONN
*I *3696:B2 I *D sky130_fd_sc_hd__a22o_2
*I *3695:X O *D sky130_fd_sc_hd__mux2_1
*CAP
1 *3696:B2 0.000331006
2 *3695:X 0.000331006
3 *3696:B2 *3696:A1 0.000134123
4 *3696:B2 *4243:A 0
5 *3696:B2 *4381:A 0.000316415
6 *3692:B2 *3696:B2 0.0003074
*RES
1 *3695:X *3696:B2 13.74 
*END

*D_NET *567 0.00295216
*CONN
*I *3698:B2 I *D sky130_fd_sc_hd__o22a_2
*I *3697:X O *D sky130_fd_sc_hd__mux2_1
*CAP
1 *3698:B2 0.000849845
2 *3697:X 0.000849845
3 *3698:B2 *3473:B 2.29223e-05
4 *3698:B2 *3698:A1 7.29448e-05
5 *3698:B2 *3753:A0 8.64421e-05
6 *3698:B2 *3758:A0 0.00017459
7 *3698:B2 *3758:S 6.23541e-06
8 *3698:B2 *608:77 0
9 *3698:B2 *760:6 0.00011138
10 *3698:B2 *909:33 0.00019898
11 *3698:A2 *3698:B2 1.07285e-05
12 *3702:B1 *3698:B2 0.000206884
13 *3903:D *3698:B2 0
14 *4062:D *3698:B2 0.000161467
15 *563:39 *3698:B2 0.000199899
*RES
1 *3697:X *3698:B2 23.685 
*END

*D_NET *568 0.00272288
*CONN
*I *3700:B2 I *D sky130_fd_sc_hd__o22a_2
*I *3699:X O *D sky130_fd_sc_hd__mux2_1
*CAP
1 *3700:B2 0.000519129
2 *3699:X 0.000519129
3 *3700:B2 *3482:B 0.000317468
4 *3700:B2 *3622:A2 0.000131525
5 *3700:B2 *3699:A1 3.86623e-05
6 *3700:B2 *3899:CLK 4.58262e-06
7 *3700:B2 *4092:A 0.000510959
8 *3700:B2 *620:58 9.31063e-05
9 *3700:B2 *620:79 6.19519e-05
10 *3700:B2 *620:90 6.7033e-05
11 *3700:B2 *954:10 8.73389e-06
12 *3700:B2 *986:27 7.00889e-06
13 *3700:B1 *3700:B2 5.83121e-06
14 *3860:D *3700:B2 0.000331734
15 *427:55 *3700:B2 4.16262e-05
16 *435:22 *3700:B2 6.44053e-05
*RES
1 *3699:X *3700:B2 21.63 
*END

*D_NET *569 0.00408221
*CONN
*I *3702:B2 I *D sky130_fd_sc_hd__o22a_2
*I *3701:X O *D sky130_fd_sc_hd__mux2_1
*CAP
1 *3702:B2 0.000843373
2 *3701:X 0.000843373
3 *3702:B2 *3473:A 0.000470372
4 *3702:B2 *3702:A1 4.89395e-05
5 *3702:B2 *3704:B2 9.41272e-05
6 *3702:B2 *3898:CLK 0.000264606
7 *3702:B2 *4170:A 0.00011852
8 *3484:A2 *3702:B2 0.000423642
9 *3485:A *3702:B2 4.41506e-05
10 *3485:B *3702:B2 6.62684e-05
11 *3485:D *3702:B2 0.000287533
12 *3696:B1 *3702:B2 3.8121e-05
13 *3702:B1 *3702:B2 8.35068e-05
14 *3898:D *3702:B2 7.30505e-05
15 *3900:D *3702:B2 0.000119873
16 *562:14 *3702:B2 0.00026275
*RES
1 *3701:X *3702:B2 29.37 
*END

*D_NET *570 0.00155413
*CONN
*I *3704:B2 I *D sky130_fd_sc_hd__o22a_2
*I *3703:X O *D sky130_fd_sc_hd__mux2_1
*CAP
1 *3704:B2 0.000449178
2 *3703:X 0.000449178
3 *3704:B2 *3481:A 0
4 *3704:B2 *3481:B 0
5 *3704:B2 *3701:A1 0.000122337
6 *3704:B2 *3703:A1 8.65961e-05
7 *3704:B2 *4170:A 0.000206123
8 *3704:B2 *987:10 2.59981e-05
9 *3704:B2 *987:23 7.4538e-05
10 *3485:D *3704:B2 8.34904e-06
11 *3702:B2 *3704:B2 9.41272e-05
12 *427:29 *3704:B2 1.46744e-05
13 *427:43 *3704:B2 2.30292e-05
*RES
1 *3703:X *3704:B2 16.2 
*END

*D_NET *571 8.31248e-05
*CONN
*I *3714:A I *D sky130_fd_sc_hd__and4_2
*I *3705:Y O *D sky130_fd_sc_hd__xnor2_2
*CAP
1 *3714:A 1.72742e-05
2 *3705:Y 1.72742e-05
3 *3714:A *3714:B 4.85763e-05
*RES
1 *3705:Y *3714:A 3.65 
*END

*D_NET *572 0.000971892
*CONN
*I *3714:B I *D sky130_fd_sc_hd__and4_2
*I *3706:Y O *D sky130_fd_sc_hd__xnor2_2
*CAP
1 *3714:B 0.000425091
2 *3706:Y 0.000425091
3 *3714:B *3705:A 5.83121e-06
4 *3714:B *3705:B 2.93678e-05
5 *3714:B *3706:B 3.79351e-05
6 *3714:A *3714:B 4.85763e-05
*RES
1 *3706:Y *3714:B 12.315 
*END

*D_NET *573 0.000296188
*CONN
*I *3713:A I *D sky130_fd_sc_hd__and4_2
*I *3707:Y O *D sky130_fd_sc_hd__xnor2_2
*CAP
1 *3713:A 9.81569e-05
2 *3707:Y 9.81569e-05
3 *3713:A *3641:A1 0
4 *3713:A *3707:B 7.23602e-05
5 *3713:A *3713:B 2.75145e-05
*RES
1 *3707:Y *3713:A 8.88 
*END

*D_NET *574 0.000466292
*CONN
*I *3714:C I *D sky130_fd_sc_hd__and4_2
*I *3708:Y O *D sky130_fd_sc_hd__xnor2_2
*CAP
1 *3714:C 0.000196133
2 *3708:Y 0.000196133
3 *3714:C *3714:D 7.4027e-05
4 *3714:C *4091:A 0
5 *3714:C *588:16 0
*RES
1 *3708:Y *3714:C 10.62 
*END

*D_NET *575 0.000192441
*CONN
*I *3713:B I *D sky130_fd_sc_hd__and4_2
*I *3709:Y O *D sky130_fd_sc_hd__xnor2_2
*CAP
1 *3713:B 4.63454e-05
2 *3709:Y 4.63454e-05
3 *3713:B *3713:C 7.22354e-05
4 *3713:A *3713:B 2.75145e-05
*RES
1 *3709:Y *3713:B 4.34 
*END

*D_NET *576 0.000323082
*CONN
*I *3714:D I *D sky130_fd_sc_hd__and4_2
*I *3710:Y O *D sky130_fd_sc_hd__xnor2_2
*CAP
1 *3714:D 9.79941e-05
2 *3710:Y 9.79941e-05
3 *3714:D *3710:B 5.30673e-05
4 *3714:D *588:16 0
5 *3714:C *3714:D 7.4027e-05
*RES
1 *3710:Y *3714:D 8.865 
*END

*D_NET *577 0.0011942
*CONN
*I *3713:C I *D sky130_fd_sc_hd__and4_2
*I *3711:Y O *D sky130_fd_sc_hd__xnor2_2
*CAP
1 *3713:C 0.000492556
2 *3711:Y 0.000492556
3 *3713:C *3709:A 0.000136853
4 *3713:B *3713:C 7.22354e-05
*RES
1 *3711:Y *3713:C 10.835 
*END

*D_NET *578 0.00040827
*CONN
*I *3713:D I *D sky130_fd_sc_hd__and4_2
*I *3712:Y O *D sky130_fd_sc_hd__xnor2_2
*CAP
1 *3713:D 0.00020231
2 *3712:Y 0.00020231
3 *3713:D *3707:B 3.64998e-06
4 *3713:D *646:61 0
*RES
1 *3712:Y *3713:D 9.555 
*END

*D_NET *579 0.00227263
*CONN
*I *3717:A1 I *D sky130_fd_sc_hd__a21oi_2
*I *3715:A1 I *D sky130_fd_sc_hd__a21oi_2
*I *3713:X O *D sky130_fd_sc_hd__and4_2
*CAP
1 *3717:A1 0
2 *3715:A1 0.000211802
3 *3713:X 0.000452297
4 *579:10 0.000664099
5 *3715:A1 *3712:B 0.0001032
6 *3715:A1 *3715:A2 0.000123709
7 *3715:A1 *4172:A 3.23663e-05
8 *3715:A1 *582:23 6.86819e-05
9 *579:10 *3712:B 0.000175855
10 *579:10 *3905:CLK 0.000316415
11 *579:10 *3909:RESET_B 0
12 *579:10 *646:61 6.90876e-05
13 *3909:D *579:10 5.51158e-05
*RES
1 *3713:X *579:10 12.555 
2 *579:10 *3715:A1 8.625 
3 *579:10 *3717:A1 3.6 
*END

*D_NET *580 0.00412896
*CONN
*I *3717:A2 I *D sky130_fd_sc_hd__a21oi_2
*I *3715:A2 I *D sky130_fd_sc_hd__a21oi_2
*I *3714:X O *D sky130_fd_sc_hd__and4_2
*CAP
1 *3717:A2 0.000152501
2 *3715:A2 0.000152693
3 *3714:X 0.000615777
4 *580:10 0.000920971
5 *3715:A2 *3728:A 8.49205e-05
6 *3715:A2 *3728:B 2.8185e-05
7 *3715:A2 *4172:A 0.000387902
8 *3717:A2 *3730:A 0.0001947
9 *3717:A2 *3730:B 3.2288e-05
10 *3717:A2 *3730:C 0.000114492
11 *3717:A2 *3909:RESET_B 2.23485e-05
12 *3717:A2 *4397:A 0.000232116
13 *3717:A2 *582:10 2.16917e-05
14 *3717:A2 *588:49 0
15 *3717:A2 *973:66 0.000168384
16 *580:10 *3727:B 9.54399e-05
17 *580:10 *3909:RESET_B 1.1561e-05
18 *580:10 *588:49 0
19 *580:10 *619:14 0.000127476
20 *580:10 *632:22 0.000172117
21 *3715:A1 *3715:A2 0.000123709
22 *3907:D *580:10 0.000182349
23 *3908:D *580:10 0.000287337
*RES
1 *3714:X *580:10 15.09 
2 *580:10 *3715:A2 8.205 
3 *580:10 *3717:A2 8.73 
*END

*D_NET *581 0.0017766
*CONN
*I *3716:B I *D sky130_fd_sc_hd__nor2_2
*I *3715:Y O *D sky130_fd_sc_hd__a21oi_2
*CAP
1 *3716:B 0.000427479
2 *3715:Y 0.000427479
3 *3716:B *3715:B1 0.000446555
4 *3716:B *871:10 0
5 *3678:S *3716:B 0.00018305
6 *3716:A *3716:B 6.44051e-05
7 *3717:B1 *3716:B 0.000227634
*RES
1 *3715:Y *3716:B 18.045 
*END

*D_NET *582 0.00892302
*CONN
*I *3721:A I *D sky130_fd_sc_hd__and3_2
*I *3724:B I *D sky130_fd_sc_hd__and3b_2
*I *3727:C I *D sky130_fd_sc_hd__and3b_2
*I *3736:B I *D sky130_fd_sc_hd__and3b_2
*I *3742:A I *D sky130_fd_sc_hd__and3_2
*I *3739:A I *D sky130_fd_sc_hd__and3_2
*I *3733:B I *D sky130_fd_sc_hd__and3b_2
*I *3730:A I *D sky130_fd_sc_hd__and3_2
*I *3717:Y O *D sky130_fd_sc_hd__a21oi_2
*CAP
1 *3721:A 0.000282168
2 *3724:B 0
3 *3727:C 0.000104188
4 *3736:B 0.000377676
5 *3742:A 0
6 *3739:A 7.1577e-05
7 *3733:B 0
8 *3730:A 8.88116e-05
9 *3717:Y 8.89378e-05
10 *582:59 0.000480758
11 *582:44 0.000494956
12 *582:33 0.000839063
13 *582:31 0.000791789
14 *582:29 0.000329995
15 *582:23 0.000657305
16 *582:10 0.000391726
17 *3721:A *3721:C 1.83847e-05
18 *3721:A *3722:A1 0.000132192
19 *3721:A *3722:B1 3.73232e-05
20 *3721:A *3724:C 0.000197264
21 *3721:A *3726:A 7.25441e-05
22 *3727:C *3907:CLK 4.82319e-06
23 *3727:C *588:16 0
24 *3727:C *588:29 0.000116165
25 *3730:A *3730:C 4.82919e-05
26 *3736:B *3739:C 0.00011398
27 *3736:B *3740:A1 0.000112349
28 *3736:B *3740:A2 0.000122331
29 *3736:B *3741:A 0
30 *3736:B *3742:C 0
31 *3736:B *4397:A 6.90522e-05
32 *3736:B *595:24 0.000129306
33 *3736:B *595:30 0.00020613
34 *3736:B *976:21 1.07797e-05
35 *3739:A *3640:A0 2.84224e-05
36 *3739:A *3739:B 3.86529e-05
37 *3739:A *3739:C 0.000103177
38 *3739:A *916:77 0
39 *582:10 *4397:A 2.96334e-05
40 *582:23 *3712:B 0
41 *582:23 *3726:B 5.4003e-05
42 *582:23 *3909:RESET_B 0.000131008
43 *582:23 *632:22 8.68646e-05
44 *582:29 *3719:A 2.75145e-05
45 *582:29 *3724:C 0.0002459
46 *582:29 *3726:B 0.000278806
47 *582:29 *587:8 9.37731e-05
48 *582:29 *632:22 7.07879e-05
49 *582:31 *3719:A 0.000131077
50 *582:33 *3719:A 5.83121e-06
51 *582:33 *3721:B 7.67415e-06
52 *582:33 *3731:A2 8.31082e-05
53 *582:33 *3731:B1 0.00015473
54 *582:33 *588:29 4.7101e-05
55 *582:44 *3731:B1 1.08758e-05
56 *582:44 *3737:A 2.68526e-05
57 *582:44 *3737:B 1.9872e-05
58 *582:44 *3739:B 0.000233004
59 *582:59 *3739:C 0.00010131
60 *582:59 *3740:A1 4.82919e-05
61 *582:59 *3740:A2 4.82919e-05
62 *582:59 *3742:C 9.50342e-06
63 *3715:A1 *582:23 6.86819e-05
64 *3717:A2 *3730:A 0.0001947
65 *3717:A2 *582:10 2.16917e-05
66 *3908:D *3727:C 9.86689e-05
67 *3909:D *3730:A 2.16833e-05
68 *3909:D *582:10 1.16578e-05
69 *3912:D *3739:A 0
70 *3912:D *582:59 0
*RES
1 *3717:Y *582:10 3.46 
2 *582:10 *3730:A 3.79 
3 *582:10 *582:23 6.695 
4 *582:23 *582:29 6.89 
5 *582:29 *582:31 2.175 
6 *582:31 *582:33 6.66 
7 *582:33 *3733:B 1.6 
8 *582:33 *582:44 7.295 
9 *582:44 *3739:A 5.745 
10 *582:44 *582:59 4.595 
11 *582:59 *3742:A 1.6 
12 *582:59 *3736:B 13.85 
13 *582:31 *3727:C 7.88375 
14 *582:29 *3724:B 1.6 
15 *582:23 *3721:A 9.3 
*END

*D_NET *583 0.00389452
*CONN
*I *3722:A2 I *D sky130_fd_sc_hd__a21o_2
*I *3719:B I *D sky130_fd_sc_hd__or2_2
*I *3720:B I *D sky130_fd_sc_hd__nand2_2
*I *3723:C I *D sky130_fd_sc_hd__and3_2
*I *3718:X O *D sky130_fd_sc_hd__or2_2
*CAP
1 *3722:A2 0.000248173
2 *3719:B 0.000162082
3 *3720:B 0.000106193
4 *3723:C 7.56485e-05
5 *3718:X 6.47082e-05
6 *583:16 0.000265267
7 *583:12 0.000340751
8 *583:6 0.000408125
9 *3719:B *3719:A 0.000375944
10 *3719:B *3721:B 0.000268157
11 *3719:B *3722:A1 7.58604e-05
12 *3719:B *3724:A_N 8.65961e-05
13 *3719:B *3726:A 1.97849e-05
14 *3719:B *970:23 0.000112764
15 *3719:B *971:22 0.000117273
16 *3720:B *3708:B 0.000162325
17 *3720:B *3720:A 9.29751e-06
18 *3720:B *632:12 0
19 *3720:B *970:23 3.60648e-06
20 *3720:B *971:22 1.75056e-05
21 *3722:A2 *3721:B 9.41425e-05
22 *3722:A2 *3721:C 0.000533449
23 *3722:A2 *3906:RESET_B 0
24 *3722:A2 *4172:A 9.50342e-06
25 *3723:C *970:23 1.88904e-05
26 *583:6 *3726:A 4.82919e-05
27 *583:12 *3726:A 8.40213e-05
28 *583:12 *971:22 1.93834e-05
29 *583:16 *970:23 7.4509e-05
30 *583:16 *971:22 9.22701e-05
*RES
1 *3718:X *583:6 2.74 
2 *583:6 *583:12 3.7175 
3 *583:12 *583:16 2.595 
4 *583:16 *3723:C 4.6275 
5 *583:16 *3720:B 6.1275 
6 *583:12 *3719:B 9.5175 
7 *583:6 *3722:A2 11.825 
*END

*D_NET *584 0.0021255
*CONN
*I *3721:B I *D sky130_fd_sc_hd__and3_2
*I *3719:X O *D sky130_fd_sc_hd__or2_2
*CAP
1 *3721:B 0.000753478
2 *3719:X 0.000753478
3 *3721:B *3719:A 4.21973e-05
4 *3721:B *3722:A1 1.19928e-05
5 *3721:B *3724:A_N 8.65961e-05
6 *3721:B *3724:C 1.54049e-05
7 *3721:B *3906:RESET_B 4.40899e-05
8 *3721:B *588:29 4.82863e-05
9 *3719:B *3721:B 0.000268157
10 *3722:A2 *3721:B 9.41425e-05
11 *3906:D *3721:B 0
12 *582:33 *3721:B 7.67415e-06
*RES
1 *3719:X *3721:B 18.27 
*END

*D_NET *585 0.00247808
*CONN
*I *3721:C I *D sky130_fd_sc_hd__and3_2
*I *3720:Y O *D sky130_fd_sc_hd__nand2_2
*CAP
1 *3721:C 0.000452128
2 *3720:Y 0.000452128
3 *3721:C *3712:B 0
4 *3721:C *3720:A 0.000183036
5 *3721:C *3725:A1 0
6 *3721:C *3725:C1 9.54469e-05
7 *3721:C *3726:A 0.000534144
8 *3721:C *4172:A 5.69102e-05
9 *3721:C *875:58 0
10 *3721:C *971:22 0.000104009
11 *3721:C *972:12 4.84393e-05
12 *3721:A *3721:C 1.83847e-05
13 *3722:A2 *3721:C 0.000533449
*RES
1 *3720:Y *3721:C 19.605 
*END

*D_NET *586 0.00121384
*CONN
*I *3724:C I *D sky130_fd_sc_hd__and3b_2
*I *3722:X O *D sky130_fd_sc_hd__a21o_2
*CAP
1 *3724:C 0.00024983
2 *3722:X 0.00024983
3 *3724:C *3726:A 8.73389e-06
4 *3724:C *632:22 0.000246879
5 *3721:A *3724:C 0.000197264
6 *3721:B *3724:C 1.54049e-05
7 *582:29 *3724:C 0.0002459
*RES
1 *3722:X *3724:C 12.4237 
*END

*D_NET *587 0.00158171
*CONN
*I *3726:B I *D sky130_fd_sc_hd__or2_2
*I *3724:A_N I *D sky130_fd_sc_hd__and3b_2
*I *3723:X O *D sky130_fd_sc_hd__and3_2
*CAP
1 *3726:B 0.0001405
2 *3724:A_N 1.41735e-05
3 *3723:X 0.000130963
4 *587:8 0.000285636
5 *3726:B *971:22 8.18011e-05
6 *3726:B *971:44 0
7 *587:8 *632:12 3.68682e-05
8 *587:8 *632:22 6.23119e-05
9 *587:8 *970:23 0.00019282
10 *587:8 *971:22 3.68596e-05
11 *3719:B *3724:A_N 8.65961e-05
12 *3721:B *3724:A_N 8.65961e-05
13 *582:23 *3726:B 5.4003e-05
14 *582:29 *3726:B 0.000278806
15 *582:29 *587:8 9.37731e-05
*RES
1 *3723:X *587:8 7.53 
2 *587:8 *3724:A_N 4.395 
3 *587:8 *3726:B 7.53 
*END

*D_NET *588 0.00732661
*CONN
*I *3735:D I *D sky130_fd_sc_hd__and4_2
*I *3728:B I *D sky130_fd_sc_hd__nand2_2
*I *3729:B I *D sky130_fd_sc_hd__or2_2
*I *3727:A_N I *D sky130_fd_sc_hd__and3b_2
*I *3732:C I *D sky130_fd_sc_hd__and3_2
*I *3731:A2 I *D sky130_fd_sc_hd__a21o_2
*I *3725:X O *D sky130_fd_sc_hd__o2111a_2
*CAP
1 *3735:D 0.000561518
2 *3728:B 0.00021249
3 *3729:B 0
4 *3727:A_N 0
5 *3732:C 0.000659903
6 *3731:A2 8.85112e-05
7 *3725:X 0.000623657
8 *588:58 0.000795693
9 *588:49 0.000285754
10 *588:33 0.000706823
11 *588:29 0.000448558
12 *588:16 0.000849737
13 *3728:B *3728:A 9.02259e-05
14 *3728:B *3730:C 4.82919e-05
15 *3732:C *3732:A 0.000171328
16 *3732:C *3737:B 2.68464e-05
17 *3732:C *3907:CLK 9.07251e-05
18 *3732:C *4106:A 0
19 *3732:C *593:6 7.11235e-06
20 *3732:C *619:6 1.83756e-05
21 *3732:C *619:87 1.19928e-05
22 *3735:D *3735:A 0.00012438
23 *3735:D *3735:C 4.77757e-05
24 *3735:D *4397:A 0.00015721
25 *3735:D *973:25 0
26 *3735:D *973:66 0.000114761
27 *588:16 *3710:B 0.000502809
28 *588:16 *3723:A 4.00541e-06
29 *588:16 *4063:CLK 5.51245e-05
30 *588:16 *619:14 0
31 *588:16 *632:22 0
32 *588:16 *970:36 6.99541e-05
33 *588:16 *970:47 4.80285e-05
34 *588:29 *3731:A1 0
35 *588:29 *619:14 0
36 *588:33 *3907:CLK 0.000124895
37 *588:49 *3731:A1 0
38 *588:49 *973:25 0
39 *588:49 *973:66 5.53249e-06
40 *588:58 *973:25 0
41 *588:58 *973:66 3.05295e-05
42 *3714:C *588:16 0
43 *3714:D *588:16 0
44 *3715:A2 *3728:B 2.8185e-05
45 *3717:A2 *588:49 0
46 *3721:B *588:29 4.82863e-05
47 *3727:C *588:16 0
48 *3727:C *588:29 0.000116165
49 *3908:D *588:16 0
50 *3908:D *588:29 1.82476e-05
51 *3908:D *588:49 2.97004e-06
52 *580:10 *588:49 0
53 *582:33 *3731:A2 8.31082e-05
54 *582:33 *588:29 4.7101e-05
*RES
1 *3725:X *588:16 16.31 
2 *588:16 *3731:A2 3.43 
3 *588:16 *588:29 5.03 
4 *588:29 *588:33 3.14 
5 *588:33 *3732:C 9.91 
6 *588:33 *3727:A_N 1.6 
7 *588:29 *588:49 4.185 
8 *588:49 *3729:B 3.6 
9 *588:49 *588:58 0.615 
10 *588:58 *3728:B 7.08 
11 *588:58 *3735:D 11.97 
*END

*D_NET *589 0.000622084
*CONN
*I *3727:B I *D sky130_fd_sc_hd__and3b_2
*I *3726:X O *D sky130_fd_sc_hd__or2_2
*CAP
1 *3727:B 0.000134447
2 *3726:X 0.000134447
3 *3727:B *632:22 9.54399e-05
4 *3727:B *916:32 0.000162311
5 *580:10 *3727:B 9.54399e-05
*RES
1 *3726:X *3727:B 9.81 
*END

*D_NET *590 0.000293307
*CONN
*I *3730:B I *D sky130_fd_sc_hd__and3_2
*I *3728:Y O *D sky130_fd_sc_hd__nand2_2
*CAP
1 *3730:B 3.54133e-05
2 *3728:Y 3.54133e-05
3 *3730:B *3730:C 7.23602e-05
4 *3730:B *3909:RESET_B 0.000117832
5 *3717:A2 *3730:B 3.2288e-05
*RES
1 *3728:Y *3730:B 8.58 
*END

*D_NET *591 0.000599222
*CONN
*I *3730:C I *D sky130_fd_sc_hd__and3_2
*I *3729:X O *D sky130_fd_sc_hd__or2_2
*CAP
1 *3730:C 0.000122507
2 *3729:X 0.000122507
3 *3730:C *3909:RESET_B 4.39001e-05
4 *3730:C *973:66 2.68721e-05
5 *3717:A2 *3730:C 0.000114492
6 *3728:B *3730:C 4.82919e-05
7 *3730:A *3730:C 4.82919e-05
8 *3730:B *3730:C 7.23602e-05
*RES
1 *3729:X *3730:C 9.99 
*END

*D_NET *592 0.000314912
*CONN
*I *3733:C I *D sky130_fd_sc_hd__and3b_2
*I *3731:X O *D sky130_fd_sc_hd__a21o_2
*CAP
1 *3733:C 8.69452e-05
2 *3731:X 8.69452e-05
3 *3733:C *3731:B1 5.45795e-05
4 *3910:D *3733:C 8.64421e-05
*RES
1 *3731:X *3733:C 4.8575 
*END

*D_NET *593 0.00216909
*CONN
*I *3734:B I *D sky130_fd_sc_hd__or2_2
*I *3733:A_N I *D sky130_fd_sc_hd__and3b_2
*I *3732:X O *D sky130_fd_sc_hd__and3_2
*CAP
1 *3734:B 0.000409434
2 *3733:A_N 0.000109373
3 *3732:X 7.91304e-05
4 *593:6 0.000597937
5 *3733:A_N *3737:B 6.9669e-05
6 *3733:A_N *4091:A 6.06382e-05
7 *3734:B *3641:A1 1.77595e-05
8 *3734:B *3732:A 4.36954e-05
9 *3734:B *3732:B 8.41307e-05
10 *3734:B *3735:B 9.05649e-05
11 *3734:B *974:10 9.68709e-05
12 *3734:B *974:12 1.52184e-05
13 *3734:B *975:10 0.000159269
14 *3734:B *975:21 0.000106655
15 *593:6 *3732:A 2.68464e-05
16 *593:6 *3732:B 0.000122797
17 *593:6 *3737:B 6.61627e-05
18 *593:6 *3740:A2 5.83121e-06
19 *3732:C *593:6 7.11235e-06
*RES
1 *3732:X *593:6 3.43 
2 *593:6 *3733:A_N 7.745 
3 *593:6 *3734:B 14.345 
*END

*D_NET *594 0.000855503
*CONN
*I *3736:C I *D sky130_fd_sc_hd__and3b_2
*I *3734:X O *D sky130_fd_sc_hd__or2_2
*CAP
1 *3736:C 0.000285424
2 *3734:X 0.000285424
3 *3736:C *3735:C 4.66108e-05
4 *3736:C *4397:A 9.85031e-05
5 *3736:C *595:63 4.41021e-05
6 *3736:C *975:21 9.54399e-05
*RES
1 *3734:X *3736:C 11.2612 
*END

*D_NET *595 0.00410372
*CONN
*I *3736:A_N I *D sky130_fd_sc_hd__and3b_2
*I *3741:C I *D sky130_fd_sc_hd__nand3_2
*I *3738:B I *D sky130_fd_sc_hd__nand2_2
*I *3737:B I *D sky130_fd_sc_hd__or2_2
*I *3740:A2 I *D sky130_fd_sc_hd__a21o_2
*I *3735:X O *D sky130_fd_sc_hd__and4_2
*CAP
1 *3736:A_N 0
2 *3741:C 0.000177774
3 *3738:B 0
4 *3737:B 0.00013428
5 *3740:A2 0.000141094
6 *3735:X 4.81968e-05
7 *595:63 0.000314019
8 *595:30 0.000332411
9 *595:24 0.000395059
10 *595:8 0.000522465
11 *3737:B *3740:A1 2.05056e-05
12 *3737:B *976:21 2.68016e-05
13 *3737:B *976:23 4.88074e-05
14 *3740:A2 *3740:A1 0.000130445
15 *3740:A2 *3742:B 9.02174e-05
16 *3741:C *4397:A 0.000187526
17 *595:8 *4397:A 0.000194891
18 *595:24 *3741:A 0
19 *595:24 *3912:RESET_B 8.41307e-05
20 *595:24 *976:21 4.66108e-05
21 *595:30 *976:21 0.000183745
22 *595:63 *3741:A 0
23 *595:63 *4397:A 0.000127664
24 *3732:C *3737:B 2.68464e-05
25 *3733:A_N *3737:B 6.9669e-05
26 *3736:B *3740:A2 0.000122331
27 *3736:B *595:24 0.000129306
28 *3736:B *595:30 0.00020613
29 *3736:C *595:63 4.41021e-05
30 *3911:D *595:8 0.000158532
31 *582:44 *3737:B 1.9872e-05
32 *582:59 *3740:A2 4.82919e-05
33 *593:6 *3737:B 6.61627e-05
34 *593:6 *3740:A2 5.83121e-06
*RES
1 *3735:X *595:8 5.43 
2 *595:8 *595:24 8.285 
3 *595:24 *595:30 6.4 
4 *595:30 *3740:A2 5.155 
5 *595:30 *3737:B 8.825 
6 *595:24 *3738:B 1.6 
7 *595:8 *595:63 4.445 
8 *595:63 *3741:C 4.825 
9 *595:63 *3736:A_N 1.6 
*END

*D_NET *596 0.000862903
*CONN
*I *3739:B I *D sky130_fd_sc_hd__and3_2
*I *3737:X O *D sky130_fd_sc_hd__or2_2
*CAP
1 *3739:B 0.00025861
2 *3737:X 0.00025861
3 *3739:B *3640:A0 7.4027e-05
4 *3739:A *3739:B 3.86529e-05
5 *582:44 *3739:B 0.000233004
*RES
1 *3737:X *3739:B 10.935 
*END

*D_NET *597 0.00135294
*CONN
*I *3739:C I *D sky130_fd_sc_hd__and3_2
*I *3738:Y O *D sky130_fd_sc_hd__nand2_2
*CAP
1 *3739:C 0.000362782
2 *3738:Y 0.000362782
3 *3739:C *3706:B 0
4 *3739:C *3742:C 7.97083e-05
5 *3739:C *4311:A 0.000229203
6 *3739:C *916:77 0
7 *3739:C *976:23 0
8 *3736:B *3739:C 0.00011398
9 *3739:A *3739:C 0.000103177
10 *582:59 *3739:C 0.00010131
*RES
1 *3738:Y *3739:C 15.42 
*END

*D_NET *598 0.000596313
*CONN
*I *3742:B I *D sky130_fd_sc_hd__and3_2
*I *3740:X O *D sky130_fd_sc_hd__a21o_2
*CAP
1 *3742:B 0.000233425
2 *3740:X 0.000233425
3 *3742:B *3740:A1 1.17309e-05
4 *3742:B *3740:B1 2.75145e-05
5 *3740:A2 *3742:B 9.02174e-05
*RES
1 *3740:X *3742:B 6.77 
*END

*D_NET *599 0.000987369
*CONN
*I *3742:C I *D sky130_fd_sc_hd__and3_2
*I *3741:Y O *D sky130_fd_sc_hd__nand3_2
*CAP
1 *3742:C 0.00020981
2 *3741:Y 0.00020981
3 *3742:C *3740:B1 0
4 *3742:C *3741:A 0.000251595
5 *3742:C *977:25 3.86607e-05
6 *3736:B *3742:C 0
7 *3739:C *3742:C 7.97083e-05
8 *3912:D *3742:C 3.47754e-05
9 *3913:D *3742:C 0.000153507
10 *582:59 *3742:C 9.50342e-06
*RES
1 *3741:Y *3742:C 13.17 
*END

*D_NET *600 0.000788844
*CONN
*I *3744:A2 I *D sky130_fd_sc_hd__a21o_2
*I *3743:Y O *D sky130_fd_sc_hd__nor2_2
*CAP
1 *3744:A2 0.000358304
2 *3743:Y 0.000358304
3 *3914:D *3744:A2 7.22354e-05
*RES
1 *3743:Y *3744:A2 8.84 
*END

*D_NET *601 0.000547165
*CONN
*I *4071:TE_B I *D sky130_fd_sc_hd__ebufn_2
*I *3761:X O *D sky130_fd_sc_hd__buf_1
*CAP
1 *4071:TE_B 0.000227608
2 *3761:X 0.000227608
3 *4071:TE_B *3761:A 7.35729e-05
4 *4071:TE_B *4071:A 1.83756e-05
*RES
1 *3761:X *4071:TE_B 6.08 
*END

*D_NET *602 0.0027716
*CONN
*I *4073:TE_B I *D sky130_fd_sc_hd__ebufn_2
*I *3396:X O *D sky130_fd_sc_hd__and4_2
*CAP
1 *4073:TE_B 0.000789288
2 *3396:X 0.000789288
3 *4073:TE_B *3396:B 0.000124007
4 *4073:TE_B *3396:C 6.65725e-05
5 *4073:TE_B *3662:A2 1.47256e-05
6 *4073:TE_B *4073:A 1.62376e-05
7 *4073:TE_B *643:67 0
8 *4073:TE_B *889:57 0.00022972
9 *4073:TE_B *944:8 4.66742e-05
10 *3662:B1 *4073:TE_B 0.000378975
11 *3883:D *4073:TE_B 0.000316112
*RES
1 *3396:X *4073:TE_B 21.795 
*END

*D_NET *603 0.0158912
*CONN
*I *4078:A I *D sky130_fd_sc_hd__clkbuf_16
*I *4079:A I *D sky130_fd_sc_hd__clkbuf_16
*I *4077:A I *D sky130_fd_sc_hd__clkbuf_16
*I *4076:A I *D sky130_fd_sc_hd__clkbuf_16
*I *4075:X O *D sky130_fd_sc_hd__clkbuf_16
*CAP
1 *4078:A 7.14091e-05
2 *4079:A 5.43942e-05
3 *4077:A 7.48631e-05
4 *4076:A 9.46036e-05
5 *4075:X 6.10357e-05
6 *603:105 0.00143947
7 *603:63 0.000952275
8 *603:55 0.00344155
9 *603:43 0.00044066
10 *603:27 0.00162727
11 *603:13 0.00304527
12 *603:8 0.00238346
13 *4076:A *604:70 5.17221e-05
14 *4076:A *905:28 8.57024e-05
15 *4077:A *3454:A2 3.45588e-05
16 *4078:A *644:10 4.99567e-05
17 *4079:A *607:12 5.83121e-06
18 *603:13 *3433:B2 0
19 *603:13 *3451:A2 0
20 *603:13 *3468:B2 0
21 *603:13 *3744:B1 0.000137752
22 *603:13 *3896:D 0.000124858
23 *603:13 *3914:RESET_B 0
24 *603:13 *4017:CLK 6.55328e-05
25 *603:13 *4017:D 0
26 *603:13 *4019:CLK 0.000257954
27 *603:13 *4201:A 0
28 *603:13 *616:29 7.66727e-05
29 *603:13 *996:12 0
30 *603:13 *1008:10 0
31 *603:27 *3744:B1 4.59845e-05
32 *603:27 *4115:A 0.000101254
33 *603:27 *604:70 3.14043e-05
34 *603:43 *3892:D 7.80485e-05
35 *603:55 *3433:B2 0
36 *603:55 *3793:A2 0.000264587
37 *603:55 *3931:D 0
38 *603:55 *3985:CLK 1.09018e-05
39 *603:55 *878:16 0
40 *603:55 *894:83 0
41 *603:55 *996:12 0
42 *603:55 *1035:12 0
43 *603:63 *3422:A1_N 5.05066e-06
44 *603:63 *658:114 1.00941e-05
45 *603:105 *3790:B1 4.84202e-05
46 *603:105 *3791:A1 7.25441e-05
47 *603:105 *3791:A2 2.66864e-05
48 *603:105 *3985:CLK 1.38716e-05
49 *603:105 *4121:A 2.68464e-05
50 *603:105 *4153:A 0
51 *603:105 *4217:A 0
52 *603:105 *644:10 8.44338e-06
53 *603:105 *878:43 6.18964e-05
54 *603:105 *878:47 0.000259682
55 *603:105 *892:52 4.42423e-05
56 *603:105 *1035:12 0
57 *3438:A1 *603:105 3.64622e-05
58 *3914:D *603:13 0
59 *3931:SET_B *603:55 0
60 *3936:RESET_B *603:55 0
61 *4019:RESET_B *603:13 0
62 *4265:A *603:55 0.000110542
63 *109:14 *603:27 0
64 *111:10 *4077:A 1.44884e-05
65 *111:10 *603:43 3.12564e-05
66 *354:24 *603:105 1.17409e-05
*RES
1 *4075:X *603:8 4.395 
2 *603:8 *603:13 21.78 
3 *603:13 *603:27 9.54818 
4 *603:27 *4076:A 3.65875 
5 *603:13 *603:43 7.49 
6 *603:43 *4077:A 2.875 
7 *603:8 *603:55 20.6325 
8 *603:55 *603:63 3.25157 
9 *603:63 *4079:A 4.395 
10 *603:55 *603:105 25.0625 
11 *603:105 *4078:A 3.01 
*END

*D_NET *604 0.0182953
*CONN
*I *4089:A I *D sky130_fd_sc_hd__clkbuf_8
*I *4093:A I *D sky130_fd_sc_hd__clkbuf_8
*I *4090:A I *D sky130_fd_sc_hd__clkbuf_8
*I *4092:A I *D sky130_fd_sc_hd__clkbuf_8
*I *4080:A I *D sky130_fd_sc_hd__clkbuf_8
*I *4091:A I *D sky130_fd_sc_hd__clkbuf_8
*I *4076:X O *D sky130_fd_sc_hd__clkbuf_16
*CAP
1 *4089:A 0
2 *4093:A 0.000477199
3 *4090:A 0.000454674
4 *4092:A 0.000651637
5 *4080:A 0
6 *4091:A 0.000857758
7 *4076:X 0.0016751
8 *604:89 0.000747775
9 *604:70 0.00148339
10 *604:24 0.00124936
11 *604:12 0.00196019
12 *4090:A *3445:A 4.60814e-05
13 *4090:A *3445:B 0.000105243
14 *4090:A *618:12 8.46818e-05
15 *4090:A *646:43 0.000944843
16 *4090:A *1004:18 1.79098e-05
17 *4090:A *1004:26 0.000192002
18 *4091:A *3644:A0 0.000116853
19 *4091:A *3644:S 4.26222e-05
20 *4091:A *3705:A 0
21 *4091:A *3705:B 0.000105068
22 *4091:A *4062:RESET_B 2.10152e-05
23 *4091:A *4288:A 0.000332529
24 *4091:A *608:10 1.05476e-05
25 *4091:A *608:122 4.66108e-05
26 *4091:A *929:10 0
27 *4091:A *974:12 8.60912e-05
28 *4092:A *3620:B1 4.92014e-05
29 *4092:A *3620:B2 4.13171e-05
30 *4092:A *3622:A1 0.000139245
31 *4092:A *3622:A2 0.000211815
32 *4092:A *3622:B1 0.000139933
33 *4092:A *3699:A1 0.000400395
34 *4092:A *4064:RESET_B 6.63219e-06
35 *4092:A *4224:A 0
36 *4092:A *632:12 0
37 *4092:A *967:16 0
38 *4092:A *967:22 0.000160658
39 *4092:A *969:10 2.05661e-05
40 *4092:A *969:14 2.05661e-05
41 *4093:A *3470:B1 0.000183738
42 *4093:A *3470:B2 0.00011852
43 *4093:A *3806:A1 2.8694e-05
44 *4093:A *3954:RESET_B 3.05295e-05
45 *4093:A *3958:RESET_B 0.000144401
46 *4093:A *621:91 4.9253e-06
47 *4093:A *636:109 0.000211237
48 *4093:A *894:22 4.66108e-05
49 *4093:A *894:32 4.66108e-05
50 *4093:A *936:41 0
51 *604:12 *3623:A1 5.05716e-06
52 *604:12 *875:31 0.000568181
53 *604:12 *875:58 6.18378e-06
54 *604:24 *3755:A0 0.000122331
55 *604:24 *4062:RESET_B 0.000233126
56 *604:24 *4064:CLK 3.96653e-05
57 *604:24 *4290:A 2.20732e-05
58 *604:24 *608:122 0.00026087
59 *604:24 *967:16 5.05716e-06
60 *604:70 *3757:A0 0.000214272
61 *604:70 *4115:A 7.7241e-05
62 *604:70 *905:28 2.37694e-05
63 *604:89 *4249:A 0.000141592
64 *604:89 *646:43 0.000266511
65 *3449:B1 *4090:A 0.000137571
66 *3469:B1 *4093:A 2.97122e-05
67 *3469:B1 *604:89 0.000114492
68 *3694:B2 *4092:A 0
69 *3700:B2 *4092:A 0.000510959
70 *3714:C *4091:A 0
71 *3733:A_N *4091:A 6.06382e-05
72 *3902:D *4092:A 7.03276e-05
73 *3949:D *4090:A 0.00011852
74 *3955:D *4093:A 0.000118527
75 *3982:D *604:12 1.88602e-05
76 *4059:D *604:24 1.03833e-05
77 *4076:A *604:70 5.17221e-05
78 *4274:A *4092:A 0.000104671
79 *109:14 *4090:A 9.05649e-05
80 *109:14 *4093:A 0.000276064
81 *109:14 *604:89 0.000715662
82 *429:12 *4090:A 0.000134546
83 *603:27 *604:70 3.14043e-05
*RES
1 *4076:X *604:12 6.4681 
2 *604:12 *604:24 7.5549 
3 *604:24 *4091:A 22.22 
4 *604:24 *4080:A 1.6 
5 *604:12 *4092:A 20.6525 
6 *4076:X *604:70 13.95 
7 *604:70 *4090:A 16.23 
8 *604:70 *604:89 11.42 
9 *604:89 *4093:A 18.11 
10 *604:89 *4089:A 1.6 
*END

*D_NET *605 0.0164025
*CONN
*I *4084:A I *D sky130_fd_sc_hd__clkbuf_8
*I *4085:A I *D sky130_fd_sc_hd__clkbuf_8
*I *4086:A I *D sky130_fd_sc_hd__clkbuf_8
*I *4101:A I *D sky130_fd_sc_hd__clkbuf_8
*I *4088:A I *D sky130_fd_sc_hd__clkbuf_8
*I *4087:A I *D sky130_fd_sc_hd__clkbuf_8
*I *4077:X O *D sky130_fd_sc_hd__clkbuf_16
*CAP
1 *4084:A 0.00146706
2 *4085:A 0.000675586
3 *4086:A 6.66417e-05
4 *4101:A 0
5 *4088:A 9.15553e-05
6 *4087:A 0.00036392
7 *4077:X 0.00114231
8 *605:56 0.00166263
9 *605:46 0.00323379
10 *605:14 0.000455475
11 *605:12 0.000295982
12 *4084:A *3548:B1 0.000314917
13 *4084:A *3563:A 1.34594e-05
14 *4084:A *3626:A1 0.000365334
15 *4084:A *3820:A1 2.05056e-05
16 *4084:A *881:103 0.000158297
17 *4085:A *3635:B 4.77807e-05
18 *4085:A *3648:A_N 0.000147688
19 *4085:A *3973:RESET_B 7.18107e-06
20 *4085:A *4128:A 0.000121043
21 *4085:A *4268:A 6.69327e-05
22 *4085:A *613:10 0.0001076
23 *4085:A *654:10 0.000122817
24 *4085:A *1012:14 8.41384e-05
25 *4086:A *3649:A_N 0.000112539
26 *4086:A *4379:A 0.000112037
27 *4086:A *614:101 4.77807e-05
28 *4087:A *3454:A2 0.0004706
29 *4087:A *3683:A_N 0.000116158
30 *4087:A *3685:B2 0.000165222
31 *4087:A *802:12 9.33923e-05
32 *4087:A *990:12 0.000135258
33 *4087:A *990:18 0.000126193
34 *4088:A *3454:A2 0.000150453
35 *4088:A *3683:A_N 2.92496e-05
36 *4088:A *990:18 9.87616e-05
37 *4088:A *1003:18 0.000310636
38 *605:12 *3456:A2 7.89767e-05
39 *605:12 *3682:B1 4.66108e-05
40 *605:12 *616:78 0.000141606
41 *605:46 *3893:CLK 0.000108031
42 *605:46 *994:8 5.0751e-05
43 *605:56 *3655:A_N 0
44 *605:56 *3656:A1 1.56428e-05
45 *605:56 *3680:A1_N 0
46 *605:56 *4168:A 0.000725762
47 *605:56 *4268:A 0.000122202
48 *605:56 *4384:A 6.71349e-05
49 *605:56 *994:18 0
50 *3493:A *4084:A 9.37731e-05
51 *3562:B *4084:A 4.82919e-05
52 *3564:C *4084:A 0
53 *3684:B2 *4087:A 0.000487985
54 *3893:D *605:46 0.000124895
55 *3973:D *605:56 0
56 *4012:RESET_B *4084:A 0.000232105
57 *4341:A *4085:A 0.000233597
58 *457:12 *4084:A 0.000193757
59 *498:12 *4084:A 0
60 *498:21 *4084:A 0.000540225
61 *559:10 *4087:A 0
62 *559:10 *605:12 9.02174e-05
*RES
1 *4077:X *605:12 11.48 
2 *605:12 *605:14 2 
3 *605:14 *4087:A 14.88 
4 *605:14 *4088:A 7.53 
5 *605:12 *4101:A 1.6 
6 *4077:X *605:46 11.365 
7 *605:46 *605:56 23.41 
8 *605:56 *4086:A 7.43 
9 *605:56 *4085:A 13.435 
10 *605:46 *4084:A 30.305 
*END

*D_NET *606 0.0151257
*CONN
*I *4097:A I *D sky130_fd_sc_hd__clkbuf_8
*I *4098:A I *D sky130_fd_sc_hd__clkbuf_8
*I *4095:A I *D sky130_fd_sc_hd__clkbuf_8
*I *4096:A I *D sky130_fd_sc_hd__clkbuf_8
*I *4102:A I *D sky130_fd_sc_hd__clkbuf_8
*I *4094:A I *D sky130_fd_sc_hd__clkbuf_8
*I *4078:X O *D sky130_fd_sc_hd__clkbuf_16
*CAP
1 *4097:A 0.00113189
2 *4098:A 0.000401407
3 *4095:A 0.000950307
4 *4096:A 3.18209e-05
5 *4102:A 0
6 *4094:A 0.000551377
7 *4078:X 0.000366321
8 *606:67 0.00203689
9 *606:45 0.00246445
10 *606:35 0.00228351
11 *606:8 0.0006201
12 *4094:A *3789:A2 0
13 *4094:A *4041:CLK 0
14 *4094:A *4041:D 4.22604e-05
15 *4094:A *4073:A 2.97004e-06
16 *4094:A *4151:A 0.000260999
17 *4094:A *622:126 0
18 *4094:A *643:67 0
19 *4094:A *643:76 0
20 *4094:A *643:89 0
21 *4095:A *3752:A1 0.00026449
22 *4095:A *4056:D 4.47819e-05
23 *4095:A *4305:A 1.07797e-05
24 *4095:A *4390:A 2.49909e-05
25 *4095:A *4395:A 0
26 *4095:A *623:101 4.77757e-05
27 *4095:A *640:28 0
28 *4095:A *640:35 0
29 *4097:A *3381:A1 0.000150453
30 *4097:A *4237:A 7.5416e-05
31 *4097:A *625:80 0.000222228
32 *4097:A *891:62 0.000122885
33 *4097:A *1044:8 1.56428e-05
34 *4098:A *1051:10 8.8266e-05
35 *606:8 *3789:A2 0
36 *606:8 *4151:A 0.000131401
37 *606:35 *3789:A1 7.21296e-06
38 *606:35 *3789:A2 5.02217e-05
39 *606:45 *3388:A1 0.000599902
40 *606:45 *3766:A1 0.000160635
41 *606:45 *3917:D 0.000198939
42 *606:45 *624:10 4.82919e-05
43 *606:45 *779:10 8.40213e-05
44 *606:67 *3381:A1 5.4003e-05
45 *606:67 *4219:A 0.00020272
46 *606:67 *891:49 0.000132721
47 *606:67 *891:62 0.000414998
48 *3515:A_N *4097:A 2.49909e-05
49 *3515:C *4097:A 5.20391e-05
50 *3920:D *4097:A 0.000122331
51 *3941:D *606:35 0
52 *3941:RESET_B *606:35 2.87867e-05
53 *3997:D *4098:A 1.87432e-06
54 *4041:RESET_B *4094:A 6.64979e-05
55 *4220:A *606:45 3.99879e-05
56 *4277:A *4095:A 0.000116853
57 *11:10 *4094:A 0
58 *359:61 *4095:A 0.000160665
59 *396:14 *4098:A 0.000147781
60 *396:16 *4097:A 3.85943e-05
61 *396:20 *4097:A 2.81884e-05
*RES
1 *4078:X *606:8 5.235 
2 *606:8 *4094:A 14.16 
3 *606:8 *4102:A 3.6 
4 *4078:X *606:35 7.905 
5 *606:35 *606:45 25.01 
6 *606:45 *4096:A 2.05 
7 *606:45 *4095:A 22.22 
8 *606:35 *606:67 12.855 
9 *606:67 *4098:A 10.38 
10 *606:67 *4097:A 19.14 
*END

*D_NET *607 0.01881
*CONN
*I *4081:A I *D sky130_fd_sc_hd__clkbuf_8
*I *4100:A I *D sky130_fd_sc_hd__clkbuf_8
*I *4105:A I *D sky130_fd_sc_hd__clkbuf_8
*I *4082:A I *D sky130_fd_sc_hd__clkbuf_8
*I *4083:A I *D sky130_fd_sc_hd__clkbuf_8
*I *4099:A I *D sky130_fd_sc_hd__clkbuf_8
*I *4079:X O *D sky130_fd_sc_hd__clkbuf_16
*CAP
1 *4081:A 0.000958583
2 *4100:A 0.00033129
3 *4105:A 0
4 *4082:A 0.00105213
5 *4083:A 0.000312531
6 *4099:A 0.00035106
7 *4079:X 6.80628e-05
8 *607:78 0.00185665
9 *607:27 0.00156502
10 *607:16 0.000703138
11 *607:12 0.000698611
12 *607:6 0.00118173
13 *4081:A *3604:A 0
14 *4081:A *661:53 0.000301319
15 *4081:A *887:67 0.0011746
16 *4081:A *901:51 2.20732e-05
17 *4081:A *901:59 1.03323e-05
18 *4082:A *3521:A 1.82561e-05
19 *4082:A *3831:A1 8.65905e-05
20 *4082:A *3831:A2 4.21889e-05
21 *4082:A *3831:B1 0.000319127
22 *4082:A *4103:A 8.8266e-05
23 *4082:A *4145:A 0.000722501
24 *4082:A *658:50 1.91597e-05
25 *4082:A *660:64 0.000458069
26 *4082:A *662:80 0
27 *4083:A *611:102 0
28 *4083:A *611:113 0
29 *4083:A *611:132 0
30 *4083:A *658:50 0.000180682
31 *4083:A *1089:22 5.98004e-06
32 *4099:A *3423:A 5.05521e-05
33 *4099:A *3428:B1 2.30292e-05
34 *4099:A *3521:A 9.36114e-05
35 *4099:A *3625:B 0.00102881
36 *4099:A *658:56 0.000163204
37 *4099:A *658:60 0.000293598
38 *4099:A *658:64 0.000577747
39 *4100:A *3845:A1 2.0514e-05
40 *4100:A *3845:B1 7.22354e-05
41 *4100:A *659:58 6.18754e-05
42 *4100:A *887:67 0.000235573
43 *4100:A *899:72 1.47256e-05
44 *4100:A *899:82 3.23663e-05
45 *4100:A *901:59 0
46 *4100:A *901:69 5.16418e-05
47 *607:12 *3422:A1_N 0.000339879
48 *607:12 *3426:A2 0.000111088
49 *607:12 *658:114 0
50 *607:16 *3422:A1_N 0.000175207
51 *607:16 *3426:A2 7.3664e-05
52 *607:16 *658:114 0
53 *607:16 *997:10 0.000141606
54 *607:27 *3776:A1 4.99619e-05
55 *607:27 *658:50 0.000151672
56 *607:27 *658:56 0.000186393
57 *607:27 *885:28 3.00381e-05
58 *607:78 *662:41 0.000179814
59 *607:78 *662:52 0.000406778
60 *607:78 *885:62 0
61 *607:78 *885:93 0
62 *607:78 *899:28 0.000406778
63 *607:78 *899:47 0.000139245
64 *607:78 *899:68 3.86802e-05
65 *607:78 *899:116 7.30547e-05
66 *3521:B *4083:A 0
67 *3608:B *4081:A 0.00043044
68 *3932:RESET_B *4083:A 8.97642e-05
69 *4018:D *4082:A 9.50342e-06
70 *4039:D *607:78 0
71 *4039:RESET_B *607:78 9.71067e-05
72 *4043:RESET_B *4100:A 5.21046e-05
73 *4079:A *607:12 5.83121e-06
74 *360:14 *4099:A 0.00030948
75 *518:35 *4081:A 6.44307e-05
*RES
1 *4079:X *607:6 2.395 
2 *607:6 *607:12 10.175 
3 *607:12 *607:16 5.675 
4 *607:16 *4099:A 16.21 
5 *607:16 *607:27 4.59 
6 *607:27 *4083:A 11.57 
7 *607:27 *4082:A 27.035 
8 *607:12 *4105:A 3.6 
9 *607:6 *607:78 17.365 
10 *607:78 *4100:A 12.08 
11 *607:78 *4081:A 25.88 
*END

*D_NET *608 0.0101683
*CONN
*I *4064:CLK I *D sky130_fd_sc_hd__dfrtp_2
*I *4058:CLK I *D sky130_fd_sc_hd__dfrtp_2
*I *4059:CLK I *D sky130_fd_sc_hd__dfrtp_2
*I *3903:CLK I *D sky130_fd_sc_hd__dfrtp_2
*I *3901:CLK I *D sky130_fd_sc_hd__dfrtp_2
*I *3902:CLK I *D sky130_fd_sc_hd__dfrtp_2
*I *4062:CLK I *D sky130_fd_sc_hd__dfrtp_2
*I *3868:CLK I *D sky130_fd_sc_hd__dfrtp_2
*I *3874:CLK I *D sky130_fd_sc_hd__dfrtp_2
*I *3872:CLK I *D sky130_fd_sc_hd__dfrtp_2
*I *4057:CLK I *D sky130_fd_sc_hd__dfrtp_2
*I *4080:X O *D sky130_fd_sc_hd__clkbuf_8
*CAP
1 *4064:CLK 3.04453e-05
2 *4058:CLK 0.00031793
3 *4059:CLK 0.000228409
4 *3903:CLK 0.000141417
5 *3901:CLK 9.26306e-05
6 *3902:CLK 0.000196841
7 *4062:CLK 1.85694e-05
8 *3868:CLK 0.000231798
9 *3874:CLK 8.18584e-05
10 *3872:CLK 0
11 *4057:CLK 3.60646e-05
12 *4080:X 9.29077e-05
13 *608:128 0.000630749
14 *608:122 0.0002887
15 *608:79 0.000373179
16 *608:77 0.000673445
17 *608:42 0.000393237
18 *608:33 0.000425233
19 *608:27 0.000941847
20 *608:21 0.00102595
21 *608:10 0.000127669
22 *608:6 0.000358358
23 *3868:CLK *3646:A1 0
24 *3902:CLK *3699:A1 0
25 *3902:CLK *3902:RESET_B 9.47017e-05
26 *4057:CLK *4062:RESET_B 1.42807e-05
27 *4058:CLK *4059:RESET_B 0.000231414
28 *4058:CLK *914:57 0.000176511
29 *4058:CLK *967:10 2.75229e-05
30 *4064:CLK *4290:A 4.41506e-05
31 *608:6 *4062:RESET_B 3.08892e-05
32 *608:10 *4062:RESET_B 3.03465e-05
33 *608:27 *4062:RESET_B 0.000118276
34 *608:27 *964:12 5.83703e-05
35 *608:33 *3644:A1 7.5431e-05
36 *608:33 *3646:S 0
37 *608:77 *3753:A0 4.05358e-05
38 *608:77 *3758:A0 0
39 *608:77 *4057:D 0.000116853
40 *608:77 *4288:A 2.92496e-05
41 *608:77 *792:10 0
42 *608:77 *964:12 0.000110767
43 *608:77 *964:37 3.24396e-05
44 *608:122 *4062:RESET_B 3.99501e-05
45 *608:122 *4290:A 8.56473e-05
46 *608:128 *4288:A 0
47 *608:128 *792:10 0.000160658
48 *3698:A2 *3902:CLK 4.28943e-05
49 *3698:A2 *608:77 0.000111547
50 *3698:A2 *608:79 0.000155054
51 *3698:B1 *3901:CLK 0.000235335
52 *3698:B1 *608:77 0
53 *3698:B1 *608:79 0
54 *3698:B2 *608:77 0
55 *3702:A2 *3902:CLK 0.000161986
56 *3874:D *3868:CLK 8.53113e-06
57 *3874:D *608:33 0.000120186
58 *3874:D *608:42 0.000164679
59 *3901:D *3901:CLK 7.27003e-05
60 *3902:D *3902:CLK 2.99553e-05
61 *3903:D *3903:CLK 9.59596e-05
62 *4059:D *4058:CLK 2.76356e-05
63 *4059:D *4059:CLK 0.000148843
64 *4062:D *608:27 0.00021012
65 *4091:A *608:10 1.05476e-05
66 *4091:A *608:122 4.66108e-05
67 *604:24 *4064:CLK 3.96653e-05
68 *604:24 *608:122 0.00026087
*RES
1 *4080:X *608:6 3.085 
2 *608:6 *608:10 3.635 
3 *608:10 *4057:CLK 4.215 
4 *608:10 *608:21 2 
5 *608:21 *608:27 7.815 
6 *608:27 *608:33 8.195 
7 *608:33 *3872:CLK 3.6 
8 *608:33 *608:42 1.89 
9 *608:42 *3874:CLK 4.755 
10 *608:42 *3868:CLK 7.14 
11 *608:27 *4062:CLK 1.96 
12 *608:21 *608:77 9.875 
13 *608:77 *608:79 1.89 
14 *608:79 *3902:CLK 8.04 
15 *608:79 *3901:CLK 6.135 
16 *608:77 *3903:CLK 6.12 
17 *608:6 *608:122 4.725 
18 *608:122 *608:128 5.89 
19 *608:128 *4059:CLK 5.5 
20 *608:128 *4058:CLK 7.915 
21 *608:122 *4064:CLK 2.395 
*END

*D_NET *609 0.0120242
*CONN
*I *4030:CLK I *D sky130_fd_sc_hd__dfrtp_2
*I *4031:CLK I *D sky130_fd_sc_hd__dfrtp_2
*I *4032:CLK I *D sky130_fd_sc_hd__dfrtp_2
*I *4029:CLK I *D sky130_fd_sc_hd__dfrtp_2
*I *4025:CLK I *D sky130_fd_sc_hd__dfrtp_2
*I *4027:CLK I *D sky130_fd_sc_hd__dfrtp_2
*I *4028:CLK I *D sky130_fd_sc_hd__dfrtp_2
*I *4112:A I *D sky130_fd_sc_hd__clkinv_2
*I *4033:CLK I *D sky130_fd_sc_hd__dfrtp_2
*I *4034:CLK I *D sky130_fd_sc_hd__dfrtp_2
*I *4081:X O *D sky130_fd_sc_hd__clkbuf_8
*CAP
1 *4030:CLK 5.11311e-05
2 *4031:CLK 5.21799e-05
3 *4032:CLK 0.000705472
4 *4029:CLK 0
5 *4025:CLK 0.000407247
6 *4027:CLK 0.000218828
7 *4028:CLK 0
8 *4112:A 2.08101e-05
9 *4033:CLK 0
10 *4034:CLK 0.00030537
11 *4081:X 0
12 *609:95 0.000986566
13 *609:86 0.000323456
14 *609:82 0.000309319
15 *609:54 0.00083588
16 *609:43 0.000526609
17 *609:12 0.00127081
18 *609:6 0.0012403
19 *609:4 0.000734497
20 *4025:CLK *3591:B 0
21 *4025:CLK *3636:A1 0
22 *4025:CLK *4026:CLK 7.52729e-05
23 *4025:CLK *4159:A 0.000116151
24 *4025:CLK *661:30 0
25 *4025:CLK *887:14 0.000162396
26 *4025:CLK *887:52 2.09673e-05
27 *4025:CLK *1110:14 3.86607e-05
28 *4027:CLK *3591:B 2.57675e-05
29 *4027:CLK *1109:14 3.34117e-05
30 *4032:CLK *3599:A1 0
31 *4032:CLK *3605:A1 0.000307702
32 *4032:CLK *1099:8 8.65905e-05
33 *4032:CLK *1099:14 0
34 *4034:CLK *3501:B 8.76033e-05
35 *4034:CLK *3501:C 1.73877e-05
36 *4034:CLK *3612:B1 0.00013521
37 *4034:CLK *3615:B1 0.000141606
38 *4034:CLK *4299:A 1.01661e-05
39 *4034:CLK *903:25 0
40 *4034:CLK *1100:10 0.000166765
41 *609:12 *1100:10 5.83735e-05
42 *609:12 *1100:34 1.45272e-05
43 *609:43 *3587:C1 0.000330194
44 *609:43 *3594:B1 0
45 *609:43 *4312:A 0.000110683
46 *609:43 *903:80 0.000141633
47 *609:43 *903:110 9.4229e-05
48 *609:43 *903:125 6.36578e-05
49 *609:43 *1110:33 8.8798e-05
50 *609:54 *3591:B 1.48502e-06
51 *609:86 *3597:A1 0
52 *609:95 *3597:A1 0
53 *609:95 *3599:A1 0
54 *609:95 *3600:A 1.88904e-05
55 *609:95 *3601:A 0
56 *609:95 *3602:B 5.65627e-05
57 *609:95 *3602:D 0
58 *3503:B *609:95 7.06865e-05
59 *3596:B *609:43 7.63125e-05
60 *3601:B *4032:CLK 7.12228e-06
61 *3601:B *609:95 5.53249e-06
62 *3608:B *4034:CLK 0.000166346
63 *4026:RESET_B *4025:CLK 0
64 *4027:D *4027:CLK 0.000159987
65 *4027:D *609:54 0.000199074
66 *4028:D *609:43 9.54399e-05
67 *4028:D *609:54 4.27173e-05
68 *4028:RESET_B *4025:CLK 0
69 *4028:RESET_B *4027:CLK 0
70 *4031:D *4031:CLK 4.99619e-05
71 *4032:RESET_B *4032:CLK 0
72 *4033:D *609:12 9.27326e-05
73 *4033:RESET_B *609:12 1.59221e-05
74 *4034:D *4034:CLK 3.89528e-05
75 *511:50 *4027:CLK 0.000169368
76 *511:82 *609:86 0.000183043
77 *511:82 *609:95 6.52181e-05
78 *518:12 *4027:CLK 0
79 *518:27 *609:43 0.000192663
80 *531:14 *4034:CLK 0
*RES
1 *4081:X *609:4 1.6 
2 *609:4 *609:6 3.555 
3 *609:6 *609:12 11.34 
4 *609:12 *4034:CLK 13.655 
5 *609:12 *4033:CLK 1.6 
6 *609:6 *4112:A 1.96 
7 *609:4 *609:43 14.05 
8 *609:43 *4028:CLK 1.6 
9 *609:43 *609:54 6.0575 
10 *609:54 *4027:CLK 8.0625 
11 *609:54 *4025:CLK 12.3675 
12 *609:4 *609:82 2.175 
13 *609:82 *609:86 4.145 
14 *609:86 *4029:CLK 3.6 
15 *609:86 *609:95 4.185 
16 *609:95 *4032:CLK 15.39 
17 *609:95 *4031:CLK 4.5 
18 *609:82 *4030:CLK 2.395 
*END

*D_NET *610 0.0113186
*CONN
*I *3865:CLK I *D sky130_fd_sc_hd__dfrtp_2
*I *3864:CLK I *D sky130_fd_sc_hd__dfrtp_2
*I *3855:CLK I *D sky130_fd_sc_hd__dfstp_2
*I *4026:CLK I *D sky130_fd_sc_hd__dfrtp_2
*I *3854:CLK I *D sky130_fd_sc_hd__dfstp_2
*I *4024:CLK I *D sky130_fd_sc_hd__dfrtp_2
*I *4023:CLK I *D sky130_fd_sc_hd__dfrtp_2
*I *4000:CLK I *D sky130_fd_sc_hd__dfrtp_2
*I *4001:CLK I *D sky130_fd_sc_hd__dfrtp_2
*I *4103:A I *D sky130_fd_sc_hd__clkinv_2
*I *4082:X O *D sky130_fd_sc_hd__clkbuf_8
*CAP
1 *3865:CLK 0
2 *3864:CLK 0
3 *3855:CLK 0.0005188
4 *4026:CLK 0.000331454
5 *3854:CLK 0
6 *4024:CLK 0.000225565
7 *4023:CLK 0.000144202
8 *4000:CLK 0.000105519
9 *4001:CLK 0.000154022
10 *4103:A 0.000145129
11 *4082:X 0.000138501
12 *610:98 0.00061015
13 *610:94 0.000211402
14 *610:81 0.000590008
15 *610:47 0.000757038
16 *610:25 0.000473683
17 *610:23 0.00110077
18 *610:19 0.000948404
19 *610:4 0.00059418
20 *3855:CLK *3516:A 9.50342e-06
21 *3855:CLK *3637:A0 0
22 *4023:CLK *4158:A 0.000171845
23 *4024:CLK *662:33 1.54837e-05
24 *4024:CLK *1104:10 0
25 *4026:CLK *3351:A 9.03653e-05
26 *4026:CLK *3499:A_N 0
27 *4026:CLK *3516:B 0
28 *4026:CLK *3591:B 5.4003e-05
29 *4026:CLK *4145:A 0.000163019
30 *4026:CLK *886:16 0
31 *4026:CLK *887:14 0.00046962
32 *4026:CLK *887:52 3.16237e-05
33 *4026:CLK *1068:19 0
34 *4103:A *4145:A 8.43946e-05
35 *4103:A *660:64 0.000239807
36 *610:19 *660:31 0
37 *610:19 *660:64 0
38 *610:23 *1087:10 0.000261123
39 *610:25 *4132:A 0.000187759
40 *610:47 *4132:A 0.000232258
41 *610:47 *660:68 0
42 *610:47 *886:33 0
43 *610:47 *1104:10 0
44 *610:81 *4145:A 0.000270415
45 *610:81 *685:10 1.83756e-05
46 *610:94 *918:6 1.56428e-05
47 *610:98 *3516:A 0.000104287
48 *610:98 *3516:B 1.07797e-05
49 *610:98 *886:16 0.000137571
50 *610:98 *1068:19 0
51 *3497:C1 *610:19 0.000333503
52 *3533:A *4001:CLK 3.00381e-05
53 *3533:B *4001:CLK 7.60965e-05
54 *3533:C *4001:CLK 2.96426e-05
55 *3535:A2 *4001:CLK 0
56 *3579:A1 *4023:CLK 0.000142661
57 *3579:A1 *4024:CLK 0
58 *3865:D *3855:CLK 0
59 *3865:D *610:98 0
60 *4000:D *4001:CLK 9.54399e-05
61 *4018:RESET_B *610:25 0
62 *4022:RESET_B *610:47 0.000362271
63 *4023:D *4024:CLK 0
64 *4023:D *610:47 0
65 *4023:RESET_B *610:47 5.92191e-05
66 *4025:CLK *4026:CLK 7.52729e-05
67 *4025:D *4026:CLK 0.000289698
68 *4025:RESET_B *610:19 6.55328e-05
69 *4082:A *4103:A 8.8266e-05
70 *4188:A *3855:CLK 5.42386e-05
71 *481:8 *4001:CLK 0
72 *481:8 *610:25 0
*RES
1 *4082:X *610:4 1.6 
2 *610:4 *4103:A 5.155 
3 *610:4 *610:19 12.175 
4 *610:19 *610:23 11.075 
5 *610:23 *610:25 4.185 
6 *610:25 *4001:CLK 7.14 
7 *610:25 *4000:CLK 5.085 
8 *610:23 *610:47 8.265 
9 *610:47 *4023:CLK 7.5 
10 *610:47 *4024:CLK 6.735 
11 *610:19 *3854:CLK 1.6 
12 *4082:X *610:81 4.465 
13 *610:81 *4026:CLK 15.65 
14 *610:81 *610:94 1.83 
15 *610:94 *610:98 4.145 
16 *610:98 *3855:CLK 11.025 
17 *610:98 *3864:CLK 3.6 
18 *610:94 *3865:CLK 1.6 
*END

*D_NET *611 0.0119593
*CONN
*I *4022:CLK I *D sky130_fd_sc_hd__dfrtp_2
*I *3928:CLK I *D sky130_fd_sc_hd__dfstp_2
*I *4104:A I *D sky130_fd_sc_hd__clkbuf_4
*I *4018:CLK I *D sky130_fd_sc_hd__dfrtp_2
*I *3937:CLK I *D sky130_fd_sc_hd__dfrtp_2
*I *3975:CLK I *D sky130_fd_sc_hd__dfrtp_2
*I *3932:CLK I *D sky130_fd_sc_hd__dfrtp_2
*I *3935:CLK I *D sky130_fd_sc_hd__dfrtp_2
*I *3933:CLK I *D sky130_fd_sc_hd__dfrtp_2
*I *3980:CLK I *D sky130_fd_sc_hd__dfrtp_2
*I *4015:CLK I *D sky130_fd_sc_hd__dfrtp_2
*I *4020:CLK I *D sky130_fd_sc_hd__dfrtp_2
*I *4083:X O *D sky130_fd_sc_hd__clkbuf_8
*CAP
1 *4022:CLK 0.000199242
2 *3928:CLK 0.000171908
3 *4104:A 9.71884e-06
4 *4018:CLK 0.000332617
5 *3937:CLK 0.000384517
6 *3975:CLK 0.000273213
7 *3932:CLK 0.000127564
8 *3935:CLK 0
9 *3933:CLK 0.000105956
10 *3980:CLK 1.51124e-05
11 *4015:CLK 0.000471374
12 *4020:CLK 7.82332e-05
13 *4083:X 0
14 *611:132 0.000666686
15 *611:113 0.000435153
16 *611:102 0.000591422
17 *611:87 0.000513424
18 *611:58 0.000209835
19 *611:52 0.000400552
20 *611:14 0.000646595
21 *611:12 0.000227754
22 *611:10 0.000394652
23 *611:8 0.000473918
24 *611:4 0.000255807
25 *3928:CLK *885:28 0.000121876
26 *3928:CLK *899:28 0.000120186
27 *3937:CLK *3826:A2 1.08758e-05
28 *3937:CLK *3937:D 5.60711e-05
29 *3937:CLK *4215:A 4.65515e-05
30 *3937:CLK *883:122 3.54109e-05
31 *3975:CLK *3779:A1 6.11059e-05
32 *3975:CLK *3779:A2 5.83121e-06
33 *3975:CLK *3783:B1 8.68646e-05
34 *3980:CLK *3520:A 1.83756e-05
35 *3980:CLK *883:36 2.75145e-05
36 *4015:CLK *898:6 6.3889e-05
37 *4015:CLK *898:8 0.000131791
38 *4015:CLK *898:16 0.000846488
39 *4020:CLK *3522:A 6.74079e-05
40 *4020:CLK *883:38 0
41 *4022:CLK *4198:A 2.30292e-05
42 *4104:A *3975:RESET_B 4.82919e-05
43 *4104:A *1089:22 4.82919e-05
44 *611:8 *3935:D 4.80285e-05
45 *611:8 *4212:A 8.65905e-05
46 *611:8 *708:10 1.19928e-05
47 *611:10 *3783:B1 0.000111278
48 *611:10 *883:58 0
49 *611:12 *3520:A 0.000294421
50 *611:12 *883:58 0
51 *611:14 *883:38 0
52 *611:14 *883:58 0
53 *611:52 *3783:B1 2.13396e-05
54 *611:52 *3935:D 9.54399e-05
55 *611:132 *3776:A2 5.38497e-05
56 *611:132 *4198:A 0.000160491
57 *611:132 *692:6 8.23457e-05
58 *611:132 *997:10 6.44959e-05
59 *3426:C1 *611:132 3.09164e-05
60 *3431:A *611:102 0
61 *3431:A *611:113 0
62 *3431:A *611:132 0
63 *3432:B1 *611:10 0.000117832
64 *3521:B *611:8 0.000173988
65 *3928:SET_B *611:132 0.000123852
66 *3932:D *3937:CLK 0
67 *3932:D *611:102 0
68 *3932:RESET_B *4018:CLK 4.51129e-05
69 *3933:D *3933:CLK 0.00010804
70 *3937:RESET_B *3937:CLK 0.000135295
71 *3975:D *3975:CLK 0.000180756
72 *3975:D *4020:CLK 0.000103192
73 *3975:D *611:10 0.000146888
74 *3975:D *611:12 0.000200852
75 *3975:D *611:14 8.5225e-05
76 *3975:D *611:52 7.44453e-05
77 *4015:D *4015:CLK 6.97202e-05
78 *4022:D *3928:CLK 0
79 *4022:D *4022:CLK 0.000163204
80 *4083:A *611:102 0
81 *4083:A *611:113 0
82 *4083:A *611:132 0
83 *4199:A *3928:CLK 0
84 *4199:A *4022:CLK 0.000165698
85 *4199:A *611:132 0.000107424
86 *4216:A *3937:CLK 8.70923e-05
87 *4216:A *611:102 4.43871e-06
*RES
1 *4083:X *611:4 1.6 
2 *611:4 *611:8 6.935 
3 *611:8 *611:10 4.44 
4 *611:10 *611:12 4.185 
5 *611:12 *611:14 1.89 
6 *611:14 *4020:CLK 5.745 
7 *611:14 *4015:CLK 15.09 
8 *611:12 *3980:CLK 4.05 
9 *611:10 *3933:CLK 5.43 
10 *611:8 *611:52 1.635 
11 *611:52 *611:58 3.155 
12 *611:58 *3935:CLK 1.6 
13 *611:58 *3932:CLK 3.43 
14 *611:52 *3975:CLK 8.73 
15 *611:4 *611:87 2 
16 *611:87 *3937:CLK 11.13 
17 *611:87 *611:102 2.145 
18 *611:102 *4018:CLK 8.535 
19 *611:102 *611:113 2.145 
20 *611:113 *4104:A 4.05 
21 *611:113 *611:132 9.26 
22 *611:132 *3928:CLK 9.53 
23 *611:132 *4022:CLK 6.19 
*END

*D_NET *612 0.0104251
*CONN
*I *4005:CLK I *D sky130_fd_sc_hd__dfrtp_2
*I *4003:CLK I *D sky130_fd_sc_hd__dfrtp_2
*I *4004:CLK I *D sky130_fd_sc_hd__dfrtp_2
*I *4006:CLK I *D sky130_fd_sc_hd__dfrtp_2
*I *4007:CLK I *D sky130_fd_sc_hd__dfrtp_2
*I *4002:CLK I *D sky130_fd_sc_hd__dfrtp_2
*I *3999:CLK I *D sky130_fd_sc_hd__dfrtp_2
*I *4011:CLK I *D sky130_fd_sc_hd__dfrtp_2
*I *4012:CLK I *D sky130_fd_sc_hd__dfrtp_2
*I *3951:CLK I *D sky130_fd_sc_hd__dfrtp_2
*I *4084:X O *D sky130_fd_sc_hd__clkbuf_8
*CAP
1 *4005:CLK 0
2 *4003:CLK 0.000137796
3 *4004:CLK 3.9039e-05
4 *4006:CLK 0
5 *4007:CLK 0.000423891
6 *4002:CLK 9.55232e-05
7 *3999:CLK 0.000197876
8 *4011:CLK 0
9 *4012:CLK 0.000154648
10 *3951:CLK 0.000346112
11 *4084:X 0.000993383
12 *612:98 0.00039895
13 *612:94 0.000320994
14 *612:72 0.000468195
15 *612:68 0.000699448
16 *612:43 0.000373383
17 *612:21 0.000540184
18 *612:8 0.000823484
19 *612:6 0.000608936
20 *3951:CLK *3823:A2 4.82919e-05
21 *3951:CLK *3823:B1 9.91257e-05
22 *3999:CLK *4154:A 0.000164352
23 *4002:CLK *4289:A 0
24 *4002:CLK *1071:21 0
25 *4003:CLK *3346:A 3.50033e-05
26 *4003:CLK *1081:10 0.000129047
27 *4003:CLK *1081:12 0.000133555
28 *4003:CLK *1081:53 4.61595e-05
29 *4004:CLK *902:50 4.66108e-05
30 *4007:CLK *3551:A 2.11084e-05
31 *4007:CLK *3626:A2 0
32 *4007:CLK *896:133 0
33 *4012:CLK *4126:A 0
34 *4012:CLK *654:72 2.97004e-06
35 *612:6 *3529:A1 7.22354e-05
36 *612:6 *4289:A 8.40269e-05
37 *612:21 *4126:A 0
38 *612:43 *4289:A 0
39 *612:94 *3347:A 4.27071e-05
40 *612:98 *3547:A 1.88904e-05
41 *612:98 *3547:C 1.88904e-05
42 *612:98 *1081:12 0.000167529
43 *612:98 *1083:36 0.000116571
44 *612:98 *1083:38 4.48591e-05
45 *3493:B *4007:CLK 5.05437e-05
46 *3529:A2 *4002:CLK 0.00012904
47 *3529:A2 *612:21 1.22676e-05
48 *3529:A2 *612:43 0.000163019
49 *3529:B1 *612:21 0
50 *3539:B *4003:CLK 0
51 *3543:A2 *4003:CLK 8.30109e-05
52 *3543:A2 *612:98 5.23974e-05
53 *3549:A1 *612:68 6.71882e-05
54 *3549:A1 *612:94 1.91597e-05
55 *3549:A2 *4007:CLK 0.000163992
56 *3549:A2 *612:72 0.000175894
57 *3549:B1 *4007:CLK 0
58 *3551:B *4007:CLK 0.000212862
59 *3551:C *4007:CLK 1.82563e-05
60 *3999:D *3951:CLK 6.42013e-05
61 *3999:D *612:8 4.7101e-05
62 *3999:D *612:21 0
63 *3999:RESET_B *3999:CLK 4.70477e-05
64 *4004:D *4004:CLK 1.88536e-05
65 *4015:D *4002:CLK 3.09233e-05
66 *4015:RESET_B *3951:CLK 8.8266e-05
67 *483:39 *4007:CLK 0.00035042
68 *483:39 *612:72 0.000185398
69 *483:39 *612:98 6.86563e-05
70 *483:41 *4007:CLK 0.000130707
71 *490:8 *612:98 0.0003321
72 *498:12 *4007:CLK 0
*RES
1 *4084:X *612:6 7.915 
2 *612:6 *612:8 1.485 
3 *612:8 *3951:CLK 7.585 
4 *612:8 *612:21 8.48 
5 *612:21 *4012:CLK 6.195 
6 *612:21 *4011:CLK 3.6 
7 *612:6 *612:43 3.89 
8 *612:43 *3999:CLK 7.5 
9 *612:43 *4002:CLK 5.49 
10 *4084:X *612:68 9.64 
11 *612:68 *612:72 4.145 
12 *612:72 *4007:CLK 13.785 
13 *612:72 *4006:CLK 3.6 
14 *612:68 *612:94 1.845 
15 *612:94 *612:98 8.48 
16 *612:98 *4004:CLK 4.41 
17 *612:98 *4003:CLK 7.275 
18 *612:94 *4005:CLK 1.6 
*END

*D_NET *613 0.0116685
*CONN
*I *4046:CLK I *D sky130_fd_sc_hd__dfrtp_2
*I *4009:CLK I *D sky130_fd_sc_hd__dfrtp_2
*I *4014:CLK I *D sky130_fd_sc_hd__dfrtp_2
*I *4010:CLK I *D sky130_fd_sc_hd__dfrtp_2
*I *4008:CLK I *D sky130_fd_sc_hd__dfrtp_2
*I *3876:CLK I *D sky130_fd_sc_hd__dfrtp_2
*I *4048:CLK I *D sky130_fd_sc_hd__dfrtp_2
*I *4047:CLK I *D sky130_fd_sc_hd__dfrtp_2
*I *3968:CLK I *D sky130_fd_sc_hd__dfrtp_2
*I *3964:CLK I *D sky130_fd_sc_hd__dfrtp_2
*I *3863:CLK I *D sky130_fd_sc_hd__dfrtp_2
*I *4085:X O *D sky130_fd_sc_hd__clkbuf_8
*CAP
1 *4046:CLK 0.000169191
2 *4009:CLK 6.02737e-05
3 *4014:CLK 0.00113877
4 *4010:CLK 0
5 *4008:CLK 3.59601e-05
6 *3876:CLK 0
7 *4048:CLK 0.00073971
8 *4047:CLK 0
9 *3968:CLK 0
10 *3964:CLK 0.00025115
11 *3863:CLK 9.41332e-05
12 *4085:X 0
13 *613:103 0.00150546
14 *613:97 0.000552822
15 *613:82 0.000378164
16 *613:78 0.000413552
17 *613:57 0.00073971
18 *613:35 0.000386334
19 *613:22 0.000526758
20 *613:16 0.000410235
21 *613:10 0.000528047
22 *613:4 0.000443259
23 *3863:CLK *3964:D 0
24 *3863:CLK *3968:RESET_B 2.24336e-05
25 *3863:CLK *1011:10 0.000179776
26 *3964:CLK *3634:A 2.97004e-06
27 *3964:CLK *3863:RESET_B 0
28 *3964:CLK *3881:RESET_B 1.92979e-05
29 *3964:CLK *3964:D 0
30 *4009:CLK *3553:A1 6.99796e-05
31 *4014:CLK *3820:A2 0
32 *4048:CLK *4047:D 0.000330003
33 *4048:CLK *4047:RESET_B 0.000131425
34 *4048:CLK *4048:D 2.49909e-05
35 *4048:CLK *4048:RESET_B 7.00769e-05
36 *4048:CLK *4065:A 0.000176923
37 *4048:CLK *656:47 4.31698e-05
38 *4048:CLK *1118:14 2.75229e-05
39 *613:10 *3648:A_N 9.88165e-05
40 *613:10 *3648:B 4.91616e-05
41 *613:10 *706:12 3.60738e-06
42 *613:10 *1011:10 2.99518e-06
43 *613:16 *706:12 9.18546e-05
44 *613:16 *1011:10 1.61456e-05
45 *613:22 *3634:B 1.79483e-05
46 *613:22 *3863:D 4.28375e-05
47 *613:22 *4389:A 7.47275e-05
48 *613:22 *706:12 0.00017353
49 *613:22 *1011:10 0
50 *613:22 *1012:14 3.27177e-05
51 *613:35 *3968:D 7.35729e-05
52 *613:35 *3968:RESET_B 4.70393e-05
53 *613:35 *4389:A 5.1715e-05
54 *613:82 *1086:21 0
55 *613:97 *3553:B1 5.16348e-05
56 *613:97 *1086:21 0
57 *613:97 *1086:36 0
58 *613:103 *3553:A1 0.000193801
59 *613:103 *3820:A2 0
60 *613:103 *3822:A1 0.000124895
61 *3394:A3 *613:22 0
62 *3553:A2 *613:103 4.60584e-05
63 *3554:A2 *613:82 1.64132e-05
64 *3554:B1 *4008:CLK 2.05571e-05
65 *3554:B1 *613:82 5.43405e-05
66 *3554:B1 *613:97 6.64918e-05
67 *3561:B1 *4014:CLK 0
68 *3635:C *613:35 7.35729e-05
69 *3876:D *613:10 8.25329e-05
70 *4008:D *613:82 4.93336e-05
71 *4008:RESET_B *613:82 6.90254e-05
72 *4010:D *4014:CLK 0
73 *4010:D *613:103 0
74 *4010:RESET_B *613:97 5.98004e-06
75 *4014:D *4014:CLK 5.0751e-05
76 *4014:RESET_B *4014:CLK 0.000116497
77 *4085:A *613:10 0.0001076
78 *4346:A *3964:CLK 0.000290215
79 *493:18 *4014:CLK 0
80 *493:18 *613:103 0
*RES
1 *4085:X *613:4 1.6 
2 *613:4 *613:10 9.77 
3 *613:10 *613:16 2.7 
4 *613:16 *613:22 8.015 
5 *613:22 *3863:CLK 7.745 
6 *613:22 *613:35 3.21 
7 *613:35 *3964:CLK 10.34 
8 *613:35 *3968:CLK 1.6 
9 *613:16 *613:57 2 
10 *613:57 *4047:CLK 1.6 
11 *613:57 *4048:CLK 15.85 
12 *613:10 *3876:CLK 3.6 
13 *613:4 *613:78 0.45 
14 *613:78 *613:82 6.3125 
15 *613:82 *4008:CLK 4.2825 
16 *613:82 *613:97 4.2725 
17 *613:97 *613:103 8.135 
18 *613:103 *4010:CLK 3.6 
19 *613:103 *4014:CLK 17.325 
20 *613:97 *4009:CLK 2.755 
21 *613:78 *4046:CLK 4.12 
*END

*D_NET *614 0.010902
*CONN
*I *3967:CLK I *D sky130_fd_sc_hd__dfrtp_2
*I *3969:CLK I *D sky130_fd_sc_hd__dfrtp_2
*I *3973:CLK I *D sky130_fd_sc_hd__dfrtp_2
*I *4013:CLK I *D sky130_fd_sc_hd__dfrtp_2
*I *3879:CLK I *D sky130_fd_sc_hd__dfrtp_2
*I *3880:CLK I *D sky130_fd_sc_hd__dfrtp_2
*I *3882:CLK I *D sky130_fd_sc_hd__dfrtp_2
*I *3877:CLK I *D sky130_fd_sc_hd__dfrtp_2
*I *3878:CLK I *D sky130_fd_sc_hd__dfrtp_2
*I *3881:CLK I *D sky130_fd_sc_hd__dfrtp_2
*I *4086:X O *D sky130_fd_sc_hd__clkbuf_8
*CAP
1 *3967:CLK 0.000453219
2 *3969:CLK 0.000124635
3 *3973:CLK 3.93357e-05
4 *4013:CLK 0.000379674
5 *3879:CLK 0.000111425
6 *3880:CLK 3.97635e-05
7 *3882:CLK 0
8 *3877:CLK 0
9 *3878:CLK 0.000210056
10 *3881:CLK 0.000161463
11 *4086:X 0.000392301
12 *614:101 0.000879325
13 *614:74 0.000599557
14 *614:63 0.000378008
15 *614:29 0.000686416
16 *614:27 0.00047636
17 *614:12 0.000342418
18 *614:10 0.000335965
19 *614:8 0.000292115
20 *3878:CLK *4398:A 0.000239807
21 *3878:CLK *4399:A 0
22 *3878:CLK *650:10 0.000140416
23 *3880:CLK *3393:B1_N 5.05437e-05
24 *3881:CLK *3394:A1 1.16578e-05
25 *3881:CLK *3394:A2 8.76904e-05
26 *3881:CLK *3394:B1 5.7942e-05
27 *3881:CLK *1018:23 6.45236e-05
28 *3881:CLK *1025:12 7.86512e-05
29 *3967:CLK *3395:A 0.000107999
30 *3967:CLK *3650:A1 2.74281e-05
31 *3967:CLK *3973:RESET_B 7.03276e-05
32 *3967:CLK *4128:A 0.000133453
33 *3969:CLK *3395:A 0.000123724
34 *3969:CLK *921:12 0.000132347
35 *3973:CLK *3655:A_N 0.000162325
36 *3973:CLK *994:18 0.000154481
37 *4013:CLK *4189:A 4.66108e-05
38 *614:8 *3656:A1 0.000308645
39 *614:8 *4266:A 7.30505e-05
40 *614:10 *3393:B1_N 4.4022e-05
41 *614:10 *4384:A 0
42 *614:12 *4067:A 8.92657e-05
43 *614:12 *4258:A 0
44 *614:12 *4384:A 0
45 *614:12 *1018:23 0.000178634
46 *614:12 *1025:12 5.92191e-05
47 *614:29 *3877:RESET_B 0.000112266
48 *614:63 *4384:A 0
49 *614:63 *994:18 2.39947e-05
50 *614:74 *3655:A_N 0.000332954
51 *614:74 *994:18 0.000517417
52 *614:101 *3649:A_N 4.77769e-05
53 *614:101 *3656:A1 0.000147796
54 *614:101 *4266:A 0.000264606
55 *3394:A3 *3881:CLK 3.70009e-05
56 *3395:C *3881:CLK 0.000270409
57 *3650:A2 *614:101 8.83862e-05
58 *3877:D *3878:CLK 0
59 *3879:D *614:10 7.061e-05
60 *3879:D *614:63 0.000104669
61 *3880:D *3879:CLK 1.56428e-05
62 *3880:D *3880:CLK 7.10578e-05
63 *3880:D *614:10 1.49811e-05
64 *3880:D *614:12 2.03578e-05
65 *3973:D *4013:CLK 6.97118e-05
66 *4086:A *614:101 4.77807e-05
67 *4341:A *3967:CLK 7.46926e-05
68 *4341:A *3969:CLK 0.000193167
69 *543:25 *3967:CLK 3.19424e-05
*RES
1 *4086:X *614:8 6.465 
2 *614:8 *614:10 2.4 
3 *614:10 *614:12 4.185 
4 *614:12 *3881:CLK 8.37 
5 *614:12 *614:27 2 
6 *614:27 *614:29 7.35 
7 *614:29 *3878:CLK 10.01 
8 *614:29 *3877:CLK 1.6 
9 *614:27 *3882:CLK 1.6 
10 *614:10 *3880:CLK 4.74 
11 *614:8 *614:63 1.89 
12 *614:63 *3879:CLK 5.085 
13 *614:63 *614:74 6.225 
14 *614:74 *4013:CLK 9.57 
15 *614:74 *3973:CLK 5.49 
16 *4086:X *614:101 9.915 
17 *614:101 *3969:CLK 7.785 
18 *614:101 *3967:CLK 11.19 
*END

*D_NET *615 0.0105662
*CONN
*I *3959:CLK I *D sky130_fd_sc_hd__dfrtp_2
*I *3894:CLK I *D sky130_fd_sc_hd__dfrtp_2
*I *3892:CLK I *D sky130_fd_sc_hd__dfrtp_2
*I *3946:CLK I *D sky130_fd_sc_hd__dfrtp_2
*I *3952:CLK I *D sky130_fd_sc_hd__dfrtp_2
*I *3963:CLK I *D sky130_fd_sc_hd__dfrtp_2
*I *3966:CLK I *D sky130_fd_sc_hd__dfrtp_2
*I *3970:CLK I *D sky130_fd_sc_hd__dfrtp_2
*I *3960:CLK I *D sky130_fd_sc_hd__dfrtp_2
*I *3971:CLK I *D sky130_fd_sc_hd__dfrtp_2
*I *3978:CLK I *D sky130_fd_sc_hd__dfrtp_2
*I *4087:X O *D sky130_fd_sc_hd__clkbuf_8
*CAP
1 *3959:CLK 0.000166288
2 *3894:CLK 5.85004e-05
3 *3892:CLK 0.000266227
4 *3946:CLK 0.00015704
5 *3952:CLK 0.00016889
6 *3963:CLK 0
7 *3966:CLK 2.02008e-05
8 *3970:CLK 0.000180749
9 *3960:CLK 0.00018418
10 *3971:CLK 0.000827538
11 *3978:CLK 3.44265e-05
12 *4087:X 2.23024e-05
13 *615:121 0.000496594
14 *615:97 0.000570184
15 *615:86 0.000412959
16 *615:84 0.000555684
17 *615:33 0.00109232
18 *615:22 0.000177069
19 *615:20 0.000379863
20 *615:14 0.000269427
21 *615:10 0.000203098
22 *615:8 0.000299976
23 *3892:CLK *3892:RESET_B 0.000285195
24 *3892:CLK *936:47 2.91235e-05
25 *3892:CLK *949:25 0.000310057
26 *3894:CLK *3456:A2 6.73751e-05
27 *3894:CLK *3946:RESET_B 6.73751e-05
28 *3946:CLK *3462:B1 9.01757e-05
29 *3960:CLK *3960:D 9.91257e-05
30 *3966:CLK *4167:A 1.79174e-05
31 *3970:CLK *3970:D 9.51101e-05
32 *3971:CLK *3960:D 4.05358e-05
33 *3971:CLK *3971:D 0.0001249
34 *3971:CLK *649:36 0.000157375
35 *3971:CLK *981:65 0.000158308
36 *3971:CLK *990:10 7.64552e-05
37 *615:8 *3685:B2 4.77769e-05
38 *615:10 *3978:D 9.81229e-05
39 *615:14 *3978:D 9.30595e-05
40 *615:14 *1016:10 0
41 *615:20 *4167:A 5.51055e-05
42 *615:20 *981:65 0.000158748
43 *615:20 *989:20 8.51441e-05
44 *615:22 *981:65 0.000206123
45 *615:22 *989:20 0.000107666
46 *615:33 *981:65 0.000162325
47 *615:33 *989:20 4.43871e-06
48 *615:84 *3978:D 0.000101951
49 *615:84 *990:18 0
50 *615:86 *3403:A 6.52411e-05
51 *615:97 *3443:A 2.10433e-05
52 *615:97 *3892:RESET_B 5.39961e-05
53 *615:97 *3947:RESET_B 0.000116165
54 *615:97 *949:25 0.000164354
55 *615:97 *949:38 1.86911e-05
56 *615:97 *989:20 0.000138264
57 *615:121 *3403:A 2.0187e-05
58 *615:121 *4330:A 0.000155608
59 *615:121 *1023:10 7.97759e-05
60 *3403:B *615:121 2.97339e-05
61 *3457:A1 *615:86 2.75145e-05
62 *3684:B2 *615:86 2.16917e-05
63 *3684:B2 *615:121 0.000294805
64 *3946:D *3946:CLK 7.60965e-05
*RES
1 *4087:X *615:8 4.05 
2 *615:8 *615:10 2.145 
3 *615:10 *615:14 4.145 
4 *615:14 *615:20 5.375 
5 *615:20 *615:22 2.4 
6 *615:22 *3978:CLK 4.05 
7 *615:22 *615:33 1.89 
8 *615:33 *3971:CLK 14.58 
9 *615:33 *3960:CLK 6.81 
10 *615:20 *3970:CLK 6.81 
11 *615:14 *3966:CLK 2.05 
12 *615:10 *3963:CLK 3.6 
13 *615:8 *615:84 4.85 
14 *615:84 *615:86 1.83 
15 *615:86 *3952:CLK 4.12 
16 *615:86 *615:97 6.185 
17 *615:97 *3946:CLK 6.81 
18 *615:97 *3892:CLK 9.465 
19 *615:84 *615:121 6.66 
20 *615:121 *3894:CLK 7.49 
21 *615:121 *3959:CLK 4.12 
*END

*D_NET *616 0.00674314
*CONN
*I *3976:CLK I *D sky130_fd_sc_hd__dfrtp_2
*I *3893:CLK I *D sky130_fd_sc_hd__dfrtp_2
*I *3961:CLK I *D sky130_fd_sc_hd__dfrtp_2
*I *3895:CLK I *D sky130_fd_sc_hd__dfrtp_2
*I *3945:CLK I *D sky130_fd_sc_hd__dfstp_2
*I *3950:CLK I *D sky130_fd_sc_hd__dfrtp_2
*I *3953:CLK I *D sky130_fd_sc_hd__dfrtp_2
*I *4019:CLK I *D sky130_fd_sc_hd__dfrtp_2
*I *3914:CLK I *D sky130_fd_sc_hd__dfrtp_2
*I *3948:CLK I *D sky130_fd_sc_hd__dfrtp_2
*I *4088:X O *D sky130_fd_sc_hd__clkbuf_8
*CAP
1 *3976:CLK 0
2 *3893:CLK 0.00010184
3 *3961:CLK 9.71884e-06
4 *3895:CLK 0.000142328
5 *3945:CLK 0.000130427
6 *3950:CLK 0
7 *3953:CLK 0
8 *4019:CLK 0.00039826
9 *3914:CLK 0
10 *3948:CLK 0
11 *4088:X 0
12 *616:78 0.000282547
13 *616:76 0.000292902
14 *616:72 0.000148577
15 *616:58 0.000175931
16 *616:29 0.000535866
17 *616:23 0.000393321
18 *616:21 0.000418177
19 *616:10 0.000271616
20 *616:4 0.000242672
21 *3895:CLK *3456:A2 7.67708e-05
22 *3895:CLK *3684:A1 0
23 *3945:CLK *3341:A 8.49205e-05
24 *3945:CLK *1000:8 7.35813e-05
25 *3961:CLK *3684:A1 4.82919e-05
26 *3961:CLK *3685:A1 4.82919e-05
27 *4019:CLK *3342:A 0
28 *4019:CLK *3451:B1 0
29 *4019:CLK *4154:A 0.000157968
30 *616:10 *3341:A 0.000115779
31 *616:10 *1003:12 9.82856e-06
32 *616:10 *1003:18 3.88425e-05
33 *616:10 *1003:42 2.75538e-05
34 *616:21 *1003:42 8.08153e-06
35 *616:21 *1003:53 5.64226e-05
36 *616:23 *3953:D 3.00381e-05
37 *616:23 *3953:RESET_B 0.000111642
38 *616:23 *4251:A 0.000223186
39 *616:29 *3342:A 0
40 *616:29 *3953:D 7.15908e-05
41 *616:29 *3953:RESET_B 9.91257e-05
42 *616:72 *3341:A 7.00889e-06
43 *616:76 *3456:A2 7.04021e-05
44 *616:76 *3518:A1 0.000181383
45 *616:78 *3456:A2 8.77642e-05
46 *616:78 *3518:A1 0.000231557
47 *616:78 *3518:A2 0
48 *3454:A1 *3945:CLK 1.33285e-05
49 *3454:A1 *616:23 0.000111236
50 *3454:A1 *616:58 8.82557e-05
51 *3518:B1 *616:10 0.000118294
52 *3518:B1 *616:72 0.000108761
53 *3950:D *3945:CLK 0.000115779
54 *3950:D *616:58 6.90672e-05
55 *4019:D *4019:CLK 7.35729e-05
56 *4019:RESET_B *4019:CLK 0
57 *111:10 *616:10 0
58 *111:10 *616:21 0
59 *365:16 *4019:CLK 5.63701e-05
60 *603:13 *4019:CLK 0.000257954
61 *603:13 *616:29 7.66727e-05
62 *605:12 *616:78 0.000141606
63 *605:46 *3893:CLK 0.000108031
*RES
1 *4088:X *616:4 1.6 
2 *616:4 *616:10 5.975 
3 *616:10 *3948:CLK 3.6 
4 *616:10 *616:21 4.145 
5 *616:21 *616:23 5.97 
6 *616:23 *616:29 5.63 
7 *616:29 *3914:CLK 3.6 
8 *616:29 *4019:CLK 12.9 
9 *616:23 *3953:CLK 1.6 
10 *616:21 *616:58 1.485 
11 *616:58 *3950:CLK 1.6 
12 *616:58 *3945:CLK 4.81 
13 *616:4 *616:72 1.83 
14 *616:72 *616:76 4.145 
15 *616:76 *616:78 4.185 
16 *616:78 *3895:CLK 6.3 
17 *616:78 *3961:CLK 4.05 
18 *616:76 *3893:CLK 5.43 
19 *616:72 *3976:CLK 1.6 
*END

*D_NET *617 0.0115206
*CONN
*I *3896:CLK I *D sky130_fd_sc_hd__dfrtp_2
*I *4017:CLK I *D sky130_fd_sc_hd__dfrtp_2
*I *3956:CLK I *D sky130_fd_sc_hd__dfrtp_2
*I *3974:CLK I *D sky130_fd_sc_hd__dfrtp_2
*I *3955:CLK I *D sky130_fd_sc_hd__dfstp_2
*I *4107:A I *D sky130_fd_sc_hd__clkbuf_8
*I *3954:CLK I *D sky130_fd_sc_hd__dfrtp_2
*I *3983:CLK I *D sky130_fd_sc_hd__dfrtp_2
*I *4060:CLK I *D sky130_fd_sc_hd__dfrtp_2
*I *4061:CLK I *D sky130_fd_sc_hd__dfrtp_2
*I *4089:X O *D sky130_fd_sc_hd__clkbuf_8
*CAP
1 *3896:CLK 0.000173592
2 *4017:CLK 6.69865e-05
3 *3956:CLK 0.000112858
4 *3974:CLK 0
5 *3955:CLK 5.41337e-05
6 *4107:A 0
7 *3954:CLK 4.96982e-05
8 *3983:CLK 0.00020232
9 *4060:CLK 0
10 *4061:CLK 0.000466291
11 *4089:X 0.000110267
12 *617:124 0.000975941
13 *617:107 0.0010313
14 *617:40 0.000643734
15 *617:36 0.000549819
16 *617:32 0.0003439
17 *617:26 0.000173261
18 *617:24 0.000245708
19 *617:18 0.000604594
20 *617:6 0.000755484
21 *3896:CLK *3896:RESET_B 8.62687e-05
22 *3896:CLK *651:75 0
23 *3954:CLK *3979:RESET_B 0.00010013
24 *3955:CLK *3450:A1 0.000114492
25 *3955:CLK *936:41 0.000162325
26 *3956:CLK *3679:B1 0.000186099
27 *3956:CLK *3956:D 4.82919e-05
28 *3983:CLK *4249:A 3.45588e-05
29 *3983:CLK *905:20 7.10578e-05
30 *3983:CLK *961:22 9.2741e-05
31 *4017:CLK *3468:B2 0
32 *4061:CLK *4060:RESET_B 0
33 *4061:CLK *965:8 9.73004e-05
34 *4061:CLK *968:8 1.4389e-05
35 *617:18 *905:16 6.36578e-05
36 *617:26 *3444:A 6.52265e-05
37 *617:32 *3444:A 0.000159305
38 *617:32 *3444:B 0.000237243
39 *617:32 *3979:RESET_B 9.28188e-05
40 *617:32 *755:12 2.50049e-05
41 *617:36 *3757:A0 0.000202095
42 *617:36 *3979:RESET_B 4.18603e-06
43 *617:36 *755:12 5.65627e-05
44 *617:36 *907:40 0
45 *617:40 *961:22 0.000230916
46 *617:107 *3468:B1 4.66742e-05
47 *617:107 *4301:A 8.23457e-05
48 *617:124 *3679:B1 0.000438104
49 *617:124 *3896:RESET_B 0.000162575
50 *617:124 *978:10 0.000268851
51 *617:124 *978:18 0.000159964
52 *617:124 *993:14 0.000420762
53 *3450:A2 *3955:CLK 2.97004e-06
54 *3450:B1 *3955:CLK 0
55 *3954:D *617:32 0.000185405
56 *3974:D *617:18 0.000365597
57 *3982:D *4061:CLK 6.36578e-05
58 *4019:D *617:124 0.000277716
59 *4060:D *4061:CLK 1.43521e-05
60 *4060:D *617:36 0
61 *4302:A *3956:CLK 0
62 *4302:A *617:124 0
63 *109:14 *617:18 1.56428e-05
64 *109:14 *617:24 0.000135135
65 *109:14 *617:26 9.02174e-05
66 *109:14 *617:32 2.05056e-05
67 *603:13 *4017:CLK 6.55328e-05
*RES
1 *4089:X *617:6 3.085 
2 *617:6 *617:18 11.035 
3 *617:18 *617:24 2.985 
4 *617:24 *617:26 1.485 
5 *617:26 *617:32 7.175 
6 *617:32 *617:36 5.675 
7 *617:36 *617:40 3.915 
8 *617:40 *4061:CLK 12.395 
9 *617:40 *4060:CLK 1.6 
10 *617:36 *3983:CLK 5.5 
11 *617:32 *3954:CLK 4.755 
12 *617:26 *4107:A 1.6 
13 *617:24 *3955:CLK 7.49 
14 *617:18 *3974:CLK 1.6 
15 *617:6 *617:107 4.865 
16 *617:107 *3956:CLK 6.195 
17 *617:107 *617:124 17.75 
18 *617:124 *4017:CLK 6.98 
19 *617:124 *3896:CLK 4.045 
*END

*D_NET *618 0.012003
*CONN
*I *3972:CLK I *D sky130_fd_sc_hd__dfrtp_2
*I *3947:CLK I *D sky130_fd_sc_hd__dfrtp_2
*I *3965:CLK I *D sky130_fd_sc_hd__dfrtp_2
*I *3867:CLK I *D sky130_fd_sc_hd__dfrtp_2
*I *3962:CLK I *D sky130_fd_sc_hd__dfrtp_2
*I *3949:CLK I *D sky130_fd_sc_hd__dfrtp_2
*I *3897:CLK I *D sky130_fd_sc_hd__dfrtp_2
*I *3904:CLK I *D sky130_fd_sc_hd__dfrtp_2
*I *3866:CLK I *D sky130_fd_sc_hd__dfrtp_2
*I *3977:CLK I *D sky130_fd_sc_hd__dfrtp_2
*I *3862:CLK I *D sky130_fd_sc_hd__dfrtp_2
*I *4090:X O *D sky130_fd_sc_hd__clkbuf_8
*CAP
1 *3972:CLK 0.000214883
2 *3947:CLK 0.000146613
3 *3965:CLK 3.48054e-05
4 *3867:CLK 0
5 *3962:CLK 6.65481e-05
6 *3949:CLK 0.000427782
7 *3897:CLK 0
8 *3904:CLK 8.32824e-05
9 *3866:CLK 2.27766e-05
10 *3977:CLK 9.74353e-05
11 *3862:CLK 0.000389601
12 *4090:X 0.000351637
13 *618:134 0.000588166
14 *618:109 0.000273797
15 *618:105 0.000713889
16 *618:95 0.000716847
17 *618:68 0.000515257
18 *618:57 0.000573407
19 *618:20 0.000668311
20 *618:18 0.000313991
21 *618:12 0.000845884
22 *3862:CLK *3474:A 3.25831e-05
23 *3862:CLK *3861:RESET_B 0.000152312
24 *3862:CLK *846:23 0.000185411
25 *3862:CLK *988:6 3.03775e-05
26 *3862:CLK *988:12 3.1835e-05
27 *3866:CLK *924:27 4.90291e-05
28 *3904:CLK *3904:RESET_B 0.000197243
29 *3947:CLK *3448:B 3.96653e-05
30 *3947:CLK *3453:A1 4.82919e-05
31 *3949:CLK *3688:A1 0
32 *3962:CLK *3962:D 4.70256e-05
33 *3962:CLK *981:10 0
34 *3972:CLK *3459:A1 0.000136884
35 *3972:CLK *3524:A3 0.000270647
36 *3972:CLK *646:43 0
37 *3972:CLK *948:12 9.41173e-05
38 *3977:CLK *3475:B 2.38002e-05
39 *618:12 *3445:A 0.000127565
40 *618:12 *3687:B1 8.12408e-06
41 *618:20 *3474:A 0.000132096
42 *618:20 *646:43 0
43 *618:57 *3445:B 0.000110317
44 *618:57 *3904:RESET_B 0.000409775
45 *618:57 *1004:26 2.97004e-06
46 *618:95 *3445:A 4.77769e-05
47 *618:105 *3638:A0 7.9331e-05
48 *618:105 *908:10 7.23533e-05
49 *618:105 *924:19 2.74491e-05
50 *618:105 *924:51 4.88854e-05
51 *618:109 *3639:A1 0
52 *618:109 *3639:S 0
53 *618:109 *3862:RESET_B 8.47629e-05
54 *618:109 *908:16 0
55 *618:109 *981:10 0
56 *618:109 *981:27 0
57 *618:134 *3445:A 0.000177148
58 *618:134 *3448:A 0
59 *618:134 *3452:B 0.000217481
60 *618:134 *924:51 3.14981e-05
61 *618:134 *1002:45 0.000103589
62 *3453:A2 *3972:CLK 5.83918e-05
63 *3453:A2 *618:134 3.59531e-06
64 *3457:A1 *3949:CLK 0
65 *3457:A1 *618:68 0
66 *3458:C *3947:CLK 0.0001947
67 *3524:A2 *3972:CLK 6.56368e-05
68 *3524:A2 *618:134 0.000109775
69 *3687:C1 *618:12 3.94931e-05
70 *3866:D *3862:CLK 0
71 *3866:D *618:20 0
72 *3867:D *618:109 3.89528e-05
73 *3897:D *618:68 6.73751e-05
74 *3952:D *618:134 7.00225e-05
75 *3965:D *3866:CLK 3.33839e-05
76 *3965:D *3965:CLK 7.57202e-05
77 *3965:D *618:105 0.000260289
78 *3972:D *3972:CLK 3.09451e-05
79 *4090:A *618:12 8.46818e-05
80 *4345:A *3962:CLK 0.000187064
81 *109:28 *618:134 0
82 *114:10 *3949:CLK 0
83 *426:16 *3947:CLK 4.65607e-05
84 *427:12 *618:12 1.19028e-05
85 *427:12 *618:57 7.08297e-05
86 *427:20 *618:18 0.000103949
87 *427:20 *618:20 0.000103664
88 *427:20 *618:57 4.28943e-05
89 *428:12 *618:57 0.000134756
90 *428:30 *618:57 5.04423e-05
91 *428:30 *618:68 0
92 *431:10 *618:134 0
93 *434:12 *618:57 5.26831e-05
*RES
1 *4090:X *618:12 9.345 
2 *618:12 *618:18 1.935 
3 *618:18 *618:20 3.93 
4 *618:20 *3862:CLK 10.935 
5 *618:20 *3977:CLK 5.1 
6 *618:18 *3866:CLK 4.395 
7 *618:12 *618:57 10.85 
8 *618:57 *3904:CLK 3.43 
9 *618:57 *618:68 3.89 
10 *618:68 *3897:CLK 3.6 
11 *618:68 *3949:CLK 10.305 
12 *4090:X *618:95 4.05 
13 *618:95 *618:105 10.955 
14 *618:105 *618:109 6.185 
15 *618:109 *3962:CLK 5.745 
16 *618:109 *3867:CLK 3.6 
17 *618:105 *3965:CLK 2.395 
18 *618:95 *618:134 6.225 
19 *618:134 *3947:CLK 6.81 
20 *618:134 *3972:CLK 9.57 
*END

*D_NET *619 0.0091354
*CONN
*I *3907:CLK I *D sky130_fd_sc_hd__dfrtp_2
*I *4106:A I *D sky130_fd_sc_hd__clkinv_2
*I *3911:CLK I *D sky130_fd_sc_hd__dfrtp_2
*I *3913:CLK I *D sky130_fd_sc_hd__dfrtp_2
*I *3912:CLK I *D sky130_fd_sc_hd__dfrtp_2
*I *3870:CLK I *D sky130_fd_sc_hd__dfrtp_2
*I *3910:CLK I *D sky130_fd_sc_hd__dfrtp_2
*I *3908:CLK I *D sky130_fd_sc_hd__dfrtp_2
*I *4063:CLK I *D sky130_fd_sc_hd__dfrtp_2
*I *4091:X O *D sky130_fd_sc_hd__clkbuf_8
*CAP
1 *3907:CLK 0.000125261
2 *4106:A 2.08101e-05
3 *3911:CLK 0
4 *3913:CLK 0
5 *3912:CLK 0
6 *3870:CLK 0.000518289
7 *3910:CLK 0.00017006
8 *3908:CLK 0
9 *4063:CLK 0.000783107
10 *4091:X 1.3091e-05
11 *619:87 0.000161696
12 *619:59 0.000959056
13 *619:53 0.000516002
14 *619:51 0.00049387
15 *619:34 0.000660448
16 *619:14 0.00120677
17 *619:8 0.000495419
18 *619:6 2.87161e-05
19 *3870:CLK *3642:A1 2.87867e-05
20 *3870:CLK *3645:A1 0
21 *3870:CLK *4303:A 6.11008e-05
22 *3870:CLK *909:63 0
23 *3907:CLK *3732:A 1.08758e-05
24 *3907:CLK *916:32 0.000519167
25 *4063:CLK *632:12 0
26 *4063:CLK *632:22 0
27 *619:6 *3732:A 4.82863e-05
28 *619:14 *3731:A1 0.000139238
29 *619:34 *3731:A1 2.92496e-05
30 *619:34 *3911:RESET_B 3.60024e-06
31 *619:34 *916:32 3.49738e-05
32 *619:34 *973:25 0.000172838
33 *619:51 *3911:RESET_B 2.99137e-05
34 *619:51 *973:25 0.000163019
35 *619:51 *975:10 0.000199909
36 *619:59 *3645:A1 0
37 *619:59 *977:6 0.000270598
38 *619:59 *977:25 9.07793e-05
39 *619:87 *3732:A 4.66108e-05
40 *3727:C *3907:CLK 4.82319e-06
41 *3732:C *3907:CLK 9.07251e-05
42 *3732:C *4106:A 0
43 *3732:C *619:6 1.83756e-05
44 *3732:C *619:87 1.19928e-05
45 *3870:D *3870:CLK 5.12842e-05
46 *3907:D *3907:CLK 5.83121e-06
47 *3908:D *3907:CLK 4.66108e-05
48 *3910:D *3910:CLK 3.82008e-05
49 *3910:D *619:14 0.000103192
50 *3910:D *619:34 5.46798e-05
51 *3911:D *619:51 0.000130882
52 *4063:D *4063:CLK 4.82919e-05
53 *4333:A *3870:CLK 0
54 *4372:A *3870:CLK 0.000105849
55 *4372:A *619:59 0.00011562
56 *4373:A *3870:CLK 0
57 *580:10 *619:14 0.000127476
58 *588:16 *4063:CLK 5.51245e-05
59 *588:16 *619:14 0
60 *588:29 *619:14 0
61 *588:33 *3907:CLK 0.000124895
*RES
1 *4091:X *619:6 2.05 
2 *619:6 *619:8 2 
3 *619:8 *619:14 9.995 
4 *619:14 *4063:CLK 17.885 
5 *619:14 *3908:CLK 1.6 
6 *619:8 *619:34 2.4 
7 *619:34 *3910:CLK 6.135 
8 *619:34 *619:51 10.55 
9 *619:51 *619:53 1.14 
10 *619:53 *619:59 11.06 
11 *619:59 *3870:CLK 13.65 
12 *619:59 *3912:CLK 3.6 
13 *619:53 *3913:CLK 1.6 
14 *619:51 *3911:CLK 1.6 
15 *619:6 *619:87 0.45 
16 *619:87 *4106:A 1.96 
17 *619:87 *3907:CLK 6.535 
*END

*D_NET *620 0.00972782
*CONN
*I *3899:CLK I *D sky130_fd_sc_hd__dfrtp_2
*I *3900:CLK I *D sky130_fd_sc_hd__dfrtp_2
*I *3898:CLK I *D sky130_fd_sc_hd__dfrtp_2
*I *3861:CLK I *D sky130_fd_sc_hd__dfrtp_2
*I *3858:CLK I *D sky130_fd_sc_hd__dfrtp_2
*I *3860:CLK I *D sky130_fd_sc_hd__dfrtp_2
*I *3856:CLK I *D sky130_fd_sc_hd__dfrtp_2
*I *3857:CLK I *D sky130_fd_sc_hd__dfrtp_2
*I *3859:CLK I *D sky130_fd_sc_hd__dfrtp_2
*I *4108:A I *D sky130_fd_sc_hd__clkbuf_8
*I *4092:X O *D sky130_fd_sc_hd__clkbuf_8
*CAP
1 *3899:CLK 0.000186778
2 *3900:CLK 0
3 *3898:CLK 9.61131e-05
4 *3861:CLK 0.000578468
5 *3858:CLK 0
6 *3860:CLK 3.56364e-05
7 *3856:CLK 0
8 *3857:CLK 0.000265531
9 *3859:CLK 7.75055e-05
10 *4108:A 0.000110604
11 *4092:X 0
12 *620:90 0.000240666
13 *620:79 0.000232284
14 *620:58 0.000743125
15 *620:54 0.000445449
16 *620:32 0.000429583
17 *620:21 0.000921467
18 *620:6 0.000877765
19 *620:4 0.000321396
20 *3857:CLK *3627:A1 0
21 *3857:CLK *3697:A1 0.000143266
22 *3861:CLK *3858:RESET_B 1.62441e-05
23 *3898:CLK *3696:A1 8.54281e-05
24 *3899:CLK *3622:A2 3.4399e-05
25 *3899:CLK *3700:A1 0.0001592
26 *3899:CLK *632:12 0.000197249
27 *620:6 *3697:A1 1.08758e-05
28 *620:6 *909:33 0.000109947
29 *620:21 *3472:A 0.00016938
30 *620:21 *3697:A0 1.19928e-05
31 *620:21 *3697:A1 0.000365994
32 *620:21 *3859:RESET_B 8.73018e-05
33 *620:21 *841:6 5.74791e-05
34 *620:21 *909:33 0.000237009
35 *620:21 *985:6 1.19928e-05
36 *620:32 *3627:A1 0
37 *620:32 *3691:A1 9.20357e-05
38 *620:32 *3697:A1 0.000201335
39 *620:54 *909:33 0.000284534
40 *620:58 *3482:B 0.000154967
41 *620:58 *3631:A0 0.000281389
42 *620:58 *3631:S 1.52776e-05
43 *620:58 *632:12 8.53113e-06
44 *620:79 *632:12 0.00017574
45 *620:90 *632:12 0.000181006
46 *3696:A2 *3898:CLK 1.34584e-05
47 *3697:S *4108:A 7.03802e-05
48 *3700:B2 *3899:CLK 4.58262e-06
49 *3700:B2 *620:58 9.31063e-05
50 *3700:B2 *620:79 6.19519e-05
51 *3700:B2 *620:90 6.7033e-05
52 *3702:B2 *3898:CLK 0.000264606
53 *3856:D *3857:CLK 6.73751e-05
54 *3859:D *3859:CLK 5.83121e-06
55 *3859:D *620:21 1.91597e-05
56 *3859:D *620:32 5.23362e-05
57 *4356:A *4108:A 0
58 *4356:A *620:21 4.82863e-05
59 *4357:A *3861:CLK 0.000235573
60 *435:14 *3899:CLK 6.91967e-05
*RES
1 *4092:X *620:4 1.6 
2 *620:4 *620:6 1.83 
3 *620:6 *4108:A 7.235 
4 *620:6 *620:21 13.575 
5 *620:21 *3859:CLK 2.74 
6 *620:21 *620:32 6.185 
7 *620:32 *3857:CLK 8.52 
8 *620:32 *3856:CLK 3.6 
9 *620:4 *620:54 6.59 
10 *620:54 *620:58 5.93 
11 *620:58 *3860:CLK 2.05 
12 *620:58 *3858:CLK 1.6 
13 *620:58 *3861:CLK 10.33 
14 *620:54 *620:79 2.145 
15 *620:79 *3898:CLK 6.12 
16 *620:79 *620:90 2.145 
17 *620:90 *3900:CLK 3.6 
18 *620:90 *3899:CLK 8.175 
*END

*D_NET *621 0.00932119
*CONN
*I *3958:CLK I *D sky130_fd_sc_hd__dfrtp_2
*I *3927:CLK I *D sky130_fd_sc_hd__dfrtp_2
*I *3934:CLK I *D sky130_fd_sc_hd__dfrtp_2
*I *3998:CLK I *D sky130_fd_sc_hd__dfrtp_2
*I *3984:CLK I *D sky130_fd_sc_hd__dfrtp_2
*I *3909:CLK I *D sky130_fd_sc_hd__dfrtp_2
*I *3957:CLK I *D sky130_fd_sc_hd__dfstp_2
*I *3981:CLK I *D sky130_fd_sc_hd__dfrtp_2
*I *3906:CLK I *D sky130_fd_sc_hd__dfrtp_2
*I *3979:CLK I *D sky130_fd_sc_hd__dfrtp_2
*I *4093:X O *D sky130_fd_sc_hd__clkbuf_8
*CAP
1 *3958:CLK 0
2 *3927:CLK 5.23473e-05
3 *3934:CLK 0.000644009
4 *3998:CLK 0
5 *3984:CLK 0
6 *3909:CLK 0.000496332
7 *3957:CLK 0
8 *3981:CLK 0
9 *3906:CLK 3.37454e-05
10 *3979:CLK 0.000262789
11 *4093:X 0.000661076
12 *621:103 0.000947305
13 *621:97 0.000448695
14 *621:91 0.000555823
15 *621:49 0.000732734
16 *621:35 0.000173516
17 *621:29 0.00065381
18 *621:23 0.000277637
19 *621:10 0.000461095
20 *3909:CLK *907:32 2.97004e-06
21 *3934:CLK *4122:A 0.000235008
22 *3934:CLK *4192:A 6.3124e-06
23 *3934:CLK *646:43 5.16348e-05
24 *3934:CLK *880:59 9.27495e-05
25 *3934:CLK *894:32 0.000191897
26 *3934:CLK *894:51 9.54469e-05
27 *3979:CLK *3343:A 0
28 *3979:CLK *3444:B 0
29 *3979:CLK *3979:RESET_B 5.83121e-06
30 *3979:CLK *907:40 0.000205376
31 *3979:CLK *933:12 0
32 *621:10 *3343:A 0.000197269
33 *621:10 *907:40 8.7974e-05
34 *621:29 *3981:D 7.8936e-05
35 *621:29 *3984:RESET_B 0.000113255
36 *621:29 *4182:A 1.08758e-05
37 *621:35 *3981:D 5.39718e-05
38 *621:35 *4182:A 9.05377e-05
39 *621:35 *915:10 0
40 *621:49 *915:10 0
41 *621:91 *3470:A2 0.000150549
42 *621:91 *3806:A1 6.95479e-06
43 *621:91 *3958:D 2.49909e-05
44 *621:91 *3958:RESET_B 6.77054e-05
45 *621:91 *894:32 0.000137571
46 *621:91 *936:41 5.63318e-05
47 *621:91 *938:12 2.79149e-05
48 *621:97 *880:38 0.000140483
49 *621:103 *646:43 0.000362979
50 *621:103 *894:32 3.25831e-05
51 *3469:A1 *621:97 0
52 *3471:A2 *621:10 0.000106522
53 *3717:B1 *3909:CLK 0
54 *3954:D *3979:CLK 5.83121e-06
55 *3957:D *621:10 2.75229e-05
56 *3979:D *3979:CLK 4.70919e-05
57 *3982:D *3909:CLK 0
58 *3982:D *621:35 0
59 *3982:D *621:49 0
60 *3984:D *3979:CLK 2.97004e-06
61 *3984:D *621:10 6.23375e-05
62 *4093:A *621:91 4.9253e-06
63 *11:14 *3909:CLK 0.00013497
*RES
1 *4093:X *621:10 8.7 
2 *621:10 *3979:CLK 9.27 
3 *621:10 *621:23 2 
4 *621:23 *621:29 6.95 
5 *621:29 *621:35 4.85 
6 *621:35 *3906:CLK 2.05 
7 *621:35 *3981:CLK 1.6 
8 *621:29 *621:49 3.93 
9 *621:49 *3957:CLK 3.6 
10 *621:49 *3909:CLK 11.775 
11 *621:23 *3984:CLK 1.6 
12 *4093:X *621:91 14.12 
13 *621:91 *621:97 6.145 
14 *621:97 *621:103 8.015 
15 *621:103 *3998:CLK 3.6 
16 *621:103 *3934:CLK 13.26 
17 *621:97 *3927:CLK 2.395 
18 *621:91 *3958:CLK 1.6 
*END

*D_NET *622 0.010589
*CONN
*I *4041:CLK I *D sky130_fd_sc_hd__dfrtp_2
*I *3916:CLK I *D sky130_fd_sc_hd__dfrtp_2
*I *4016:CLK I *D sky130_fd_sc_hd__dfstp_2
*I *4052:CLK I *D sky130_fd_sc_hd__dfrtp_2
*I *3883:CLK I *D sky130_fd_sc_hd__dfstp_2
*I *3982:CLK I *D sky130_fd_sc_hd__dfstp_2
*I *4042:CLK I *D sky130_fd_sc_hd__dfrtp_2
*I *4053:CLK I *D sky130_fd_sc_hd__dfrtp_2
*I *4049:CLK I *D sky130_fd_sc_hd__dfrtp_2
*I *4054:CLK I *D sky130_fd_sc_hd__dfrtp_2
*I *3884:CLK I *D sky130_fd_sc_hd__dfxtp_2
*I *4094:X O *D sky130_fd_sc_hd__clkbuf_8
*CAP
1 *4041:CLK 0.000143031
2 *3916:CLK 0.000301135
3 *4016:CLK 0.000375327
4 *4052:CLK 0.00011105
5 *3883:CLK 0.00014751
6 *3982:CLK 0.000136149
7 *4042:CLK 0.000495701
8 *4053:CLK 0
9 *4049:CLK 0.000135122
10 *4054:CLK 0.000137284
11 *3884:CLK 3.17377e-05
12 *4094:X 0.000208354
13 *622:126 0.000679382
14 *622:82 0.000385554
15 *622:80 0.000282843
16 *622:78 0.000647993
17 *622:76 0.0005026
18 *622:29 0.000557925
19 *622:27 0.000634913
20 *622:17 0.000961409
21 *622:6 0.000291789
22 *3883:CLK *643:43 3.64998e-06
23 *3916:CLK *3849:A2 8.8266e-05
24 *3982:CLK *907:32 0
25 *4016:CLK *3402:B 0.000198939
26 *4016:CLK *3748:A0 0.000277223
27 *4016:CLK *3748:A1 2.0514e-05
28 *4016:CLK *4228:A 8.23457e-05
29 *4016:CLK *939:16 0.00011052
30 *4042:CLK *3749:A1 4.11194e-05
31 *4042:CLK *934:28 0.000134938
32 *4049:CLK *4049:D 3.59997e-05
33 *4049:CLK *4208:A 5.72091e-05
34 *4049:CLK *641:37 0
35 *4049:CLK *646:61 0.000361994
36 *4052:CLK *4052:D 2.75145e-05
37 *4052:CLK *907:26 0.000234674
38 *622:6 *4073:A 0.000160635
39 *622:17 *4053:RESET_B 0.00020758
40 *622:76 *4073:A 0.000122331
41 *622:78 *3748:A1 0.000165996
42 *622:78 *3748:S 0
43 *622:78 *4073:A 5.65627e-05
44 *622:78 *4118:A 1.94892e-05
45 *622:78 *643:67 0
46 *622:80 *3748:S 0
47 *622:82 *907:32 0
48 *622:126 *3748:A1 0.000112282
49 *622:126 *4073:A 3.25424e-05
50 *622:126 *943:21 5.72004e-05
51 *3359:A *4042:CLK 4.19967e-05
52 *3359:A *622:17 7.23943e-06
53 *3664:A0 *4016:CLK 2.04748e-05
54 *4053:D *4042:CLK 0
55 *4053:D *622:17 0
56 *4053:D *622:27 4.82919e-05
57 *4094:A *4041:CLK 0
58 *4094:A *622:126 0
59 *4229:A *3883:CLK 0.0001249
60 *4229:A *3982:CLK 9.50342e-06
61 *4229:A *622:80 8.28738e-05
62 *4229:A *622:82 0.000196613
63 *11:10 *3982:CLK 1.3941e-05
64 *11:10 *4041:CLK 1.16667e-05
65 *11:10 *4042:CLK 0
66 *11:10 *622:78 3.13596e-06
67 *11:10 *622:80 1.97449e-06
68 *354:24 *3883:CLK 0.000250093
*RES
1 *4094:X *622:6 4.12 
2 *622:6 *3884:CLK 2.05 
3 *622:6 *622:17 4.655 
4 *622:17 *622:27 6.38 
5 *622:27 *622:29 3.9 
6 *622:29 *4054:CLK 3.43 
7 *622:29 *4049:CLK 9.785 
8 *622:27 *4053:CLK 1.6 
9 *622:17 *4042:CLK 10.785 
10 *4094:X *622:76 4.74 
11 *622:76 *622:78 4.185 
12 *622:78 *622:80 1.38 
13 *622:80 *622:82 2.4 
14 *622:82 *3982:CLK 5.745 
15 *622:82 *3883:CLK 7.5 
16 *622:80 *4052:CLK 6.135 
17 *622:78 *4016:CLK 10.965 
18 *622:76 *622:126 5.145 
19 *622:126 *3916:CLK 8.19 
20 *622:126 *4041:CLK 6.045 
*END

*D_NET *623 0.0115285
*CONN
*I *3890:CLK I *D sky130_fd_sc_hd__dfxtp_2
*I *3891:CLK I *D sky130_fd_sc_hd__dfxtp_2
*I *3905:CLK I *D sky130_fd_sc_hd__dfrtp_2
*I *3888:CLK I *D sky130_fd_sc_hd__dfxtp_2
*I *3885:CLK I *D sky130_fd_sc_hd__dfxtp_2
*I *3889:CLK I *D sky130_fd_sc_hd__dfxtp_2
*I *3871:CLK I *D sky130_fd_sc_hd__dfrtp_2
*I *3875:CLK I *D sky130_fd_sc_hd__dfrtp_2
*I *3873:CLK I *D sky130_fd_sc_hd__dfrtp_2
*I *3869:CLK I *D sky130_fd_sc_hd__dfrtp_2
*I *4095:X O *D sky130_fd_sc_hd__clkbuf_8
*CAP
1 *3890:CLK 0
2 *3891:CLK 0
3 *3905:CLK 0.000241655
4 *3888:CLK 3.2156e-05
5 *3885:CLK 4.4988e-05
6 *3889:CLK 0.000226521
7 *3871:CLK 0
8 *3875:CLK 0
9 *3873:CLK 8.08059e-05
10 *3869:CLK 0.000207145
11 *4095:X 0
12 *623:107 0.000564723
13 *623:101 0.000726883
14 *623:77 0.000417159
15 *623:60 0.000925449
16 *623:33 0.000222142
17 *623:27 0.000418409
18 *623:25 0.000844012
19 *623:8 0.000591856
20 *623:4 0.0005805
21 *3869:CLK *3707:A 0
22 *3869:CLK *3871:RESET_B 6.36656e-05
23 *3869:CLK *4310:A 0.000232646
24 *3885:CLK *3672:A1 0.000185405
25 *3885:CLK *3674:A1 0.000185405
26 *3905:CLK *3712:B 0
27 *3905:CLK *641:10 0
28 *3905:CLK *646:53 2.30292e-05
29 *3905:CLK *646:61 0.000454198
30 *623:8 *4305:A 0
31 *623:8 *4310:A 0.000168764
32 *623:25 *3871:RESET_B 0.000177492
33 *623:25 *928:8 0.000198939
34 *623:60 *3643:A0 0.000106472
35 *623:60 *3643:A1 0
36 *623:60 *3647:A0 0
37 *623:60 *3647:S 0.000114186
38 *623:60 *4204:A 0
39 *623:60 *4396:A 0
40 *623:60 *909:72 8.41703e-06
41 *623:60 *909:89 8.42096e-05
42 *623:77 *3666:A1 5.20968e-05
43 *623:77 *3672:A1 1.14559e-05
44 *623:101 *3750:A1 0.000120655
45 *623:101 *3750:S 7.15674e-05
46 *623:101 *4390:A 0.000185162
47 *623:101 *640:28 7.73918e-05
48 *623:107 *3641:A1 0
49 *623:107 *4300:A 0
50 *623:107 *640:14 0.000293628
51 *623:107 *640:28 0.000170535
52 *623:107 *646:61 0
53 *623:107 *926:8 0.000278111
54 o_receive_data[0] *623:60 1.79536e-05
55 o_receive_data[5] *3889:CLK 0.000107405
56 o_receive_data[6] *623:33 4.32799e-05
57 *3674:S *623:60 0
58 *3676:S *623:101 9.50342e-06
59 *3676:S *623:107 0.000141606
60 *3869:D *3869:CLK 7.21296e-06
61 *3885:D *623:77 9.54399e-05
62 *3888:D *623:77 1.43717e-05
63 *3889:D *3889:CLK 0.000243554
64 *3889:D *623:60 3.68682e-05
65 *3891:D *3905:CLK 4.70343e-05
66 *4095:A *623:101 4.77757e-05
67 *4286:A *623:101 0
68 *4372:A *3873:CLK 0.000184423
69 *4372:A *623:33 0.000106819
70 *4374:A *3873:CLK 0.000186083
71 *4374:A *623:33 0.000175229
72 *359:67 *623:60 0.000161419
73 *359:67 *623:77 0.000198265
74 *579:10 *3905:CLK 0.000316415
*RES
1 *4095:X *623:4 1.6 
2 *623:4 *623:8 5.675 
3 *623:8 *3869:CLK 8.025 
4 *623:8 *623:25 6.59 
5 *623:25 *623:27 3.9 
6 *623:27 *623:33 5.285 
7 *623:33 *3873:CLK 6.195 
8 *623:33 *3875:CLK 3.6 
9 *623:27 *3871:CLK 1.6 
10 *623:25 *623:60 10.01 
11 *623:60 *3889:CLK 7.845 
12 *623:60 *623:77 7.775 
13 *623:77 *3885:CLK 7.745 
14 *623:77 *3888:CLK 2.05 
15 *623:4 *623:101 9.86 
16 *623:101 *623:107 10.775 
17 *623:107 *3905:CLK 12.995 
18 *623:107 *3891:CLK 1.6 
19 *623:101 *3890:CLK 3.6 
*END

*D_NET *624 0.0114687
*CONN
*I *3917:CLK I *D sky130_fd_sc_hd__dfrtp_2
*I *4050:CLK I *D sky130_fd_sc_hd__dfrtp_2
*I *4056:CLK I *D sky130_fd_sc_hd__dfrtp_2
*I *3989:CLK I *D sky130_fd_sc_hd__dfrtp_2
*I *3988:CLK I *D sky130_fd_sc_hd__dfrtp_2
*I *3990:CLK I *D sky130_fd_sc_hd__dfrtp_2
*I *3987:CLK I *D sky130_fd_sc_hd__dfrtp_2
*I *4109:A I *D sky130_fd_sc_hd__clkbuf_4
*I *3886:CLK I *D sky130_fd_sc_hd__dfxtp_2
*I *3887:CLK I *D sky130_fd_sc_hd__dfxtp_2
*I *4055:CLK I *D sky130_fd_sc_hd__dfrtp_2
*I *4051:CLK I *D sky130_fd_sc_hd__dfrtp_2
*I *4096:X O *D sky130_fd_sc_hd__clkbuf_8
*CAP
1 *3917:CLK 0.000681269
2 *4050:CLK 0
3 *4056:CLK 0.000147839
4 *3989:CLK 0
5 *3988:CLK 0
6 *3990:CLK 0.000515193
7 *3987:CLK 0.000132223
8 *4109:A 0.000304187
9 *3886:CLK 5.35171e-05
10 *3887:CLK 0
11 *4055:CLK 0.000191861
12 *4051:CLK 0.000255435
13 *4096:X 9.10331e-05
14 *624:106 0.00111579
15 *624:91 0.000986713
16 *624:83 0.000444211
17 *624:63 0.000378514
18 *624:59 0.000450479
19 *624:46 0.000447414
20 *624:44 0.000585104
21 *624:38 0.000229206
22 *624:16 0.000591964
23 *624:12 0.000264534
24 *624:10 0.000892168
25 *3917:CLK *3746:A0 0.000308719
26 *3917:CLK *4287:A 4.82919e-05
27 *3917:CLK *1041:10 7.00889e-06
28 *3990:CLK *3506:B 0.00010141
29 *3990:CLK *641:84 0
30 *3990:CLK *641:99 0
31 *4051:CLK *4051:RESET_B 6.69608e-06
32 *4051:CLK *4056:RESET_B 0.000157886
33 *4051:CLK *889:97 1.83847e-05
34 *4055:CLK *3669:B 0.000205372
35 *4055:CLK *4050:RESET_B 4.76365e-05
36 *4055:CLK *4276:A 3.45679e-05
37 *4056:CLK *3669:B 1.87038e-05
38 *4056:CLK *4395:A 1.42807e-05
39 *4056:CLK *869:10 8.65037e-05
40 *624:16 *4056:RESET_B 4.41897e-05
41 *624:44 *3752:A0 8.45944e-05
42 *624:44 *3752:A1 8.82457e-05
43 *624:44 *3752:S 3.32538e-05
44 *624:44 *4200:A 3.68999e-05
45 *624:46 *3669:A 2.49909e-05
46 *624:46 *3674:A1 5.63701e-05
47 *624:46 *4200:A 8.41307e-05
48 *624:59 *3669:A 2.84434e-05
49 *624:59 *3672:A1 2.68721e-05
50 *624:83 *3666:A1 0
51 *624:83 *3670:A1 7.25036e-05
52 *624:83 *3672:A1 4.65643e-05
53 *624:91 *3405:A 0.000116158
54 *624:91 *3405:B 5.42473e-05
55 *624:91 *3670:A1 0.000116853
56 *624:91 *4392:A 0
57 o_receive_data[5] *624:59 2.67022e-05
58 *3668:S *4055:CLK 5.0751e-05
59 *3668:S *4056:CLK 2.68526e-05
60 *3668:S *624:10 6.10014e-05
61 *3668:S *624:12 0.00012819
62 *3668:S *624:16 3.3641e-05
63 *3670:A0 *624:59 0
64 *3670:A0 *624:83 0
65 *3886:D *624:59 0.000141599
66 *3887:D *624:59 6.50844e-06
67 *3987:RESET_B *3990:CLK 0
68 *3988:D *3990:CLK 5.81675e-05
69 *3989:D *624:91 0
70 *3990:D *3990:CLK 4.78182e-05
71 *4050:D *3917:CLK 2.31229e-05
72 *4277:A *624:44 4.85381e-05
73 *162:6 *3987:CLK 3.64522e-05
74 *162:6 *624:106 2.65814e-06
75 *606:45 *624:10 4.82919e-05
*RES
1 *4096:X *624:10 5.43 
2 *624:10 *624:12 2.655 
3 *624:12 *624:16 2.595 
4 *624:16 *4051:CLK 8.01 
5 *624:16 *4055:CLK 8.19 
6 *624:12 *624:38 2 
7 *624:38 *624:44 4.71 
8 *624:44 *624:46 3.555 
9 *624:46 *3887:CLK 1.6 
10 *624:46 *624:59 5.9 
11 *624:59 *624:63 2.36 
12 *624:63 *3886:CLK 2.755 
13 *624:63 *4109:A 5.845 
14 *624:59 *624:83 5.675 
15 *624:83 *624:91 8.905 
16 *624:91 *3987:CLK 3.355 
17 *624:91 *624:106 7.035 
18 *624:106 *3990:CLK 14.645 
19 *624:106 *3988:CLK 1.6 
20 *624:83 *3989:CLK 1.6 
21 *624:44 *4056:CLK 8.195 
22 *624:38 *4050:CLK 1.6 
23 *624:10 *3917:CLK 14.175 
*END

*D_NET *625 0.0141666
*CONN
*I *3920:CLK I *D sky130_fd_sc_hd__dfrtp_2
*I *3921:CLK I *D sky130_fd_sc_hd__dfrtp_2
*I *3997:CLK I *D sky130_fd_sc_hd__dfrtp_2
*I *3919:CLK I *D sky130_fd_sc_hd__dfrtp_2
*I *3918:CLK I *D sky130_fd_sc_hd__dfrtp_2
*I *3994:CLK I *D sky130_fd_sc_hd__dfrtp_2
*I *3995:CLK I *D sky130_fd_sc_hd__dfrtp_2
*I *3992:CLK I *D sky130_fd_sc_hd__dfrtp_2
*I *3993:CLK I *D sky130_fd_sc_hd__dfrtp_2
*I *3991:CLK I *D sky130_fd_sc_hd__dfrtp_2
*I *4097:X O *D sky130_fd_sc_hd__clkbuf_8
*CAP
1 *3920:CLK 0
2 *3921:CLK 0.000226107
3 *3997:CLK 0.000132456
4 *3919:CLK 0.000339266
5 *3918:CLK 0.00011521
6 *3994:CLK 0.000337417
7 *3995:CLK 0.000107777
8 *3992:CLK 0
9 *3993:CLK 0.00030512
10 *3991:CLK 0.000419678
11 *4097:X 0.00119325
12 *625:92 0.000770219
13 *625:86 0.000515662
14 *625:82 0.00029357
15 *625:80 0.000416327
16 *625:53 0.000612603
17 *625:29 0.000666172
18 *625:21 0.000712014
19 *625:8 0.00138015
20 *3918:CLK *3365:D 7.4027e-05
21 *3918:CLK *876:20 0.000199734
22 *3918:CLK *877:31 4.24292e-06
23 *3919:CLK *877:31 0.0002437
24 *3919:CLK *890:27 7.47284e-05
25 *3921:CLK *1045:16 0.000114492
26 *3991:CLK *631:10 1.4389e-05
27 *3993:CLK *3415:A1 0.000213101
28 *3993:CLK *673:8 1.70935e-05
29 *3994:CLK *3420:A 0
30 *3995:CLK *3420:A 0.000235857
31 *3995:CLK *3800:A1 4.53674e-05
32 *3995:CLK *3800:B1 4.77719e-05
33 *3997:CLK *3381:A1 0.000239153
34 *625:8 *3799:B1 2.14559e-05
35 *625:8 *890:79 0.000417208
36 *625:8 *1057:12 0.000137277
37 *625:21 *3799:B1 3.34361e-05
38 *625:21 *890:92 0
39 *625:92 *3383:A1 0
40 *3381:A2 *3997:CLK 8.65961e-05
41 *3416:A *3993:CLK 4.87465e-06
42 *3420:B *3993:CLK 0.00020789
43 *3515:A_N *625:80 0.000120655
44 *3515:B *625:80 0.000188556
45 *3515:C *625:80 2.97758e-05
46 *3918:D *3918:CLK 6.81315e-05
47 *3991:D *3991:CLK 0.000123286
48 *3991:RESET_B *625:21 6.88421e-05
49 *3992:D *3993:CLK 2.75229e-05
50 *3992:D *625:29 5.66967e-05
51 *3992:RESET_B *3995:CLK 2.93447e-05
52 *3992:RESET_B *625:53 3.35139e-05
53 *3993:D *3993:CLK 7.22354e-05
54 *3994:D *3994:CLK 7.35729e-05
55 *3995:D *3995:CLK 6.06867e-05
56 *3997:D *3997:CLK 0.000361378
57 *3997:D *625:92 6.71882e-05
58 *4097:A *625:80 0.000222228
59 *11:10 *3918:CLK 0
60 *11:10 *3921:CLK 0.000314532
61 *11:10 *625:86 9.37403e-05
62 *392:10 *3918:CLK 2.25075e-05
63 *392:10 *625:92 8.69212e-05
64 *392:25 *3997:CLK 0.000148977
65 *392:25 *625:92 1.16578e-05
66 *396:20 *625:80 4.80285e-05
67 *396:24 *625:86 6.10014e-05
68 *396:24 *625:92 0.00038674
69 *396:32 *3918:CLK 3.86607e-05
70 *396:32 *625:92 0.000121876
71 *396:57 *3921:CLK 0.000224314
72 *396:57 *625:86 2.86623e-05
73 *412:12 *625:21 0
*RES
1 *4097:X *625:8 11.38 
2 *625:8 *3991:CLK 6.805 
3 *625:8 *625:21 4.91 
4 *625:21 *625:29 6.62 
5 *625:29 *3993:CLK 12.59 
6 *625:29 *3992:CLK 1.6 
7 *625:21 *625:53 2.91 
8 *625:53 *3995:CLK 6.81 
9 *625:53 *3994:CLK 8.925 
10 *4097:X *625:80 10.33 
11 *625:80 *625:82 2 
12 *625:82 *625:86 3.89 
13 *625:86 *625:92 10.13 
14 *625:92 *3918:CLK 7.02 
15 *625:92 *3919:CLK 12.37 
16 *625:86 *3997:CLK 7.225 
17 *625:82 *3921:CLK 9.825 
18 *625:80 *3920:CLK 1.6 
*END

*D_NET *626 0.00920167
*CONN
*I *3996:CLK I *D sky130_fd_sc_hd__dfstp_2
*I *4110:A I *D sky130_fd_sc_hd__clkbuf_8
*I *3924:CLK I *D sky130_fd_sc_hd__dfrtp_2
*I *3925:CLK I *D sky130_fd_sc_hd__dfrtp_2
*I *3922:CLK I *D sky130_fd_sc_hd__dfrtp_2
*I *3923:CLK I *D sky130_fd_sc_hd__dfrtp_2
*I *3926:CLK I *D sky130_fd_sc_hd__dfrtp_2
*I *3938:CLK I *D sky130_fd_sc_hd__dfstp_2
*I *3941:CLK I *D sky130_fd_sc_hd__dfrtp_2
*I *3986:CLK I *D sky130_fd_sc_hd__dfrtp_2
*I *4098:X O *D sky130_fd_sc_hd__clkbuf_8
*CAP
1 *3996:CLK 0.00018566
2 *4110:A 0
3 *3924:CLK 0
4 *3925:CLK 0.000106159
5 *3922:CLK 0.00026294
6 *3923:CLK 0
7 *3926:CLK 0
8 *3938:CLK 2.86944e-05
9 *3941:CLK 0.000434985
10 *3986:CLK 0
11 *4098:X 0
12 *626:81 0.000439585
13 *626:70 0.000237803
14 *626:64 0.00030075
15 *626:56 0.000315651
16 *626:23 0.000535658
17 *626:21 0.000379728
18 *626:10 0.00044158
19 *626:8 0.000339131
20 *626:4 0.000208743
21 *3922:CLK *3505:A 0.000238537
22 *3925:CLK *3375:A1 1.83756e-05
23 *3925:CLK *1049:8 1.6418e-05
24 *3938:CLK *3527:A1 5.20476e-05
25 *3941:CLK *3435:B2 2.49909e-05
26 *3941:CLK *3527:A2 9.17155e-05
27 *3941:CLK *645:101 8.25609e-05
28 *3941:CLK *993:58 0.000158297
29 *3996:CLK *3369:A 0.000284977
30 *3996:CLK *3794:A2 8.23457e-05
31 *3996:CLK *3794:B1 0.000350486
32 *3996:CLK *1051:10 0.000151541
33 *3996:CLK *1051:16 3.7712e-05
34 *626:8 *1051:10 0.000163204
35 *626:10 *645:114 0
36 *626:21 *3774:A1 0
37 *626:21 *3805:A1 0
38 *626:21 *645:114 0
39 *626:21 *993:58 0.000230863
40 *626:23 *645:101 8.07785e-05
41 *626:23 *993:58 0.000203762
42 *626:56 *3773:B1 0
43 *626:56 *1047:76 0.000199833
44 *626:64 *3772:B1 7.35729e-05
45 *626:64 *644:77 0
46 *626:64 *1048:10 2.59835e-05
47 *626:70 *3370:A 0.000182342
48 *626:70 *3772:B1 6.3889e-05
49 *626:70 *644:77 5.23362e-05
50 *626:70 *644:83 2.49909e-05
51 *626:70 *1048:10 1.61831e-05
52 *626:70 *1048:35 0.000122331
53 *626:70 *1048:69 3.60566e-05
54 *626:81 *3370:A 0.00015995
55 *3363:A2 *626:21 2.09665e-05
56 *3363:A3 *626:23 0
57 *3374:A *626:56 0
58 *3374:B *626:56 0.000201503
59 *3375:A2 *3925:CLK 5.46216e-05
60 *3375:A2 *626:70 1.15688e-05
61 *3375:B1 *3922:CLK 4.82919e-05
62 *3375:B1 *626:81 6.10014e-05
63 *3376:B1 *3922:CLK 5.83121e-06
64 *3376:B1 *3925:CLK 2.03356e-05
65 *3528:B1 *3938:CLK 3.08892e-05
66 *3924:D *626:64 0.000138781
67 *3925:D *3922:CLK 0.000107424
68 *3925:D *3925:CLK 0.00022786
69 *3926:D *626:21 4.70995e-05
70 *3926:D *626:23 4.18603e-06
71 *3941:RESET_B *3941:CLK 0.000152312
72 *3986:D *626:21 0.000114458
73 *396:14 *3996:CLK 0.00012657
74 *396:14 *626:8 0.000163204
75 *396:96 *626:70 0.000196626
76 *396:96 *626:81 2.4997e-05
*RES
1 *4098:X *626:4 1.6 
2 *626:4 *626:8 3.485 
3 *626:8 *626:10 2.145 
4 *626:10 *3986:CLK 3.6 
5 *626:10 *626:21 6.675 
6 *626:21 *626:23 2.4 
7 *626:23 *3941:CLK 12.15 
8 *626:23 *3938:CLK 4.395 
9 *626:21 *3926:CLK 3.6 
10 *626:8 *626:56 6.23 
11 *626:56 *626:64 7.03 
12 *626:64 *626:70 7.67 
13 *626:70 *3923:CLK 3.6 
14 *626:70 *626:81 3.89 
15 *626:81 *3922:CLK 7.57 
16 *626:81 *3925:CLK 4.495 
17 *626:64 *3924:CLK 1.6 
18 *626:56 *4110:A 1.6 
19 *626:4 *3996:CLK 7.915 
*END

*D_NET *627 0.0091696
*CONN
*I *3929:CLK I *D sky130_fd_sc_hd__dfrtp_2
*I *3985:CLK I *D sky130_fd_sc_hd__dfrtp_2
*I *3943:CLK I *D sky130_fd_sc_hd__dfrtp_2
*I *3944:CLK I *D sky130_fd_sc_hd__dfrtp_2
*I *4111:A I *D sky130_fd_sc_hd__clkinv_2
*I *3942:CLK I *D sky130_fd_sc_hd__dfstp_2
*I *4038:CLK I *D sky130_fd_sc_hd__dfstp_2
*I *4040:CLK I *D sky130_fd_sc_hd__dfrtp_2
*I *3931:CLK I *D sky130_fd_sc_hd__dfstp_2
*I *3936:CLK I *D sky130_fd_sc_hd__dfrtp_2
*I *4099:X O *D sky130_fd_sc_hd__clkbuf_8
*CAP
1 *3929:CLK 0.000167255
2 *3985:CLK 6.65985e-05
3 *3943:CLK 0
4 *3944:CLK 6.70481e-05
5 *4111:A 2.08101e-05
6 *3942:CLK 3.37662e-05
7 *4038:CLK 6.85984e-05
8 *4040:CLK 0.000689163
9 *3931:CLK 5.66458e-05
10 *3936:CLK 0.000296845
11 *4099:X 1.71225e-05
12 *627:98 0.000492742
13 *627:77 0.000121604
14 *627:59 0.000167396
15 *627:55 0.000213049
16 *627:44 0.000875944
17 *627:42 0.000245295
18 *627:40 0.00076567
19 *627:10 0.000551181
20 *627:8 0.000548805
21 *3929:CLK *4152:A 4.82919e-05
22 *3936:CLK *3931:D 6.74079e-05
23 *3936:CLK *993:14 4.91189e-05
24 *3936:CLK *993:23 1.43521e-05
25 *3936:CLK *1093:12 4.98015e-05
26 *3942:CLK *3662:A1 7.66083e-05
27 *3985:CLK *3793:A2 0.000118513
28 *3985:CLK *4153:A 1.08723e-05
29 *3985:CLK *894:83 9.02455e-05
30 *4038:CLK *3662:A1 0.000162311
31 *4040:CLK *4040:D 7.10578e-05
32 *4040:CLK *4227:A 0.000307041
33 *4040:CLK *993:46 0.000157959
34 *4111:A *4226:A 0
35 *627:8 *3625:B 8.65905e-05
36 *627:10 *993:23 6.02273e-05
37 *627:10 *993:46 7.67721e-05
38 *627:40 *878:33 0.000137571
39 *627:40 *993:46 5.63974e-05
40 *627:40 *1035:12 0
41 *627:42 *892:8 7.20129e-05
42 *627:42 *993:46 0.000174604
43 *627:44 *993:46 0.000105508
44 *627:55 *3440:A2 0.000183738
45 *627:59 *3363:B1 5.3023e-05
46 *627:98 *3793:A2 4.65607e-05
47 *627:98 *4217:A 3.00381e-05
48 *627:98 *892:8 0.000152011
49 *3441:B *627:55 0.00011852
50 *3936:RESET_B *3936:CLK 8.08153e-06
51 *3936:RESET_B *627:10 4.7043e-05
52 *3942:SET_B *627:40 9.42224e-05
53 *3943:D *627:42 6.00111e-05
54 *3943:D *627:44 8.63479e-05
55 *3944:D *3944:CLK 4.66826e-05
56 *3944:D *627:55 9.68787e-05
57 *3944:D *627:59 3.05295e-05
58 *3985:RESET_B *627:40 0.000388413
59 *4040:RESET_B *4040:CLK 2.20753e-05
60 *360:14 *627:8 5.05437e-05
61 *360:33 *627:55 9.37612e-05
62 *360:33 *627:59 7.75412e-05
63 *603:55 *3985:CLK 1.09018e-05
64 *603:105 *3985:CLK 1.38716e-05
*RES
1 *4099:X *627:8 4.395 
2 *627:8 *627:10 4.185 
3 *627:10 *3936:CLK 8.925 
4 *627:10 *3931:CLK 4.395 
5 *627:8 *627:40 10.265 
6 *627:40 *627:42 3.9 
7 *627:42 *627:44 1.83 
8 *627:44 *4040:CLK 13.435 
9 *627:44 *627:55 6.185 
10 *627:55 *627:59 4.145 
11 *627:59 *4038:CLK 3.085 
12 *627:59 *3942:CLK 2.395 
13 *627:55 *627:77 2.45 
14 *627:77 *4111:A 1.96 
15 *627:77 *3944:CLK 2.74 
16 *627:42 *3943:CLK 1.6 
17 *627:40 *627:98 4.935 
18 *627:98 *3985:CLK 7.745 
19 *627:98 *3929:CLK 4.12 
*END

*D_NET *628 0.0114272
*CONN
*I *4043:CLK I *D sky130_fd_sc_hd__dfrtp_2
*I *4021:CLK I *D sky130_fd_sc_hd__dfrtp_2
*I *4039:CLK I *D sky130_fd_sc_hd__dfrtp_2
*I *4037:CLK I *D sky130_fd_sc_hd__dfrtp_2
*I *3930:CLK I *D sky130_fd_sc_hd__dfrtp_2
*I *3915:CLK I *D sky130_fd_sc_hd__dfrtp_2
*I *4045:CLK I *D sky130_fd_sc_hd__dfrtp_2
*I *4035:CLK I *D sky130_fd_sc_hd__dfrtp_2
*I *4036:CLK I *D sky130_fd_sc_hd__dfrtp_2
*I *4044:CLK I *D sky130_fd_sc_hd__dfrtp_2
*I *3939:CLK I *D sky130_fd_sc_hd__dfrtp_2
*I *3940:CLK I *D sky130_fd_sc_hd__dfrtp_2
*I *4100:X O *D sky130_fd_sc_hd__clkbuf_8
*CAP
1 *4043:CLK 0
2 *4021:CLK 0.000471223
3 *4039:CLK 0
4 *4037:CLK 0.000405538
5 *3930:CLK 0.000633795
6 *3915:CLK 0
7 *4045:CLK 0.000242509
8 *4035:CLK 0
9 *4036:CLK 0.000141916
10 *4044:CLK 0
11 *3939:CLK 0.000189514
12 *3940:CLK 0
13 *4100:X 0.000104117
14 *628:127 0.000507149
15 *628:97 0.0011514
16 *628:93 0.000200418
17 *628:91 0.000322669
18 *628:53 0.000817303
19 *628:46 0.000915118
20 *628:42 0.000885614
21 *628:27 0.000790451
22 *628:16 0.000368048
23 *628:14 0.000514354
24 *628:12 0.00071823
25 *3930:CLK *3422:A1_N 0
26 *3930:CLK *658:114 9.14049e-05
27 *3930:CLK *911:10 0
28 *3930:CLK *1096:8 0
29 *3930:CLK *1096:29 3.19284e-05
30 *3939:CLK *879:8 1.1392e-05
31 *3939:CLK *879:25 7.97165e-05
32 *4021:CLK *885:62 8.92676e-05
33 *4036:CLK *3853:A1 0
34 *4036:CLK *887:82 8.8266e-05
35 *4045:CLK *3761:A 0
36 *4045:CLK *4071:A 0
37 *628:12 *4043:D 0
38 *628:12 *911:10 0.000162332
39 *628:12 *1030:8 0
40 *628:12 *1030:16 4.82919e-05
41 *628:42 *3996:D 0
42 *628:42 *879:25 0.000197127
43 *628:91 *3845:B1 4.66108e-05
44 *628:91 *659:47 0.000152821
45 *628:91 *659:58 2.92496e-05
46 *628:91 *899:82 0.000140912
47 *628:93 *659:16 3.24501e-05
48 *628:93 *659:47 7.70828e-05
49 *628:93 *899:82 0.000162325
50 *628:97 *659:16 9.82856e-06
51 *628:97 *911:10 0
52 *628:127 *885:62 3.45588e-05
53 *628:127 *899:82 4.82919e-05
54 *3939:RESET_B *3939:CLK 0.00015896
55 *3940:D *628:27 5.05521e-05
56 *3940:RESET_B *3939:CLK 4.7043e-05
57 *3996:SET_B *628:42 0
58 *4035:D *4036:CLK 5.72091e-05
59 *4036:D *4036:CLK 0
60 *4037:D *4037:CLK 6.72076e-05
61 *4037:RESET_B *3930:CLK 1.22676e-05
62 *4037:RESET_B *628:93 5.38986e-06
63 *4037:RESET_B *628:97 5.00612e-05
64 *4037:RESET_B *628:127 9.82856e-06
65 *4039:D *3930:CLK 0
66 *4039:D *4021:CLK 2.75229e-05
67 *4043:RESET_B *628:91 1.52945e-05
68 *4149:A *3930:CLK 1.26626e-05
*RES
1 *4100:X *628:12 7.94 
2 *628:12 *628:14 4.935 
3 *628:14 *628:16 2.52 
4 *628:16 *3940:CLK 1.6 
5 *628:16 *628:27 4.445 
6 *628:27 *3939:CLK 7.845 
7 *628:27 *628:42 7.755 
8 *628:42 *628:46 5.555 
9 *628:46 *4044:CLK 1.6 
10 *628:46 *628:53 9.765 
11 *628:53 *4036:CLK 8.54 
12 *628:53 *4035:CLK 1.6 
13 *628:42 *4045:CLK 7.53 
14 *628:14 *3915:CLK 1.6 
15 *628:12 *628:91 7.355 
16 *628:91 *628:93 2.0175 
17 *628:93 *628:97 2.2125 
18 *628:97 *3930:CLK 12.3 
19 *628:97 *4037:CLK 8.46 
20 *628:93 *628:127 3.0275 
21 *628:127 *4039:CLK 1.6 
22 *628:127 *4021:CLK 8.95 
23 *628:91 *4043:CLK 3.6 
*END

*D_NET *629 0.000563273
*CONN
*I *4071:A I *D sky130_fd_sc_hd__ebufn_2
*I *4072:LO O *D sky130_fd_sc_hd__conb_1
*CAP
1 *4071:A 0.000253118
2 *4072:LO 0.000253118
3 *4071:A *3761:A 0
4 *4071:A *4044:D 0
5 *4045:CLK *4071:A 0
6 *4045:D *4071:A 3.86607e-05
7 *4071:TE_B *4071:A 1.83756e-05
8 *50:8 *4071:A 0
*RES
1 *4072:LO *4071:A 11.325 
*END

*D_NET *630 0.000453056
*CONN
*I *3640:A1 I *D sky130_fd_sc_hd__mux2_1
*I *4333:X O *D sky130_fd_sc_hd__clkdlybuf4s25_1
*CAP
1 *3640:A1 8.8241e-05
2 *4333:X 8.8241e-05
3 *3640:A1 *3640:A0 4.66108e-05
4 *3640:A1 *909:48 4.9968e-05
5 *3640:A1 *909:63 0.000118527
6 *3640:A1 *916:77 6.14689e-05
*RES
1 *4333:X *3640:A1 9.54 
*END

*D_NET *631 0.00417984
*CONN
*I *3406:A2 I *D sky130_fd_sc_hd__a21o_2
*I *3410:A2 I *D sky130_fd_sc_hd__a2111o_2
*I *3407:A I *D sky130_fd_sc_hd__nand2_2
*I *3405:B I *D sky130_fd_sc_hd__xor2_2
*I *4334:X O *D sky130_fd_sc_hd__clkdlybuf4s25_1
*CAP
1 *3406:A2 0.000190198
2 *3410:A2 7.02921e-06
3 *3407:A 9.45709e-05
4 *3405:B 0.000196691
5 *4334:X 0.000263204
6 *631:27 0.000428524
7 *631:12 0.000744212
8 *631:10 0.000673999
9 *3405:B *3405:A 0
10 *3406:A2 *3406:B1 4.82863e-05
11 *3406:A2 *3414:A 4.82863e-05
12 *3407:A *3407:B 3.293e-05
13 *3410:A2 *3407:B 1.90686e-05
14 *631:10 *664:10 4.82863e-05
15 *631:12 *3410:D1 0.000337538
16 *631:12 *664:10 0.000139238
17 *631:27 *3407:B 9.04921e-05
18 *631:27 *3410:A1 3.03144e-05
19 *631:27 *906:12 0.00015896
20 *3408:A1 *3405:B 3.47837e-05
21 *3408:A1 *631:12 1.86688e-05
22 *3408:A2 *3407:A 1.03423e-05
23 *3408:B1 *631:12 0.000226848
24 *3989:D *3405:B 0
25 *3991:CLK *631:10 1.4389e-05
26 *4337:A *631:10 3.00381e-05
27 *4375:A *3410:A2 0
28 *4375:A *631:27 0.00010294
29 *412:12 *3406:A2 0
30 *412:12 *631:12 0
31 *412:22 *631:12 0.000135758
32 *414:23 *3406:A2 0
33 *624:91 *3405:B 5.42473e-05
*RES
1 *4334:X *631:10 7.515 
2 *631:10 *631:12 6.225 
3 *631:12 *3405:B 5.675 
4 *631:12 *631:27 6.71 
5 *631:27 *3407:A 3.1 
6 *631:27 *3410:A2 1.96 
7 *631:10 *3406:A2 6.705 
*END

*D_NET *632 0.0119584
*CONN
*I *4170:A I *D sky130_fd_sc_hd__clkdlybuf4s25_1
*I *4171:A I *D sky130_fd_sc_hd__clkdlybuf4s25_1
*I *3909:RESET_B I *D sky130_fd_sc_hd__dfrtp_2
*I *4172:A I *D sky130_fd_sc_hd__clkdlybuf4s25_1
*I *3908:RESET_B I *D sky130_fd_sc_hd__dfrtp_2
*I *4113:X O *D sky130_fd_sc_hd__clkdlybuf4s25_1
*CAP
1 *4170:A 0.000414094
2 *4171:A 0
3 *3909:RESET_B 0.000209946
4 *4172:A 0.00079356
5 *3908:RESET_B 5.72541e-05
6 *4113:X 0
7 *632:22 0.00125242
8 *632:12 0.00218872
9 *632:6 0.00190702
10 *632:4 0.000438566
11 *3909:RESET_B *973:66 0
12 *4170:A *3701:A1 0
13 *4170:A *3703:A1 0
14 *4170:A *909:33 4.41506e-05
15 *4170:A *987:10 3.47668e-05
16 *4172:A *3712:B 0
17 *632:6 *909:33 2.49909e-05
18 *632:12 *3620:B1 0.000163185
19 *632:12 *3620:B2 2.75707e-05
20 *632:12 *3622:A2 1.37112e-05
21 *632:12 *3631:S 1.71013e-05
22 *632:12 *3694:A1 0.00014262
23 *632:12 *3759:A1 0
24 *632:12 *4058:D 0
25 *632:12 *774:10 0
26 *632:12 *909:33 0.000629282
27 *632:12 *954:10 8.52769e-05
28 *632:12 *962:10 0
29 *632:12 *962:16 0
30 *632:12 *970:23 0
31 *3485:A *4170:A 8.33459e-05
32 *3485:D *4170:A 8.49504e-05
33 *3619:A *632:12 4.92096e-05
34 *3692:B2 *632:12 0
35 *3696:A2 *632:12 0.000115945
36 *3702:B2 *4170:A 0.00011852
37 *3704:B2 *4170:A 0.000206123
38 *3715:A1 *4172:A 3.23663e-05
39 *3715:A2 *4172:A 0.000387902
40 *3717:A2 *3909:RESET_B 2.23485e-05
41 *3720:B *632:12 0
42 *3721:C *4172:A 5.69102e-05
43 *3722:A2 *4172:A 9.50342e-06
44 *3724:C *632:22 0.000246879
45 *3727:B *632:22 9.54399e-05
46 *3730:B *3909:RESET_B 0.000117832
47 *3730:C *3909:RESET_B 4.39001e-05
48 *3899:CLK *632:12 0.000197249
49 *3900:D *632:12 3.18965e-05
50 *3906:D *4172:A 5.07419e-05
51 *3907:D *632:22 0.000180682
52 *3908:D *632:22 1.94636e-05
53 *3909:D *3909:RESET_B 7.62006e-05
54 *4063:CLK *632:12 0
55 *4063:CLK *632:22 0
56 *4092:A *632:12 0
57 *4274:A *632:12 0
58 *434:43 *632:12 0.000349996
59 *579:10 *3909:RESET_B 0
60 *580:10 *3909:RESET_B 1.1561e-05
61 *580:10 *632:22 0.000172117
62 *582:23 *3909:RESET_B 0.000131008
63 *582:23 *632:22 8.68646e-05
64 *582:29 *632:22 7.07879e-05
65 *587:8 *632:12 3.68682e-05
66 *587:8 *632:22 6.23119e-05
67 *588:16 *632:22 0
68 *620:58 *632:12 8.53113e-06
69 *620:79 *632:12 0.00017574
70 *620:90 *632:12 0.000181006
*RES
1 *4113:X *632:4 1.6 
2 *632:4 *632:6 0.45 
3 *632:6 *632:12 40.175 
4 *632:12 *3908:RESET_B 2.7425 
5 *632:12 *632:22 8.01 
6 *632:22 *4172:A 19.3 
7 *632:22 *3909:RESET_B 7.25 
8 *632:6 *4171:A 1.6 
9 *632:4 *4170:A 14.66 
*END

*D_NET *633 0.00291223
*CONN
*I *3962:RESET_B I *D sky130_fd_sc_hd__dfrtp_2
*I *4376:A I *D sky130_fd_sc_hd__clkbuf_4
*I *3867:RESET_B I *D sky130_fd_sc_hd__dfrtp_2
*I *4114:X O *D sky130_fd_sc_hd__clkdlybuf4s25_1
*CAP
1 *3962:RESET_B 0.000145887
2 *4376:A 4.08724e-05
3 *3867:RESET_B 0.000394738
4 *4114:X 0.0004708
5 *633:10 0.000760523
6 *3867:RESET_B *981:10 9.71067e-05
7 *3867:RESET_B *981:27 0.000402041
8 *3962:RESET_B *3960:D 0
9 *3962:RESET_B *981:10 0
10 *4376:A *638:26 3.64998e-06
11 *4376:A *646:18 8.23457e-05
12 *4376:A *909:23 5.83121e-06
13 *633:10 *4114:A 7.11365e-05
14 *633:10 *638:26 0.000133595
15 *633:10 *646:12 0
16 *633:10 *981:27 0.000303704
*RES
1 *4114:X *633:10 11.52 
2 *633:10 *3867:RESET_B 7.715 
3 *633:10 *4376:A 4.395 
4 *3867:RESET_B *3962:RESET_B 6.4 
*END

*D_NET *634 0.0124096
*CONN
*I *3897:RESET_B I *D sky130_fd_sc_hd__dfrtp_2
*I *4063:RESET_B I *D sky130_fd_sc_hd__dfrtp_2
*I *3861:RESET_B I *D sky130_fd_sc_hd__dfrtp_2
*I *3952:RESET_B I *D sky130_fd_sc_hd__dfrtp_2
*I *3949:RESET_B I *D sky130_fd_sc_hd__dfrtp_2
*I *3904:RESET_B I *D sky130_fd_sc_hd__dfrtp_2
*I *3866:RESET_B I *D sky130_fd_sc_hd__dfrtp_2
*I *3862:RESET_B I *D sky130_fd_sc_hd__dfrtp_2
*I *4376:X O *D sky130_fd_sc_hd__clkbuf_4
*CAP
1 *3897:RESET_B 0.000102799
2 *4063:RESET_B 0.000668551
3 *3861:RESET_B 0.000342007
4 *3952:RESET_B 0.000165109
5 *3949:RESET_B 0.00027815
6 *3904:RESET_B 0.000711546
7 *3866:RESET_B 2.47683e-05
8 *3862:RESET_B 0.000941389
9 *4376:X 0.000150408
10 *634:110 0.000874374
11 *634:42 0.00123277
12 *634:34 0.00071442
13 *634:24 0.000335851
14 *634:8 0.000857656
15 *3861:RESET_B *987:10 3.67315e-05
16 *3862:RESET_B *3639:A1 0.000163204
17 *3862:RESET_B *3639:S 0
18 *3862:RESET_B *3977:RESET_B 0.000116151
19 *3862:RESET_B *908:10 0
20 *3862:RESET_B *908:16 0
21 *3862:RESET_B *909:8 0
22 *3862:RESET_B *988:6 0.000120741
23 *3866:RESET_B *924:8 2.35512e-05
24 *3904:RESET_B *3447:B 4.66108e-05
25 *3904:RESET_B *1002:45 4.31915e-05
26 *3904:RESET_B *1002:51 0.000109466
27 *3904:RESET_B *1007:10 0
28 *3904:RESET_B *1007:14 0.000114834
29 *3949:RESET_B *646:43 0.000539063
30 *3949:RESET_B *1004:12 0
31 *3952:RESET_B *3445:A 4.59022e-06
32 *3952:RESET_B *4306:A 4.28468e-05
33 *3952:RESET_B *1007:10 5.83121e-06
34 *4063:RESET_B *3621:B1 7.21296e-06
35 *4063:RESET_B *3623:B2 0.000260971
36 *4063:RESET_B *3753:A1 0
37 *4063:RESET_B *4058:RESET_B 0
38 *4063:RESET_B *4242:A 9.27326e-05
39 *4063:RESET_B *4271:A 0.000133749
40 *4063:RESET_B *875:58 0.000150763
41 *4063:RESET_B *961:26 0
42 *4063:RESET_B *968:21 0.000112971
43 *634:8 *909:23 0.000239813
44 *634:34 *3445:A 3.79514e-05
45 *634:42 *3447:B 0.000191962
46 *634:42 *3448:A 2.76154e-05
47 *634:42 *3452:C 2.747e-05
48 *634:42 *3687:A2 8.41384e-05
49 *634:42 *646:43 4.43011e-05
50 *634:42 *981:27 1.46781e-05
51 *634:42 *1002:20 4.03804e-05
52 *634:110 *3621:A2 0.000233272
53 *634:110 *3688:A1 0
54 *3466:B *3952:RESET_B 9.10613e-05
55 *3524:A2 *3952:RESET_B 3.36324e-05
56 *3524:A2 *634:42 4.89395e-05
57 *3524:B1 *3949:RESET_B 6.54596e-05
58 *3621:C1 *4063:RESET_B 7.63204e-05
59 *3623:C1 *4063:RESET_B 0.000166812
60 *3862:CLK *3861:RESET_B 0.000152312
61 *3866:D *3862:RESET_B 4.40446e-05
62 *3904:CLK *3904:RESET_B 0.000197243
63 *3965:D *3862:RESET_B 7.30733e-05
64 *3965:D *634:24 3.18891e-05
65 *3972:D *3949:RESET_B 0
66 *109:28 *3904:RESET_B 0.000183007
67 *431:10 *3949:RESET_B 0.000102517
68 *431:10 *634:42 0.000133233
69 *435:8 *634:42 4.89395e-05
70 *618:57 *3904:RESET_B 0.000409775
71 *618:109 *3862:RESET_B 8.47629e-05
*RES
1 *4376:X *634:8 5.775 
2 *634:8 *3862:RESET_B 13.3325 
3 *634:8 *634:24 1.89 
4 *634:24 *3866:RESET_B 2.3975 
5 *634:24 *634:34 3.42 
6 *634:34 *634:42 10.9 
7 *634:42 *3904:RESET_B 14.7425 
8 *634:42 *3949:RESET_B 9.035 
9 *634:34 *3952:RESET_B 5.2325 
10 *3862:RESET_B *3861:RESET_B 5.415 
11 *3904:RESET_B *634:110 6.655 
12 *634:110 *4063:RESET_B 18.865 
13 *634:110 *3897:RESET_B 1.4325 
*END

*D_NET *635 0.00138906
*CONN
*I *4377:A I *D sky130_fd_sc_hd__buf_2
*I *4060:RESET_B I *D sky130_fd_sc_hd__dfrtp_2
*I *4061:RESET_B I *D sky130_fd_sc_hd__dfrtp_2
*I *4115:X O *D sky130_fd_sc_hd__clkdlybuf4s25_1
*CAP
1 *4377:A 0.000233367
2 *4060:RESET_B 6.0977e-05
3 *4061:RESET_B 0.000157032
4 *4115:X 0
5 *635:6 0.000354039
6 *635:4 0.000369397
7 *4060:RESET_B *3757:A0 0.000118527
8 *4061:RESET_B *965:8 7.25921e-05
9 *4377:A *936:41 2.31329e-05
10 *4060:D *4060:RESET_B 0
11 *4061:CLK *4060:RESET_B 0
*RES
1 *4115:X *635:4 1.6 
2 *635:4 *635:6 1.83 
3 *635:6 *4061:RESET_B 2.4675 
4 *635:6 *4060:RESET_B 5.38 
5 *635:4 *4377:A 4.825 
*END

*D_NET *636 0.0088551
*CONN
*I *3775:B1 I *D sky130_fd_sc_hd__o21a_2
*I *3806:B1 I *D sky130_fd_sc_hd__o21a_2
*I *3905:RESET_B I *D sky130_fd_sc_hd__dfrtp_2
*I *3957:SET_B I *D sky130_fd_sc_hd__dfstp_2
*I *3984:RESET_B I *D sky130_fd_sc_hd__dfrtp_2
*I *3981:RESET_B I *D sky130_fd_sc_hd__dfrtp_2
*I *3979:RESET_B I *D sky130_fd_sc_hd__dfrtp_2
*I *3954:RESET_B I *D sky130_fd_sc_hd__dfrtp_2
*I *4377:X O *D sky130_fd_sc_hd__buf_2
*CAP
1 *3775:B1 0.000184944
2 *3806:B1 0
3 *3905:RESET_B 0.000481464
4 *3957:SET_B 0
5 *3984:RESET_B 0.000518359
6 *3981:RESET_B 0
7 *3979:RESET_B 0.000695352
8 *3954:RESET_B 0.00102199
9 *4377:X 0.000448944
10 *636:109 0.000390854
11 *636:74 0.000653756
12 *636:64 0.000550583
13 *636:57 0.000188153
14 *3775:B1 *3806:A1 0.000191232
15 *3775:B1 *880:21 0.000295605
16 *3775:B1 *894:22 0.00049348
17 *3905:RESET_B *3402:B 0
18 *3905:RESET_B *3715:B1 9.52646e-05
19 *3905:RESET_B *646:53 0.000216744
20 *3905:RESET_B *907:40 0.00016313
21 *3905:RESET_B *936:21 0.000250076
22 *3954:RESET_B *4115:A 0
23 *3954:RESET_B *4211:A 0.000117832
24 *3954:RESET_B *936:41 8.65961e-05
25 *3979:RESET_B *907:40 0.000197407
26 *636:57 *907:40 0.000110115
27 *636:64 *907:40 4.70343e-05
28 *636:74 *907:40 0.000147083
29 *636:109 *3470:B1 1.07797e-05
30 *636:109 *3470:B2 8.53113e-06
31 *636:109 *3806:A1 8.41307e-05
32 *636:109 *894:22 2.42043e-05
33 *636:109 *894:32 5.16418e-05
34 *636:109 *933:12 9.36949e-05
35 *636:109 *936:41 0
36 *3954:CLK *3979:RESET_B 0.00010013
37 *3954:D *3979:RESET_B 0
38 *3957:D *3905:RESET_B 8.08153e-06
39 *3957:D *636:74 4.7043e-05
40 *3979:CLK *3979:RESET_B 5.83121e-06
41 *3982:D *3905:RESET_B 4.66108e-05
42 *3982:D *636:57 0
43 *3982:D *636:64 0
44 *3982:D *636:74 0
45 *3983:D *3954:RESET_B 0.000199734
46 *4093:A *3954:RESET_B 3.05295e-05
47 *4093:A *636:109 0.000211237
48 *109:14 *3954:RESET_B 0.000176664
49 *617:32 *3979:RESET_B 9.28188e-05
50 *617:36 *3979:RESET_B 4.18603e-06
51 *621:29 *3984:RESET_B 0.000113255
*RES
1 *4377:X *3954:RESET_B 15.2375 
2 *3954:RESET_B *3979:RESET_B 13.6 
3 *3979:RESET_B *636:57 4.91 
4 *636:57 *3981:RESET_B 2 
5 *636:57 *636:64 1.38 
6 *636:64 *3984:RESET_B 6.5375 
7 *636:64 *636:74 4.185 
8 *636:74 *3957:SET_B 2 
9 *636:74 *3905:RESET_B 14.0675 
10 *3984:RESET_B *636:109 9.1825 
11 *636:109 *3806:B1 1.6 
12 *636:109 *3775:B1 7.69 
*END

*D_NET *637 0.00422451
*CONN
*I *3958:RESET_B I *D sky130_fd_sc_hd__dfrtp_2
*I *3955:SET_B I *D sky130_fd_sc_hd__dfstp_2
*I *3974:RESET_B I *D sky130_fd_sc_hd__dfrtp_2
*I *3956:RESET_B I *D sky130_fd_sc_hd__dfrtp_2
*I *3983:RESET_B I *D sky130_fd_sc_hd__dfrtp_2
*I *4116:X O *D sky130_fd_sc_hd__clkdlybuf4s25_1
*CAP
1 *3958:RESET_B 0.000258512
2 *3955:SET_B 0.000329955
3 *3974:RESET_B 0
4 *3956:RESET_B 0
5 *3983:RESET_B 0.000178432
6 *4116:X 0.000389854
7 *637:12 0.000370752
8 *637:10 0.000266546
9 *637:6 0.000535522
10 *3958:RESET_B *3470:B1 0.000310417
11 *3958:RESET_B *4323:A 8.53113e-06
12 *3958:RESET_B *646:43 0.000416709
13 *3958:RESET_B *938:12 7.99718e-05
14 *3983:RESET_B *646:43 0
15 *3983:RESET_B *749:12 0
16 *3983:RESET_B *905:16 8.71001e-05
17 *3983:RESET_B *905:20 1.23607e-05
18 *637:6 *3468:A2 3.33212e-05
19 *637:6 *4301:A 5.062e-06
20 *637:10 *646:43 0
21 *637:10 *905:16 0
22 *637:12 *646:43 0
23 *637:12 *905:16 0.000192572
24 *3451:A1 *637:6 0.000123189
25 *3469:B1 *3958:RESET_B 0.000235585
26 *3955:D *3958:RESET_B 0.000118527
27 *4093:A *3958:RESET_B 0.000144401
28 *362:25 *637:6 5.94895e-05
29 *621:91 *3958:RESET_B 6.77054e-05
*RES
1 *4116:X *637:6 6.19 
2 *637:6 *637:10 3.125 
3 *637:10 *637:12 4.185 
4 *637:12 *3983:RESET_B 5.3075 
5 *637:12 *3956:RESET_B 2 
6 *637:10 *3974:RESET_B 2 
7 *637:6 *3955:SET_B 1.1025 
8 *3955:SET_B *3958:RESET_B 13.4575 
*END

*D_NET *638 0.00865996
*CONN
*I *4115:A I *D sky130_fd_sc_hd__clkdlybuf4s25_1
*I *4116:A I *D sky130_fd_sc_hd__clkdlybuf4s25_1
*I *3972:RESET_B I *D sky130_fd_sc_hd__dfrtp_2
*I *4114:A I *D sky130_fd_sc_hd__clkdlybuf4s25_1
*I *3977:RESET_B I *D sky130_fd_sc_hd__dfrtp_2
*I *4117:X O *D sky130_fd_sc_hd__clkdlybuf4s25_1
*CAP
1 *4115:A 0.000147887
2 *4116:A 0.000337006
3 *3972:RESET_B 0.000763213
4 *4114:A 5.10552e-05
5 *3977:RESET_B 0.000344076
6 *4117:X 0.000580103
7 *638:37 0.00143408
8 *638:26 0.000768832
9 *3972:RESET_B *3679:A1 0.000121437
10 *3972:RESET_B *936:41 0.000157343
11 *3972:RESET_B *949:25 2.05056e-05
12 *3977:RESET_B *646:18 0.000460254
13 *4115:A *905:28 0
14 *4115:A *936:41 7.70828e-05
15 *4116:A *3451:A2 0.000306608
16 *4116:A *3462:B2 0.000208974
17 *4116:A *3468:B2 8.53113e-06
18 *4116:A *4197:A 0.000557923
19 *4116:A *978:18 1.56428e-05
20 *4116:A *1008:10 0.000224415
21 *638:26 *646:18 2.50702e-05
22 *638:26 *981:27 1.82571e-05
23 *638:37 *3462:A1 3.68682e-05
24 *638:37 *3462:B2 0.000181152
25 *638:37 *4197:A 0.000141599
26 *638:37 *981:27 2.55342e-05
27 *638:37 *1002:16 0
28 *3451:A1 *4116:A 4.66108e-05
29 *3466:A *638:37 0.000105279
30 *3862:RESET_B *3977:RESET_B 0.000116151
31 *3946:D *638:37 0.000462415
32 *3947:D *638:37 0
33 *3954:RESET_B *4115:A 0
34 *3965:D *3977:RESET_B 0.000117825
35 *4302:A *4116:A 0.000384688
36 *4376:A *638:26 3.64998e-06
37 *109:14 *4115:A 0
38 *114:10 *4115:A 0
39 *364:45 *3972:RESET_B 2.66586e-05
40 *603:27 *4115:A 0.000101254
41 *604:70 *4115:A 7.7241e-05
42 *633:10 *4114:A 7.11365e-05
43 *633:10 *638:26 0.000133595
*RES
1 *4117:X *3977:RESET_B 11.225 
2 *4117:X *638:26 7.815 
3 *638:26 *4114:A 4.74 
4 *638:26 *638:37 12.09 
5 *638:37 *3972:RESET_B 11.6075 
6 *638:37 *4116:A 16.65 
7 *3972:RESET_B *4115:A 9.0875 
*END

*D_NET *639 0.00292534
*CONN
*I *4053:RESET_B I *D sky130_fd_sc_hd__dfrtp_2
*I *4378:A I *D sky130_fd_sc_hd__clkbuf_4
*I *4118:X O *D sky130_fd_sc_hd__clkdlybuf4s25_1
*CAP
1 *4053:RESET_B 0.00020426
2 *4378:A 5.66132e-05
3 *4118:X 0.000511579
4 *639:8 0.000772452
5 *4053:RESET_B *3677:B 4.13171e-05
6 *4378:A *3677:B 4.39001e-05
7 *4378:A *3745:A1 8.04993e-05
8 *639:8 *4118:A 0.000497687
9 *639:8 *889:57 0.000158681
10 *3359:A *4053:RESET_B 1.00941e-05
11 *3664:A0 *4378:A 1.83847e-05
12 *3678:S *4053:RESET_B 4.38051e-05
13 *3678:S *4378:A 0.000140905
14 *3884:D *4053:RESET_B 0
15 *11:10 *4053:RESET_B 0
16 *51:12 *4053:RESET_B 0.000137585
17 *622:17 *4053:RESET_B 0.00020758
*RES
1 *4118:X *639:8 10.605 
2 *639:8 *4378:A 5.685 
3 *639:8 *4053:RESET_B 7.205 
*END

*D_NET *640 0.00794739
*CONN
*I *3873:RESET_B I *D sky130_fd_sc_hd__dfrtp_2
*I *3875:RESET_B I *D sky130_fd_sc_hd__dfrtp_2
*I *4050:RESET_B I *D sky130_fd_sc_hd__dfrtp_2
*I *3871:RESET_B I *D sky130_fd_sc_hd__dfrtp_2
*I *4049:RESET_B I *D sky130_fd_sc_hd__dfrtp_2
*I *4051:RESET_B I *D sky130_fd_sc_hd__dfrtp_2
*I *4056:RESET_B I *D sky130_fd_sc_hd__dfrtp_2
*I *4054:RESET_B I *D sky130_fd_sc_hd__dfrtp_2
*I *3869:RESET_B I *D sky130_fd_sc_hd__dfrtp_2
*I *4378:X O *D sky130_fd_sc_hd__clkbuf_4
*CAP
1 *3873:RESET_B 0.000166265
2 *3875:RESET_B 0
3 *4050:RESET_B 0.000128881
4 *3871:RESET_B 0.000331584
5 *4049:RESET_B 0.000131429
6 *4051:RESET_B 5.5412e-05
7 *4056:RESET_B 0.00032112
8 *4054:RESET_B 0
9 *3869:RESET_B 0.000389261
10 *4378:X 4.16569e-05
11 *640:105 0.000225032
12 *640:35 0.000507677
13 *640:28 0.000664463
14 *640:14 0.00114376
15 *640:8 0.000795967
16 *3869:RESET_B *926:8 3.57275e-05
17 *3871:RESET_B *928:8 1.41165e-05
18 *3873:RESET_B *3711:A 0
19 *3873:RESET_B *4396:A 0
20 *3873:RESET_B *909:72 9.57632e-05
21 *4049:RESET_B *3664:A1 0
22 *4049:RESET_B *3745:A1 3.50599e-05
23 *4049:RESET_B *4285:A 0
24 *4050:RESET_B *3667:A 4.5783e-05
25 *4050:RESET_B *3746:S 9.54469e-05
26 *4050:RESET_B *3752:A0 8.53113e-06
27 *4050:RESET_B *3752:S 1.306e-05
28 *640:8 *3745:A0 4.66108e-05
29 *640:8 *3745:A1 8.49205e-05
30 *640:14 *3745:A0 0.000114492
31 *640:14 *3745:A1 1.07797e-05
32 *640:14 *907:26 0.000275548
33 *640:14 *926:8 2.7441e-05
34 *640:28 *3641:A1 0
35 *640:28 *3750:A0 0.000220547
36 *640:35 *3747:A1 0.000112409
37 *640:35 *3750:A0 0.000201925
38 *640:35 *3750:S 4.21773e-05
39 *640:105 *4396:A 0
40 *640:105 *909:72 6.74079e-05
41 *3664:A0 *640:8 0.000158965
42 *3869:CLK *3871:RESET_B 6.36656e-05
43 *3869:D *3871:RESET_B 4.66108e-05
44 *3884:D *4049:RESET_B 7.55391e-05
45 *3890:D *640:28 0.000135002
46 *3891:D *640:14 1.43717e-05
47 *3905:D *640:14 2.75229e-05
48 *4051:CLK *4051:RESET_B 6.69608e-06
49 *4051:CLK *4056:RESET_B 0.000157886
50 *4051:D *4056:RESET_B 0
51 *4055:CLK *4050:RESET_B 4.76365e-05
52 *4095:A *640:28 0
53 *4095:A *640:35 0
54 *359:61 *640:28 0
55 *623:25 *3871:RESET_B 0.000177492
56 *623:101 *640:28 7.73918e-05
57 *623:107 *640:14 0.000293628
58 *623:107 *640:28 0.000170535
59 *624:16 *4056:RESET_B 4.41897e-05
*RES
1 *4378:X *640:8 5.085 
2 *640:8 *640:14 13.4 
3 *640:14 *3869:RESET_B 1.7775 
4 *640:14 *640:28 10.82 
5 *640:28 *4054:RESET_B 2 
6 *640:28 *640:35 5.205 
7 *640:35 *4056:RESET_B 5.615 
8 *640:35 *4051:RESET_B 2.7575 
9 *640:8 *4049:RESET_B 4.4 
10 *3869:RESET_B *3871:RESET_B 8.9875 
11 *4056:RESET_B *4050:RESET_B 6.625 
12 *3871:RESET_B *640:105 3.38 
13 *640:105 *3875:RESET_B 2 
14 *640:105 *3873:RESET_B 5.5025 
*END

*D_NET *641 0.0158719
*CONN
*I *3797:B1 I *D sky130_fd_sc_hd__o21a_2
*I *3802:B1 I *D sky130_fd_sc_hd__o21a_2
*I *3801:B1 I *D sky130_fd_sc_hd__o21a_2
*I *3800:B1 I *D sky130_fd_sc_hd__o21a_2
*I *3799:B1 I *D sky130_fd_sc_hd__o21a_2
*I *3798:B1 I *D sky130_fd_sc_hd__o21a_2
*I *3795:B1 I *D sky130_fd_sc_hd__o21a_2
*I *3796:B1 I *D sky130_fd_sc_hd__o21a_2
*I *4055:RESET_B I *D sky130_fd_sc_hd__dfrtp_2
*I *4118:A I *D sky130_fd_sc_hd__clkdlybuf4s25_1
*I *4119:X O *D sky130_fd_sc_hd__clkdlybuf4s25_1
*CAP
1 *3797:B1 0
2 *3802:B1 0.000232259
3 *3801:B1 2.57302e-05
4 *3800:B1 2.96814e-05
5 *3799:B1 0.000220731
6 *3798:B1 0.00010228
7 *3795:B1 0.000188078
8 *3796:B1 4.04165e-05
9 *4055:RESET_B 0
10 *4118:A 0.000539037
11 *4119:X 0.000481032
12 *641:139 0.000423283
13 *641:124 0.000611074
14 *641:99 0.000859723
15 *641:84 0.00063814
16 *641:58 0.000639564
17 *641:54 0.00105288
18 *641:37 0.00153932
19 *641:10 0.00160462
20 *3795:B1 *3507:B 4.21579e-05
21 *3795:B1 *3795:A2 1.14169e-05
22 *3795:B1 *876:30 1.60518e-05
23 *3796:B1 *3507:B 2.05056e-05
24 *3796:B1 *3795:A2 1.08758e-05
25 *3796:B1 *876:30 7.83998e-05
26 *3796:B1 *890:37 3.74161e-05
27 *3798:B1 *3798:A2 0.0001249
28 *3799:B1 *3406:A1 0
29 *3799:B1 *3799:A1 0.000111038
30 *3799:B1 *890:79 9.65405e-05
31 *3799:B1 *890:92 1.07997e-05
32 *3799:B1 *1057:12 4.82863e-05
33 *3801:B1 *890:113 5.83121e-06
34 *3801:B1 *1059:10 1.77665e-05
35 *3802:B1 *3420:A 0.00030562
36 *3802:B1 *3802:A1 0
37 *3802:B1 *3802:A2 0
38 *4118:A *643:67 0
39 *4118:A *889:57 0.000459377
40 *4118:A *889:66 4.00796e-05
41 *4118:A *947:28 0.000281437
42 *641:10 *3712:B 0
43 *641:10 *646:61 9.91257e-05
44 *641:10 *907:18 0.000106655
45 *641:10 *907:26 0.000138544
46 *641:37 *3751:A1 0.000206123
47 *641:37 *4049:D 3.59997e-05
48 *641:37 *4055:D 0
49 *641:37 *4208:A 5.72091e-05
50 *641:37 *646:61 0
51 *641:37 *785:10 0
52 *641:37 *889:81 0.000470994
53 *641:37 *889:91 8.77898e-05
54 *641:37 *907:18 0.000112771
55 *641:37 *907:102 7.34364e-05
56 *641:37 *934:28 0
57 *641:54 *3364:B 3.09164e-05
58 *641:54 *3364:C 2.49909e-05
59 *641:54 *3667:B 0.000358911
60 *641:54 *3751:A1 0.000113745
61 *641:54 *785:10 0
62 *641:54 *946:21 6.36578e-05
63 *641:54 *1041:10 0
64 *641:58 *3797:A2 7.32259e-05
65 *641:84 *3797:A2 2.1939e-05
66 *641:84 *890:29 0.000112579
67 *641:84 *890:37 1.83975e-05
68 *641:84 *890:60 0.000149297
69 *641:99 *3799:A1 0.000224193
70 *641:99 *876:87 2.84864e-05
71 *641:99 *890:60 1.5996e-05
72 *641:99 *890:79 0.000147737
73 *641:99 *1057:12 0.000234181
74 *641:124 *3799:A1 0.00010427
75 *641:124 *876:87 0
76 *641:124 *890:92 0.000218378
77 *641:139 *3420:A 0.000139238
78 *641:139 *3800:A2 3.37774e-05
79 *641:139 *3802:A2 0
80 *641:139 *876:100 0
81 *641:139 *890:113 0.000186047
82 *3388:B1 *641:54 5.72004e-05
83 *3668:S *641:54 4.82919e-05
84 *3678:A0 *641:10 0
85 *3891:D *641:10 7.70938e-05
86 *3905:CLK *641:10 0
87 *3990:CLK *641:84 0
88 *3990:CLK *641:99 0
89 *3991:D *3799:B1 0
90 *3991:RESET_B *3799:B1 9.03081e-05
91 *3992:RESET_B *3800:B1 5.83121e-06
92 *3992:RESET_B *641:124 9.22251e-05
93 *3994:RESET_B *3802:B1 0.000166346
94 *3995:CLK *3800:B1 4.77719e-05
95 *4042:D *641:37 0
96 *4049:CLK *641:37 0
97 *4282:A *641:37 6.36578e-05
98 *391:10 *641:54 6.07575e-06
99 *416:24 *641:124 1.00941e-05
100 *622:78 *4118:A 1.94892e-05
101 *625:8 *3799:B1 2.14559e-05
102 *625:21 *3799:B1 3.34361e-05
103 *639:8 *4118:A 0.000497687
*RES
1 *4119:X *641:10 12.075 
2 *641:10 *4118:A 18.445 
3 *641:10 *641:37 14.37 
4 *641:37 *4055:RESET_B 2 
5 *641:37 *641:54 17.93 
6 *641:54 *641:58 3.89 
7 *641:58 *3796:B1 4.755 
8 *641:58 *3795:B1 5.895 
9 *641:58 *641:84 6.48 
10 *641:84 *3798:B1 5.43 
11 *641:84 *641:99 8.105 
12 *641:99 *3799:B1 10.085 
13 *641:99 *641:124 13.5975 
14 *641:124 *3800:B1 4.2825 
15 *641:124 *641:139 3.4125 
16 *641:139 *3801:B1 4.05 
17 *641:139 *3802:B1 8.925 
18 *641:54 *3797:B1 1.6 
*END

*D_NET *642 0.00264558
*CONN
*I *3406:B1 I *D sky130_fd_sc_hd__a21o_2
*I *3410:B1 I *D sky130_fd_sc_hd__a2111o_2
*I *3407:B I *D sky130_fd_sc_hd__nand2_2
*I *4335:X O *D sky130_fd_sc_hd__clkdlybuf4s25_1
*CAP
1 *3406:B1 0.00025303
2 *3410:B1 0
3 *3407:B 6.63957e-05
4 *4335:X 6.3835e-05
5 *642:14 0.000385592
6 *642:6 0.000636062
7 *3406:B1 *3406:A1 8.65961e-05
8 *3406:B1 *3414:A 7.72844e-05
9 *3406:B1 *3414:B 8.22234e-06
10 *3407:B *3410:A1 6.20248e-05
11 *642:6 *3414:B 3.81908e-06
12 *642:14 *3410:A1 4.43871e-06
13 *642:14 *4391:A 6.29902e-05
14 *3406:A2 *3406:B1 4.82863e-05
15 *3407:A *3407:B 3.293e-05
16 *3408:A1 *642:14 0
17 *3408:A2 *3407:B 4.92062e-05
18 *3410:A2 *3407:B 1.90686e-05
19 *3414:C *3406:B1 5.17571e-05
20 *4335:A *642:14 0
21 *4336:A *642:14 0.000242036
22 *4337:A *642:14 0
23 *4338:A *3406:B1 0
24 *4338:A *642:6 4.99619e-05
25 *4375:A *642:14 1.16423e-05
26 *414:10 *642:14 0.000153507
27 *414:23 *642:14 0.0001864
28 *631:27 *3407:B 9.04921e-05
*RES
1 *4335:X *642:6 2.395 
2 *642:6 *642:14 12.205 
3 *642:14 *3407:B 3.91 
4 *642:14 *3410:B1 1.6 
5 *642:6 *3406:B1 5.98 
*END

*D_NET *643 0.0128944
*CONN
*I *3848:B1 I *D sky130_fd_sc_hd__o21a_2
*I *3790:B1 I *D sky130_fd_sc_hd__o21a_2
*I *3764:B1 I *D sky130_fd_sc_hd__o21a_2
*I *3765:B1 I *D sky130_fd_sc_hd__o21a_2
*I *3850:B1 I *D sky130_fd_sc_hd__o21a_2
*I *3849:B1 I *D sky130_fd_sc_hd__o21a_2
*I *4052:RESET_B I *D sky130_fd_sc_hd__dfrtp_2
*I *3982:SET_B I *D sky130_fd_sc_hd__dfstp_2
*I *3782:B1 I *D sky130_fd_sc_hd__o21a_2
*I *3883:SET_B I *D sky130_fd_sc_hd__dfstp_2
*I *4120:X O *D sky130_fd_sc_hd__clkdlybuf4s25_1
*CAP
1 *3848:B1 0
2 *3790:B1 0.00117259
3 *3764:B1 0
4 *3765:B1 0.000327895
5 *3850:B1 0.000283793
6 *3849:B1 0
7 *4052:RESET_B 2.63928e-05
8 *3982:SET_B 9.15156e-05
9 *3782:B1 0.000220223
10 *3883:SET_B 0.000597568
11 *4120:X 7.72805e-05
12 *643:107 0.00124038
13 *643:98 0.000221724
14 *643:89 0.000597676
15 *643:76 0.000645559
16 *643:67 0.000843244
17 *643:58 0.000785316
18 *643:43 0.000526058
19 *643:6 0.000622127
20 *3765:B1 *3765:A2 0.000198939
21 *3765:B1 *3850:A1 4.21973e-05
22 *3765:B1 *4138:A 9.23772e-05
23 *3782:B1 *3824:B1 7.68565e-05
24 *3782:B1 *4016:D 0.00015829
25 *3782:B1 *4122:A 1.61461e-05
26 *3782:B1 *4192:A 0.000292059
27 *3782:B1 *880:59 0.000111316
28 *3782:B1 *911:62 0.000168565
29 *3790:B1 *3434:A 2.05571e-05
30 *3790:B1 *3440:A2 0.00019407
31 *3790:B1 *3790:A1 4.00541e-06
32 *3790:B1 *3791:A2 0
33 *3790:B1 *4138:A 1.88602e-05
34 *3790:B1 *4151:A 0
35 *3790:B1 *878:33 6.1271e-05
36 *3790:B1 *878:43 8.43857e-05
37 *3790:B1 *1030:28 2.15594e-05
38 *3850:B1 *3850:A2 4.99619e-05
39 *3850:B1 *4041:D 7.47366e-05
40 *3883:SET_B *3824:A1 4.66108e-05
41 *3883:SET_B *3824:B1 7.6553e-05
42 *3982:SET_B *3402:B 4.94326e-05
43 *3982:SET_B *907:32 0
44 *643:6 *3430:A2 0.000217269
45 *643:6 *3824:B1 0.000254939
46 *643:6 *4120:A 0.000112349
47 *643:6 *911:48 3.35305e-05
48 *643:58 *3402:B 0.000110333
49 *643:58 *907:32 0
50 *643:67 *3402:B 4.70256e-05
51 *643:67 *3748:S 0
52 *643:67 *3846:A2 0
53 *643:67 *3849:A1 4.91189e-05
54 *643:67 *4073:A 0
55 *643:67 *907:32 0
56 *643:76 *3846:A2 0
57 *643:76 *3849:A1 4.18603e-06
58 *643:76 *892:68 0
59 *643:89 *3789:A2 0
60 *643:89 *892:68 0
61 *643:98 *3789:A1 0.000168213
62 *643:98 *4138:A 9.01939e-05
63 *643:98 *878:64 6.6564e-05
64 *643:98 *892:62 8.65905e-05
65 *643:98 *892:66 0.000354725
66 *643:107 *878:62 0.000159217
67 *643:107 *878:64 5.83121e-06
68 *643:107 *892:62 0.000270093
69 *3430:B2 *3883:SET_B 1.85674e-05
70 *3430:B2 *643:6 7.32217e-05
71 *3883:CLK *643:43 3.64998e-06
72 *3883:D *643:43 2.11084e-05
73 *3883:D *643:67 0
74 *3934:RESET_B *3782:B1 7.99972e-05
75 *3942:SET_B *3790:B1 0.000100115
76 *4041:RESET_B *643:76 9.16237e-05
77 *4073:TE_B *643:67 0
78 *4094:A *643:67 0
79 *4094:A *643:76 0
80 *4094:A *643:89 0
81 *4118:A *643:67 0
82 *4236:A *3782:B1 0.000122325
83 *354:24 *3883:SET_B 0.000134493
84 *354:24 *643:43 3.26265e-05
85 *603:105 *3790:B1 4.84202e-05
86 *622:78 *643:67 0
*RES
1 *4120:X *643:6 5.5 
2 *643:6 *3883:SET_B 5.4975 
3 *643:6 *3782:B1 13.265 
4 *3883:SET_B *643:43 5.2775 
5 *643:43 *3982:SET_B 3.575 
6 *643:43 *643:58 3.465 
7 *643:58 *4052:RESET_B 2.45 
8 *643:58 *643:67 10.05 
9 *643:67 *3849:B1 3.6 
10 *643:67 *643:76 4.44 
11 *643:76 *3850:B1 8.19 
12 *643:76 *643:89 3.89 
13 *643:89 *3765:B1 7.57 
14 *643:89 *643:98 5.625 
15 *643:98 *3764:B1 1.6 
16 *643:98 *643:107 2.88 
17 *643:107 *3790:B1 11.3895 
18 *643:107 *3848:B1 1.6 
*END

*D_NET *644 0.0132748
*CONN
*I *3772:B1 I *D sky130_fd_sc_hd__o21a_2
*I *3771:B1 I *D sky130_fd_sc_hd__o21a_2
*I *3770:B1 I *D sky130_fd_sc_hd__o21a_2
*I *3769:B1 I *D sky130_fd_sc_hd__o21a_2
*I *3768:B1 I *D sky130_fd_sc_hd__o21a_2
*I *3805:B1 I *D sky130_fd_sc_hd__o21a_2
*I *3774:B1 I *D sky130_fd_sc_hd__o21a_2
*I *3766:B1 I *D sky130_fd_sc_hd__o21a_2
*I *3767:B1 I *D sky130_fd_sc_hd__o21a_2
*I *3789:B1 I *D sky130_fd_sc_hd__o21a_2
*I *4121:X O *D sky130_fd_sc_hd__clkdlybuf4s25_1
*CAP
1 *3772:B1 0.000774269
2 *3771:B1 0.000574104
3 *3770:B1 0.00028488
4 *3769:B1 0
5 *3768:B1 6.63541e-05
6 *3805:B1 0
7 *3774:B1 3.06163e-05
8 *3766:B1 0
9 *3767:B1 0.000465561
10 *3789:B1 0
11 *4121:X 0.000191172
12 *644:103 0.00110121
13 *644:89 0.000110816
14 *644:83 0.000559275
15 *644:77 0.00136432
16 *644:66 0.000576257
17 *644:55 0.000766578
18 *644:27 0.000857637
19 *644:14 0.000597805
20 *644:10 0.000874074
21 *3767:B1 *3388:A1 0.00021951
22 *3767:B1 *3766:A2 7.75359e-05
23 *3767:B1 *877:14 0.00011852
24 *3767:B1 *891:34 3.9442e-05
25 *3767:B1 *1041:21 4.70343e-05
26 *3768:B1 *3768:A1 2.30292e-05
27 *3768:B1 *3768:A2 0.000200615
28 *3768:B1 *3769:A2 3.74161e-05
29 *3768:B1 *3770:A2 8.65905e-05
30 *3770:B1 *3770:A1 0.000352156
31 *3770:B1 *3770:A2 2.30292e-05
32 *3771:B1 *3770:A1 2.07184e-05
33 *3772:B1 *893:80 0.000142669
34 *3772:B1 *1048:10 7.52765e-05
35 *3774:B1 *3363:A1 8.65961e-05
36 *644:10 *3434:A 0
37 *644:10 *3789:A1 0
38 *644:14 *3789:A1 8.65905e-05
39 *644:27 *3789:A1 6.92319e-05
40 *644:27 *891:34 4.83241e-05
41 *644:27 *1041:10 8.65961e-05
42 *644:55 *3434:A 0
43 *644:55 *3434:B 5.50989e-05
44 *644:55 *4137:A 0
45 *644:55 *645:101 0
46 *644:55 *877:48 0
47 *644:55 *891:49 0
48 *644:66 *3774:A2 0
49 *644:66 *3805:A1 0
50 *644:66 *877:48 0
51 *644:77 *3805:A1 0
52 *644:77 *877:48 0
53 *644:77 *1047:76 6.10014e-05
54 *644:77 *1048:69 3.9442e-05
55 *644:83 *3320:A 7.47366e-05
56 *644:83 *877:48 6.02202e-05
57 *644:83 *891:62 4.11194e-05
58 *644:83 *1048:35 2.86265e-06
59 *644:89 *3768:A2 3.83041e-05
60 *644:89 *3769:A2 4.99619e-05
61 *644:103 *3370:A 0
62 *644:103 *3770:A1 0.00046962
63 *644:103 *877:48 1.70935e-05
64 *644:103 *891:62 7.21296e-06
65 *3363:A3 *644:55 0
66 *3374:A *644:77 0.000117825
67 *3375:B1 *644:103 0
68 *3376:B1 *3771:B1 0
69 *3376:B1 *644:103 0
70 *3378:A *3771:B1 0.000190761
71 *3923:RESET_B *3771:B1 2.75145e-05
72 *3924:D *644:77 0
73 *3924:RESET_B *3772:B1 5.59935e-05
74 *3925:D *644:103 7.4027e-05
75 *3926:RESET_B *3774:B1 1.56428e-05
76 *3926:RESET_B *644:55 0.000164672
77 *3941:D *644:14 9.66021e-05
78 *3941:D *644:55 0
79 *3997:RESET_B *644:77 9.54399e-05
80 *4078:A *644:10 4.99567e-05
81 *394:12 *3768:B1 6.59822e-05
82 *396:14 *644:77 9.37731e-05
83 *396:96 *644:77 5.09046e-05
84 *396:96 *644:103 0
85 *424:12 *644:55 0
86 *603:105 *644:10 8.44338e-06
87 *626:64 *3772:B1 7.35729e-05
88 *626:64 *644:77 0
89 *626:70 *3772:B1 6.3889e-05
90 *626:70 *644:77 5.23362e-05
91 *626:70 *644:83 2.49909e-05
*RES
1 *4121:X *644:10 6.375 
2 *644:10 *644:14 5.9 
3 *644:14 *3789:B1 1.6 
4 *644:14 *644:27 8.585 
5 *644:27 *3767:B1 14.89 
6 *644:27 *3766:B1 3.6 
7 *644:10 *644:55 8.265 
8 *644:55 *3774:B1 4.395 
9 *644:55 *644:66 4.185 
10 *644:66 *3805:B1 3.6 
11 *644:66 *644:77 8.735 
12 *644:77 *644:83 5.9 
13 *644:83 *644:89 2.9 
14 *644:89 *3768:B1 4.12 
15 *644:89 *3769:B1 1.6 
16 *644:83 *644:103 5.97 
17 *644:103 *3770:B1 8.55 
18 *644:103 *3771:B1 13.35 
19 *644:77 *3772:B1 12.535 
*END

*D_NET *645 0.0160048
*CONN
*I *3791:B1 I *D sky130_fd_sc_hd__o21a_2
*I *3773:B1 I *D sky130_fd_sc_hd__o21a_2
*I *3794:B1 I *D sky130_fd_sc_hd__o21a_2
*I *3786:B1 I *D sky130_fd_sc_hd__o21a_2
*I *4121:A I *D sky130_fd_sc_hd__clkdlybuf4s25_1
*I *3792:B1 I *D sky130_fd_sc_hd__o21a_2
*I *3846:B1 I *D sky130_fd_sc_hd__o21a_2
*I *4120:A I *D sky130_fd_sc_hd__clkdlybuf4s25_1
*I *3824:B1 I *D sky130_fd_sc_hd__o21a_2
*I *4122:X O *D sky130_fd_sc_hd__clkdlybuf4s25_1
*CAP
1 *3791:B1 0.000240793
2 *3773:B1 0.000227897
3 *3794:B1 0.000202505
4 *3786:B1 2.6005e-05
5 *4121:A 1.69304e-05
6 *3792:B1 0
7 *3846:B1 0.00026798
8 *4120:A 0.000161024
9 *3824:B1 0.000303154
10 *4122:X 0
11 *645:114 0.0008795
12 *645:101 0.000949202
13 *645:78 0.000899702
14 *645:70 0.000781995
15 *645:59 0.00040698
16 *645:42 0.000720938
17 *645:10 0.00064391
18 *645:6 0.00035824
19 *3773:B1 *3373:B1 5.72091e-05
20 *3773:B1 *3768:A1 2.16917e-05
21 *3773:B1 *3768:A2 8.40269e-05
22 *3773:B1 *1047:68 0.000291372
23 *3786:B1 *3527:B1 2.15986e-05
24 *3786:B1 *3786:A1 1.62913e-05
25 *3791:B1 *3439:B 0.000194694
26 *3791:B1 *3440:A1 1.33285e-05
27 *3791:B1 *3791:A2 0.000453805
28 *3791:B1 *878:33 8.08153e-06
29 *3791:B1 *1035:12 0.000306155
30 *3794:B1 *4291:A 2.78732e-05
31 *3824:B1 *3824:A1 4.66108e-05
32 *3824:B1 *3824:A2 4.66108e-05
33 *3846:B1 *3428:B1 0.000406486
34 *4120:A *3430:A2 0.000200717
35 *4120:A *1093:18 8.8266e-05
36 *645:10 *686:10 0.000386038
37 *645:10 *911:62 0
38 *645:42 *3363:B1 0.000134509
39 *645:42 *3526:A1 3.78024e-05
40 *645:42 *4016:D 0
41 *645:42 *686:10 7.4027e-05
42 *645:42 *894:72 3.47837e-05
43 *645:42 *911:62 0
44 *645:59 *3428:B1 6.1357e-05
45 *645:59 *3526:A1 0.000506095
46 *645:59 *993:46 0
47 *645:70 *3526:A1 0.000376721
48 *645:78 *3434:A 0
49 *645:78 *3440:A1 0.000173979
50 *645:78 *878:53 0.000267846
51 *645:78 *993:46 6.85668e-05
52 *645:78 *993:58 8.53113e-06
53 *645:101 *3434:A 0.000157315
54 *645:101 *3435:B2 0.000139245
55 *645:101 *3527:A2 6.10014e-05
56 *645:101 *3527:B1 0.000223639
57 *645:101 *3786:A1 2.83678e-05
58 *645:101 *3786:A2 8.40269e-05
59 *645:101 *993:58 0.00013773
60 *645:114 *3373:B1 2.16389e-05
61 *645:114 *993:58 0
62 *645:114 *1051:20 0.000221728
63 *3363:A3 *645:101 1.71013e-05
64 *3373:A3 *3773:B1 0.000377051
65 *3428:A1 *3846:B1 0.00011964
66 *3428:A1 *645:42 0
67 *3527:C1 *645:101 4.75576e-05
68 *3528:B1 *645:114 8.44437e-05
69 *3782:B1 *3824:B1 7.68565e-05
70 *3883:SET_B *3824:B1 7.6553e-05
71 *3934:D *3824:B1 4.82863e-05
72 *3934:D *4120:A 8.40269e-05
73 *3941:CLK *645:101 8.25609e-05
74 *3942:D *645:59 0.0003399
75 *3942:D *645:70 0.00038868
76 *3943:RESET_B *3791:B1 9.14049e-05
77 *3986:D *645:114 0
78 *3996:CLK *3794:B1 0.000350486
79 *4038:SET_B *3846:B1 2.75145e-05
80 *4193:A *3846:B1 4.82863e-05
81 *4193:A *645:59 7.3151e-05
82 *4236:A *3846:B1 3.83194e-05
83 *354:24 *3824:B1 1.14169e-05
84 *354:24 *4121:A 2.49909e-05
85 *354:24 *645:78 9.28053e-05
86 *360:14 *3846:B1 0.000112622
87 *360:14 *645:59 0.000109386
88 *367:20 *3786:B1 2.71072e-05
89 *367:20 *645:101 0.00020326
90 *603:105 *4121:A 2.68464e-05
91 *626:10 *645:114 0
92 *626:21 *645:114 0
93 *626:23 *645:101 8.07785e-05
94 *626:56 *3773:B1 0
95 *643:6 *3824:B1 0.000254939
96 *643:6 *4120:A 0.000112349
97 *644:55 *645:101 0
*RES
1 *4122:X *645:6 3.6 
2 *645:6 *645:10 6.44 
3 *645:10 *3824:B1 7.735 
4 *645:10 *4120:A 5.875 
5 *645:6 *645:42 5.675 
6 *645:42 *3846:B1 8.26 
7 *645:42 *645:59 10.355 
8 *645:59 *3792:B1 3.6 
9 *645:59 *645:70 6.695 
10 *645:70 *645:78 9.365 
11 *645:78 *4121:A 4.05 
12 *645:78 *645:101 14.75 
13 *645:101 *3786:B1 2.665 
14 *645:101 *645:114 10.265 
15 *645:114 *3794:B1 11.425 
16 *645:114 *3773:B1 10.11 
17 *645:70 *3791:B1 12.17 
*END

*D_NET *646 0.0278424
*CONN
*I *4117:A I *D sky130_fd_sc_hd__clkdlybuf4s25_1
*I *4122:A I *D sky130_fd_sc_hd__clkdlybuf4s25_1
*I *4119:A I *D sky130_fd_sc_hd__clkdlybuf4s25_1
*I *3803:B1 I *D sky130_fd_sc_hd__o21a_2
*I *4113:A I *D sky130_fd_sc_hd__clkdlybuf4s25_1
*I *4123:X O *D sky130_fd_sc_hd__clkdlybuf4s25_1
*CAP
1 *4117:A 0
2 *4122:A 0.000177607
3 *4119:A 0
4 *3803:B1 0.00122301
5 *4113:A 0.00025436
6 *4123:X 0.000128064
7 *646:61 0.00236651
8 *646:53 0.00287489
9 *646:43 0.0036558
10 *646:18 0.00254316
11 *646:12 0.000670072
12 *3803:B1 *3364:B 0
13 *3803:B1 *3508:A 0
14 *3803:B1 *3510:B2 0
15 *3803:B1 *3667:A 0
16 *3803:B1 *3667:B 0
17 *3803:B1 *3752:S 0
18 *3803:B1 *3797:A1 0
19 *3803:B1 *4276:A 0.000332085
20 *3803:B1 *876:26 9.84957e-05
21 *3803:B1 *876:55 0.000515787
22 *3803:B1 *876:70 0.000289698
23 *3803:B1 *946:21 0
24 *3803:B1 *1057:12 0.000183738
25 *4113:A *3474:A 0.000198934
26 *4113:A *4295:A 0.000385333
27 *4113:A *909:33 0.00102624
28 *4113:A *987:23 4.60584e-05
29 *4113:A *987:32 5.37018e-05
30 *4122:A *3396:A 8.40269e-05
31 *4122:A *4016:D 8.40269e-05
32 *4122:A *880:38 0.000114492
33 *4122:A *880:59 0.000174512
34 *4122:A *894:51 0.000210871
35 *646:12 *989:20 0
36 *646:18 *3970:D 0
37 *646:18 *908:10 0.000196376
38 *646:18 *909:23 0.000179452
39 *646:18 *909:33 0.000177473
40 *646:43 *3447:B 0.000131525
41 *646:43 *3469:A2 0
42 *646:43 *3470:A2 0.000425121
43 *646:43 *4249:A 0.000139933
44 *646:43 *4323:A 0.000118446
45 *646:43 *749:12 0
46 *646:43 *880:38 0.000499778
47 *646:43 *894:32 0
48 *646:53 *3661:A1 9.66021e-05
49 *646:53 *3661:B1_N 4.37431e-05
50 *646:53 *3715:B1 2.02638e-05
51 *646:53 *3998:D 0.000155601
52 *646:53 *936:21 4.93473e-05
53 *646:61 *3665:B 0.000143266
54 *646:61 *3707:B 0
55 *646:61 *3712:A 6.73665e-05
56 *646:61 *3746:S 0
57 *646:61 *3752:S 0
58 *646:61 *4055:D 6.0236e-05
59 *646:61 *4276:A 7.62026e-05
60 *646:61 *4300:A 7.67721e-05
61 *646:61 *889:91 0
62 *3363:A2 *646:43 0.00022717
63 *3469:A1 *646:43 0
64 *3469:B1 *646:43 0.000697369
65 *3483:A1 *4113:A 2.49909e-05
66 *3483:B1 *4113:A 2.05056e-05
67 *3509:C1 *3803:B1 0.000177657
68 *3510:B1 *3803:B1 0.000116664
69 *3512:A1 *3803:B1 6.28498e-05
70 *3513:A1 *3803:B1 0.000143266
71 *3662:B1 *646:53 0.000232111
72 *3666:S *646:61 8.18011e-05
73 *3676:S *646:61 0
74 *3713:D *646:61 0
75 *3782:B1 *4122:A 1.61461e-05
76 *3866:D *646:43 0.000155884
77 *3891:D *646:61 0
78 *3905:CLK *646:53 2.30292e-05
79 *3905:CLK *646:61 0.000454198
80 *3905:RESET_B *646:53 0.000216744
81 *3934:CLK *4122:A 0.000235008
82 *3934:CLK *646:43 5.16348e-05
83 *3934:RESET_B *4122:A 0.000136877
84 *3949:RESET_B *646:43 0.000539063
85 *3958:RESET_B *646:43 0.000416709
86 *3972:CLK *646:43 0
87 *3972:D *646:43 0
88 *3977:RESET_B *646:18 0.000460254
89 *3982:D *646:53 2.49909e-05
90 *3983:RESET_B *646:43 0
91 *3995:RESET_B *3803:B1 0.00011474
92 *4049:CLK *646:61 0.000361994
93 *4090:A *646:43 0.000944843
94 *4270:A *646:61 0.000292738
95 *4286:A *646:61 0.000162412
96 *4376:A *646:18 8.23457e-05
97 *362:25 *646:43 0
98 *387:14 *3803:B1 0.000152376
99 *579:10 *646:61 6.90876e-05
100 *604:89 *646:43 0.000266511
101 *618:20 *646:43 0
102 *621:103 *646:43 0.000362979
103 *623:107 *646:61 0
104 *633:10 *646:12 0
105 *634:42 *646:43 4.43011e-05
106 *637:10 *646:43 0
107 *637:12 *646:43 0
108 *638:26 *646:18 2.50702e-05
109 *641:10 *646:61 9.91257e-05
110 *641:37 *646:61 0
*RES
1 *4123:X *646:12 7.685 
2 *646:12 *646:18 12.465 
3 *646:18 *4113:A 11.38 
4 *646:18 *646:43 47.465 
5 *646:43 *646:53 23.63 
6 *646:53 *646:61 28.9475 
7 *646:61 *3803:B1 31.7475 
8 *646:53 *4119:A 1.6 
9 *646:43 *4122:A 10.2 
10 *646:12 *4117:A 1.6 
*END

*D_NET *647 0.00703096
*CONN
*I *3878:RESET_B I *D sky130_fd_sc_hd__dfrtp_2
*I *3877:RESET_B I *D sky130_fd_sc_hd__dfrtp_2
*I *4379:A I *D sky130_fd_sc_hd__clkbuf_2
*I *3882:RESET_B I *D sky130_fd_sc_hd__dfrtp_2
*I *3881:RESET_B I *D sky130_fd_sc_hd__dfrtp_2
*I *4124:X O *D sky130_fd_sc_hd__clkdlybuf4s25_1
*CAP
1 *3878:RESET_B 6.50569e-05
2 *3877:RESET_B 0.000275507
3 *4379:A 0.000665831
4 *3882:RESET_B 0.000228979
5 *3881:RESET_B 0.000888724
6 *4124:X 0.000819463
7 *647:28 0.000753621
8 *3877:RESET_B *3394:B2 0.00019568
9 *3877:RESET_B *1018:8 0.000120655
10 *3878:RESET_B *3654:A1 0.000127216
11 *3878:RESET_B *4388:A 0.000229408
12 *3881:RESET_B *3659:A1 2.11651e-05
13 *3881:RESET_B *4385:A 2.13686e-05
14 *3881:RESET_B *4388:A 0.00138824
15 *3882:RESET_B *3394:B2 4.24575e-05
16 *4379:A *3395:A 4.77769e-05
17 *4379:A *3649:A_N 0.000100556
18 *4379:A *3656:A1 6.90254e-05
19 *4379:A *4068:A 0.000114689
20 *4379:A *4218:A 6.47594e-05
21 *4379:A *4266:A 0.000133804
22 *4379:A *4385:A 9.07429e-05
23 *4379:A *745:10 0
24 *4379:A *1015:8 3.74773e-05
25 *647:28 *4385:A 2.67143e-05
26 *3394:A3 *647:28 2.98807e-05
27 *3395:C *4379:A 0.000198295
28 *3395:C *647:28 3.0264e-05
29 *3964:CLK *3881:RESET_B 1.92979e-05
30 *4086:A *4379:A 0.000112037
31 *614:29 *3877:RESET_B 0.000112266
*RES
1 *4124:X *3881:RESET_B 9.39733 
2 *3881:RESET_B *647:28 3.38 
3 *647:28 *3882:RESET_B 2.3975 
4 *647:28 *4379:A 17.88 
5 *3882:RESET_B *3877:RESET_B 4.485 
6 *3877:RESET_B *3878:RESET_B 6.655 
*END

*D_NET *648 0.00355536
*CONN
*I *3961:RESET_B I *D sky130_fd_sc_hd__dfrtp_2
*I *3895:RESET_B I *D sky130_fd_sc_hd__dfrtp_2
*I *3894:RESET_B I *D sky130_fd_sc_hd__dfrtp_2
*I *3879:RESET_B I *D sky130_fd_sc_hd__dfrtp_2
*I *3880:RESET_B I *D sky130_fd_sc_hd__dfrtp_2
*I *3959:RESET_B I *D sky130_fd_sc_hd__dfrtp_2
*I *4379:X O *D sky130_fd_sc_hd__clkbuf_2
*CAP
1 *3961:RESET_B 0.000111225
2 *3895:RESET_B 3.24164e-05
3 *3894:RESET_B 4.43922e-05
4 *3879:RESET_B 0
5 *3880:RESET_B 0.000142033
6 *3959:RESET_B 0.000438957
7 *4379:X 0
8 *648:45 0.000217399
9 *648:35 0.000237104
10 *648:16 0.000309602
11 *648:4 0.00048757
12 *3880:RESET_B *4168:A 0.000202969
13 *3894:RESET_B *3657:B 5.05521e-05
14 *3894:RESET_B *4189:A 7.35729e-05
15 *3894:RESET_B *682:8 9.70252e-06
16 *3959:RESET_B *3657:A_N 0.000113537
17 *3961:RESET_B *4183:A 0.000132721
18 *648:16 *4168:A 0.0001764
19 *648:35 *3655:B 0.000129687
20 *648:35 *3657:B 0
21 *648:45 *3655:B 4.94404e-05
22 *648:45 *4183:A 1.1561e-05
23 o_cmd_status_reg[3] *3880:RESET_B 0.000202969
24 o_cmd_status_reg[3] *648:16 7.50642e-05
25 *3395:C *648:16 7.25046e-05
26 *3973:D *3894:RESET_B 0.000233978
*RES
1 *4379:X *648:4 1.6 
2 *648:4 *3959:RESET_B 4.5375 
3 *648:4 *648:16 6.38 
4 *648:16 *3880:RESET_B 6.44 
5 *648:16 *3879:RESET_B 2 
6 *3959:RESET_B *648:35 4.655 
7 *648:35 *3894:RESET_B 4.1225 
8 *648:35 *648:45 1.38 
9 *648:45 *3895:RESET_B 2.3975 
10 *648:45 *3961:RESET_B 4.655 
*END

*D_NET *649 0.00297378
*CONN
*I *3970:RESET_B I *D sky130_fd_sc_hd__dfrtp_2
*I *3978:RESET_B I *D sky130_fd_sc_hd__dfrtp_2
*I *3965:RESET_B I *D sky130_fd_sc_hd__dfrtp_2
*I *3960:RESET_B I *D sky130_fd_sc_hd__dfrtp_2
*I *4380:A I *D sky130_fd_sc_hd__clkbuf_2
*I *3971:RESET_B I *D sky130_fd_sc_hd__dfrtp_2
*I *4125:X O *D sky130_fd_sc_hd__clkdlybuf4s25_1
*CAP
1 *3970:RESET_B 7.12469e-05
2 *3978:RESET_B 4.29092e-05
3 *3965:RESET_B 0.000261239
4 *3960:RESET_B 3.02626e-05
5 *4380:A 0.000155905
6 *3971:RESET_B 0.000109909
7 *4125:X 0.000149173
8 *649:48 0.000304148
9 *649:46 0.000188551
10 *649:36 0.000257475
11 *649:10 0.000305078
12 *3965:RESET_B *4398:A 0.000114491
13 *3965:RESET_B *989:20 5.05437e-05
14 *3970:RESET_B *3978:D 4.11198e-05
15 *3970:RESET_B *4177:A 0
16 *3970:RESET_B *4297:A 0
17 *3978:RESET_B *4398:A 2.30418e-05
18 *4380:A *3971:D 4.72328e-05
19 *4380:A *4398:A 0.000201508
20 *4380:A *990:10 3.76964e-05
21 *649:10 *3970:D 0
22 *649:10 *3971:D 5.53249e-06
23 *649:10 *4398:A 0
24 *649:10 *990:10 2.24423e-05
25 *649:36 *3970:D 0
26 *649:36 *4068:A 0.000138162
27 *649:36 *990:10 7.25921e-05
28 *649:46 *3970:D 0
29 *649:46 *3978:D 2.24336e-05
30 *649:46 *4068:A 0.000163713
31 *649:46 *4177:A 0
32 *649:46 *981:65 0
33 *3971:CLK *649:36 0.000157375
*RES
1 *4125:X *649:10 5.94 
2 *649:10 *3971:RESET_B 2 
3 *649:10 *4380:A 6.81 
4 *3971:RESET_B *649:36 5.0675 
5 *649:36 *3960:RESET_B 2.3975 
6 *649:36 *649:46 2.655 
7 *649:46 *649:48 2 
8 *649:48 *3965:RESET_B 4.1925 
9 *649:48 *3978:RESET_B 0.7425 
10 *649:46 *3970:RESET_B 3.38 
*END

*D_NET *650 0.00491921
*CONN
*I *3892:RESET_B I *D sky130_fd_sc_hd__dfrtp_2
*I *3947:RESET_B I *D sky130_fd_sc_hd__dfrtp_2
*I *3946:RESET_B I *D sky130_fd_sc_hd__dfrtp_2
*I *3963:RESET_B I *D sky130_fd_sc_hd__dfrtp_2
*I *3966:RESET_B I *D sky130_fd_sc_hd__dfrtp_2
*I *4380:X O *D sky130_fd_sc_hd__clkbuf_2
*CAP
1 *3892:RESET_B 0.000219965
2 *3947:RESET_B 0.000100127
3 *3946:RESET_B 0.000795745
4 *3963:RESET_B 0
5 *3966:RESET_B 0
6 *4380:X 0.000354794
7 *650:41 0.000320091
8 *650:17 0.000871496
9 *650:10 0.000430545
10 *3892:RESET_B *3744:B1 0
11 *3892:RESET_B *949:25 5.86003e-05
12 *3946:RESET_B *3456:A2 0
13 *3946:RESET_B *3685:A1 4.66108e-05
14 *3946:RESET_B *3685:B2 0.000504495
15 *3946:RESET_B *1001:8 5.35969e-06
16 *3947:RESET_B *1002:8 0.000120741
17 *650:10 *4398:A 4.28766e-05
18 *650:10 *990:10 0
19 *650:17 *990:10 0
20 *3654:A2 *3946:RESET_B 1.82111e-05
21 *3654:A2 *650:10 0.000147459
22 *3654:A2 *650:17 7.38869e-05
23 *3878:CLK *650:10 0.000140416
24 *3878:D *650:10 0
25 *3892:CLK *3892:RESET_B 0.000285195
26 *3894:CLK *3946:RESET_B 6.73751e-05
27 *3894:D *3946:RESET_B 4.94326e-05
28 *426:10 *3947:RESET_B 9.56213e-05
29 *615:97 *3892:RESET_B 5.39961e-05
30 *615:97 *3947:RESET_B 0.000116165
*RES
1 *4380:X *650:10 10.365 
2 *650:10 *3966:RESET_B 2 
3 *650:10 *650:17 1.635 
4 *650:17 *3963:RESET_B 2 
5 *650:17 *3946:RESET_B 15.1025 
6 *3946:RESET_B *650:41 2 
7 *650:41 *3947:RESET_B 4.8125 
8 *650:41 *3892:RESET_B 6.9275 
*END

*D_NET *651 0.0111862
*CONN
*I *3914:RESET_B I *D sky130_fd_sc_hd__dfrtp_2
*I *3953:RESET_B I *D sky130_fd_sc_hd__dfrtp_2
*I *3980:RESET_B I *D sky130_fd_sc_hd__dfrtp_2
*I *3827:B1 I *D sky130_fd_sc_hd__o21a_2
*I *3896:RESET_B I *D sky130_fd_sc_hd__dfrtp_2
*I *3828:B1 I *D sky130_fd_sc_hd__o21a_2
*I *3781:B1 I *D sky130_fd_sc_hd__o21a_2
*I *3823:B1 I *D sky130_fd_sc_hd__o21a_2
*I *3825:B1 I *D sky130_fd_sc_hd__o21a_2
*I *3950:RESET_B I *D sky130_fd_sc_hd__dfrtp_2
*I *4126:X O *D sky130_fd_sc_hd__clkdlybuf4s25_1
*CAP
1 *3914:RESET_B 0.000105452
2 *3953:RESET_B 0.000369755
3 *3980:RESET_B 0.000146758
4 *3827:B1 0
5 *3896:RESET_B 0.000405986
6 *3828:B1 8.79035e-05
7 *3781:B1 0.000400943
8 *3823:B1 0.000339501
9 *3825:B1 0
10 *3950:RESET_B 0.00045391
11 *4126:X 6.73611e-05
12 *651:75 0.000631005
13 *651:69 0.000447535
14 *651:36 0.000740444
15 *651:34 0.000290149
16 *651:27 0.000202245
17 *651:25 0.00022029
18 *651:8 0.000401499
19 *3781:B1 *888:43 0
20 *3781:B1 *898:78 0.000162412
21 *3781:B1 *898:126 0
22 *3781:B1 *980:12 0
23 *3781:B1 *1070:10 0
24 *3823:B1 *3467:A1 0
25 *3823:B1 *3680:B1 0
26 *3823:B1 *3823:A2 0
27 *3823:B1 *3951:RESET_B 0.000104875
28 *3828:B1 *4154:A 0.000260278
29 *3828:B1 *4263:A 4.47209e-05
30 *3896:RESET_B *3896:D 5.05276e-05
31 *3914:RESET_B *3451:A2 0.000185405
32 *3914:RESET_B *3744:A1 7.70938e-05
33 *3914:RESET_B *1008:8 2.91561e-06
34 *3914:RESET_B *1008:10 5.23362e-05
35 *3950:RESET_B *3451:B2 1.07797e-05
36 *3950:RESET_B *3461:B1 0.0001587
37 *3950:RESET_B *3461:B2 4.09964e-05
38 *3950:RESET_B *4251:A 0.000116165
39 *3980:RESET_B *3522:B 0.000231564
40 *3980:RESET_B *898:18 2.13396e-05
41 *651:8 *3451:B2 2.47313e-05
42 *651:25 *3825:A2 1.70935e-05
43 *651:34 *3332:A 0.000103771
44 *651:34 *3455:A2 9.21168e-05
45 *651:34 *4154:A 0.00110887
46 *651:34 *4263:A 0.000134314
47 *651:34 *1006:14 0.000158965
48 *651:69 *3825:A2 7.00132e-05
49 *651:69 *898:18 3.05646e-05
50 *651:75 *3827:A1 0.000270409
51 *651:75 *3827:A2 2.30292e-05
52 *3461:A2 *3950:RESET_B 0.000197929
53 *3896:CLK *3896:RESET_B 8.62687e-05
54 *3896:CLK *651:75 0
55 *3914:D *3914:RESET_B 1.94723e-05
56 *3951:CLK *3823:B1 9.91257e-05
57 *3951:D *3823:B1 5.83121e-06
58 *3951:D *651:25 0
59 *3980:D *3950:RESET_B 0.000184703
60 *3980:D *3980:RESET_B 0.000336322
61 *3980:D *651:25 0.000311324
62 *3980:D *651:69 0.000190923
63 *4015:RESET_B *3781:B1 0.000121695
64 *4015:RESET_B *3823:B1 5.4256e-05
65 *4019:RESET_B *3896:RESET_B 4.82919e-05
66 *4020:D *3980:RESET_B 9.54469e-05
67 *4020:D *651:69 8.53113e-06
68 *4216:A *3781:B1 0
69 *111:10 *3950:RESET_B 0
70 *111:10 *651:25 0
71 *365:6 *651:34 1.61831e-05
72 *365:16 *651:34 0.000171854
73 *603:13 *3914:RESET_B 0
74 *616:23 *3953:RESET_B 0.000111642
75 *616:29 *3953:RESET_B 9.91257e-05
76 *617:124 *3896:RESET_B 0.000162575
*RES
1 *4126:X *651:8 4.395 
2 *651:8 *3950:RESET_B 8.315 
3 *651:8 *651:25 3.675 
4 *651:25 *651:27 2 
5 *651:27 *3825:B1 1.6 
6 *651:27 *651:34 10.11 
7 *651:34 *651:36 2 
8 *651:36 *3823:B1 9.75 
9 *651:36 *3781:B1 11.61 
10 *651:34 *3828:B1 4.12 
11 *651:25 *651:69 2.4 
12 *651:69 *651:75 5.915 
13 *651:75 *3896:RESET_B 8.1225 
14 *651:75 *3827:B1 1.6 
15 *651:69 *3980:RESET_B 6.9275 
16 *3950:RESET_B *3953:RESET_B 4.485 
17 *3953:RESET_B *3914:RESET_B 7.0525 
*END

*D_NET *652 0.00311691
*CONN
*I *3951:RESET_B I *D sky130_fd_sc_hd__dfrtp_2
*I *3945:SET_B I *D sky130_fd_sc_hd__dfstp_2
*I *3976:RESET_B I *D sky130_fd_sc_hd__dfrtp_2
*I *3893:RESET_B I *D sky130_fd_sc_hd__dfrtp_2
*I *3948:RESET_B I *D sky130_fd_sc_hd__dfrtp_2
*I *4127:X O *D sky130_fd_sc_hd__clkdlybuf4s25_1
*CAP
1 *3951:RESET_B 0.000571278
2 *3945:SET_B 0.000622689
3 *3976:RESET_B 5.57392e-05
4 *3893:RESET_B 0.00010865
5 *3948:RESET_B 0.000287227
6 *4127:X 0
7 *652:16 0.000320846
8 *652:14 0.000207867
9 *652:4 0.000287227
10 *3893:RESET_B *3680:A1_N 5.72073e-05
11 *3945:SET_B *3680:A1_N 3.89528e-05
12 *3948:RESET_B *3681:A 0.000124895
13 *3948:RESET_B *1003:12 4.20162e-05
14 *3951:RESET_B *3467:A1 0
15 *3951:RESET_B *3680:A1_N 0
16 *3951:RESET_B *3680:B1 0
17 *3951:RESET_B *3823:A2 0
18 *3951:RESET_B *4126:A 0
19 *652:16 *3680:A1_N 0.000112308
20 *3681:B *3945:SET_B 0
21 *3681:B *3951:RESET_B 6.28687e-05
22 *3681:B *652:16 0
23 *3823:B1 *3951:RESET_B 0.000104875
24 *3893:D *3893:RESET_B 0
25 *3893:D *652:16 0
26 *3945:D *3951:RESET_B 0
27 *3951:D *3951:RESET_B 0.000112266
*RES
1 *4127:X *652:4 1.6 
2 *652:4 *3948:RESET_B 4.5525 
3 *652:4 *652:14 2 
4 *652:14 *652:16 3.165 
5 *652:16 *3893:RESET_B 3.935 
6 *652:16 *3976:RESET_B 2.7425 
7 *652:14 *3945:SET_B 3.125 
8 *3945:SET_B *3951:RESET_B 13.165 
*END

*D_NET *653 0.0015009
*CONN
*I *3411:A1 I *D sky130_fd_sc_hd__o21ai_2
*I *3409:A I *D sky130_fd_sc_hd__xnor2_2
*I *3410:C1 I *D sky130_fd_sc_hd__a2111o_2
*I *4336:X O *D sky130_fd_sc_hd__clkdlybuf4s25_1
*CAP
1 *3411:A1 6.87116e-05
2 *3409:A 2.43002e-05
3 *3410:C1 0.000153666
4 *4336:X 0
5 *653:8 0.000268888
6 *653:4 0.000159633
7 *3410:C1 *3410:A1 2.55587e-05
8 *3410:C1 *3410:D1 0.000358912
9 *653:8 *3410:D1 0.000162332
10 *653:8 *664:10 2.14129e-05
11 *3408:A1 *3410:C1 7.58604e-05
12 *3408:A2 *3409:A 2.75145e-05
13 *3412:A *3411:A1 6.58423e-05
14 *414:10 *3410:C1 8.8266e-05
15 *414:10 *653:8 0
16 *414:23 *653:8 0
*RES
1 *4336:X *653:4 1.6 
2 *653:4 *653:8 4.145 
3 *653:8 *3410:C1 7.665 
4 *653:8 *3409:A 4.05 
5 *653:4 *3411:A1 2.74 
*END

*D_NET *654 0.0136883
*CONN
*I *4127:A I *D sky130_fd_sc_hd__clkdlybuf4s25_1
*I *4126:A I *D sky130_fd_sc_hd__clkdlybuf4s25_1
*I *3973:RESET_B I *D sky130_fd_sc_hd__dfrtp_2
*I *4124:A I *D sky130_fd_sc_hd__clkdlybuf4s25_1
*I *4125:A I *D sky130_fd_sc_hd__clkdlybuf4s25_1
*I *4128:X O *D sky130_fd_sc_hd__clkdlybuf4s25_1
*CAP
1 *4127:A 0
2 *4126:A 0.00101976
3 *3973:RESET_B 0.00127411
4 *4124:A 0.000293076
5 *4125:A 0.00215365
6 *4128:X 0.00119613
7 *654:72 0.0016345
8 *654:10 0.00298349
9 *3973:RESET_B *3395:A 0.000261926
10 *3973:RESET_B *4128:A 0.000287029
11 *3973:RESET_B *745:10 1.61285e-05
12 *3973:RESET_B *919:10 5.05437e-05
13 *4124:A *3863:D 3.00381e-05
14 *4124:A *3863:RESET_B 0.000151247
15 *4125:A *3964:RESET_B 9.21618e-05
16 *4125:A *4387:A 0
17 *4125:A *4398:A 9.50342e-06
18 *4126:A *3467:A1 0.000172736
19 *4126:A *3467:A2 1.2818e-05
20 *4126:A *3680:A1_N 0
21 *4126:A *3681:A 0.000118527
22 *4126:A *4329:A 4.70343e-05
23 *654:10 *3876:RESET_B 0
24 *654:10 *3964:RESET_B 0.000216317
25 *654:10 *4069:A 0.000159406
26 *654:10 *4387:A 0
27 *654:10 *655:111 0.000186928
28 *654:10 *1012:14 0
29 *654:72 *3570:A1 0
30 *654:72 *3680:A1_N 0
31 *654:72 *4168:A 0.000702078
32 o_start_ack *4125:A 0
33 *3394:A3 *4124:A 6.27529e-05
34 *3467:B2 *4126:A 0.0001249
35 *3572:A *654:72 0
36 *3951:RESET_B *4126:A 0
37 *3967:CLK *3973:RESET_B 7.03276e-05
38 *4012:CLK *4126:A 0
39 *4012:CLK *654:72 2.97004e-06
40 *4012:D *654:72 0
41 *4013:D *3973:RESET_B 0.000122331
42 *4014:D *654:72 0
43 *4085:A *3973:RESET_B 7.18107e-06
44 *4085:A *654:10 0.000122817
45 *4341:A *3973:RESET_B 4.53767e-05
46 *4341:A *4125:A 0
47 *4341:A *654:10 0
48 *503:18 *654:72 0
49 *503:24 *3973:RESET_B 6.05513e-05
50 *503:24 *654:72 0
51 *612:21 *4126:A 0
*RES
1 *4128:X *654:10 14.535 
2 *654:10 *4125:A 32.515 
3 *654:10 *4124:A 9.24 
4 *4128:X *3973:RESET_B 18.7325 
5 *3973:RESET_B *654:72 16.645 
6 *654:72 *4126:A 22.985 
7 *654:72 *4127:A 1.6 
*END

*D_NET *655 0.0103719
*CONN
*I *3969:RESET_B I *D sky130_fd_sc_hd__dfrtp_2
*I *3964:RESET_B I *D sky130_fd_sc_hd__dfrtp_2
*I *3817:B1 I *D sky130_fd_sc_hd__o21a_2
*I *3634:C_N I *D sky130_fd_sc_hd__or3b_2
*I *3818:B1 I *D sky130_fd_sc_hd__o21a_2
*I *3816:B1 I *D sky130_fd_sc_hd__o21a_2
*I *3822:B1 I *D sky130_fd_sc_hd__o21a_2
*I *3821:B1 I *D sky130_fd_sc_hd__o21a_2
*I *3967:RESET_B I *D sky130_fd_sc_hd__dfrtp_2
*I *3876:RESET_B I *D sky130_fd_sc_hd__dfrtp_2
*I *4129:X O *D sky130_fd_sc_hd__clkdlybuf4s25_1
*CAP
1 *3969:RESET_B 0
2 *3964:RESET_B 0.000385849
3 *3817:B1 2.22788e-05
4 *3634:C_N 0.000236294
5 *3818:B1 0
6 *3816:B1 0.000139976
7 *3822:B1 0.000114362
8 *3821:B1 0
9 *3967:RESET_B 0
10 *3876:RESET_B 0.000414648
11 *4129:X 0.000258148
12 *655:111 0.000568731
13 *655:84 0.000541116
14 *655:28 0.000407335
15 *655:20 0.000218845
16 *655:18 0.000379197
17 *655:16 0.000387836
18 *655:14 0.000499984
19 *655:6 0.00101438
20 *3634:C_N *3817:A1 4.43871e-06
21 *3634:C_N *3817:A2 1.71013e-05
22 *3634:C_N *4196:A 0
23 *3634:C_N *4383:A 0
24 *3634:C_N *910:20 0
25 *3816:B1 *3822:A1 9.72118e-06
26 *3816:B1 *881:23 8.35157e-05
27 *3816:B1 *881:29 1.56261e-05
28 *3816:B1 *896:31 2.747e-05
29 *3816:B1 *896:39 6.4723e-05
30 *3817:B1 *3817:A2 4.82863e-05
31 *3822:B1 *3820:A2 2.14129e-05
32 *3822:B1 *896:45 2.92496e-05
33 *3822:B1 *896:56 0.000109995
34 *3876:RESET_B *4128:A 0.00020292
35 *3964:RESET_B *3863:D 0
36 *3964:RESET_B *1011:6 7.00769e-05
37 *3964:RESET_B *1011:10 0
38 *655:6 *4129:A 0.000119873
39 *655:6 *1086:8 8.34281e-06
40 *655:14 *1086:8 0.000128878
41 *655:18 *3818:A1 4.77807e-05
42 *655:18 *3818:A2 1.42674e-05
43 *655:18 *3821:A1 0.000409783
44 *655:18 *3821:A2 4.66108e-05
45 *655:20 *3821:A1 4.89395e-05
46 *655:20 *3821:A2 8.65905e-05
47 *655:28 *3650:A1 0.00023422
48 *655:28 *4128:A 0.000123194
49 *655:84 *3817:A1 7.26629e-05
50 *655:84 *3817:A2 0.000351401
51 *655:84 *4123:A 1.7635e-05
52 *655:84 *656:47 0.000349497
53 *655:84 *656:54 0.000360924
54 *655:84 *656:69 2.11453e-05
55 *655:84 *896:10 0.000115931
56 *655:111 *1012:14 0
57 *3394:A3 *3964:RESET_B 0.000135113
58 *3394:A3 *655:111 3.89528e-05
59 *3554:A2 *3816:B1 6.2084e-05
60 *3635:C *3634:C_N 4.29969e-05
61 *4008:RESET_B *655:14 0.00013827
62 *4013:RESET_B *3822:B1 0
63 *4125:A *3964:RESET_B 9.21618e-05
64 *4246:A *3816:B1 4.87939e-05
65 *4246:A *655:20 5.95938e-05
66 *4246:A *655:28 0.000346165
67 *4341:A *3876:RESET_B 0.000153355
68 *654:10 *3876:RESET_B 0
69 *654:10 *3964:RESET_B 0.000216317
70 *654:10 *655:111 0.000186928
*RES
1 *4129:X *655:6 5.5 
2 *655:6 *655:14 8.175 
3 *655:14 *655:16 0.45 
4 *655:16 *655:18 4.935 
5 *655:18 *655:20 1.485 
6 *655:20 *655:28 7.205 
7 *655:28 *3876:RESET_B 6.995 
8 *655:28 *3967:RESET_B 2 
9 *655:20 *3821:B1 1.6 
10 *655:18 *3822:B1 7.94 
11 *655:16 *3816:B1 8.54 
12 *655:14 *3818:B1 1.6 
13 *655:6 *655:84 12.305 
14 *655:84 *3634:C_N 7.14 
15 *655:84 *3817:B1 4.05 
16 *3876:RESET_B *655:111 6.185 
17 *655:111 *3964:RESET_B 10.6325 
18 *655:111 *3969:RESET_B 2 
*END

*D_NET *656 0.0156408
*CONN
*I *3811:B1 I *D sky130_fd_sc_hd__o21a_2
*I *3807:B1 I *D sky130_fd_sc_hd__o21a_2
*I *3810:B1 I *D sky130_fd_sc_hd__o21a_2
*I *3812:B1 I *D sky130_fd_sc_hd__o21a_2
*I *3813:B1 I *D sky130_fd_sc_hd__o21a_2
*I *4129:A I *D sky130_fd_sc_hd__clkdlybuf4s25_1
*I *4046:RESET_B I *D sky130_fd_sc_hd__dfrtp_2
*I *3968:RESET_B I *D sky130_fd_sc_hd__dfrtp_2
*I *4048:RESET_B I *D sky130_fd_sc_hd__dfrtp_2
*I *4047:RESET_B I *D sky130_fd_sc_hd__dfrtp_2
*I *4130:X O *D sky130_fd_sc_hd__clkdlybuf4s25_1
*CAP
1 *3811:B1 0
2 *3807:B1 0.000521387
3 *3810:B1 7.9779e-05
4 *3812:B1 0
5 *3813:B1 0
6 *4129:A 5.06875e-05
7 *4046:RESET_B 0
8 *3968:RESET_B 0.000195442
9 *4048:RESET_B 0.000198064
10 *4047:RESET_B 0.000320953
11 *4130:X 9.45941e-05
12 *656:109 0.00194747
13 *656:89 0.00152861
14 *656:78 0.000467732
15 *656:69 0.000862138
16 *656:54 0.000727167
17 *656:47 0.000243417
18 *656:10 0.000274528
19 *3807:B1 *3807:A1 2.75229e-05
20 *3807:B1 *3807:A2 4.39911e-06
21 *3810:B1 *3490:D_N 0.000229203
22 *3968:RESET_B *3964:D 0.000353859
23 *3968:RESET_B *4389:A 8.24372e-05
24 *3968:RESET_B *1011:10 0
25 *4129:A *1086:8 2.49909e-05
26 *656:10 *4047:D 0
27 *656:10 *4176:A 2.59285e-05
28 *656:10 *1118:14 7.03276e-05
29 *656:47 *3817:A1 0.000351138
30 *656:54 *3817:A1 0.000243624
31 *656:54 *881:10 0.000124998
32 *656:69 *3558:B 1.62093e-05
33 *656:69 *3813:A2 5.53249e-06
34 *656:69 *657:23 0
35 *656:69 *657:36 0.000519815
36 *656:69 *657:53 0.000139245
37 *656:69 *881:10 0.000214573
38 *656:69 *881:65 0.000225103
39 *656:69 *881:90 6.34101e-06
40 *656:69 *896:10 0.000267467
41 *656:69 *896:123 0.000564308
42 *656:69 *910:20 0
43 *656:69 *1085:19 1.97849e-05
44 *656:78 *3813:A2 0.000132713
45 *656:78 *897:17 0.000262805
46 *656:78 *897:26 1.34361e-05
47 *656:78 *1084:10 0
48 *656:78 *1084:27 0
49 *656:89 *897:26 0.000172992
50 *656:89 *897:39 1.1561e-05
51 *656:89 *1082:14 0
52 *656:109 *3490:D_N 7.06865e-05
53 *656:109 *3534:A2 1.16578e-05
54 *656:109 *3534:A3 7.08913e-05
55 *656:109 *3534:B1 2.42043e-05
56 *656:109 *3540:A 0.000275548
57 *656:109 *4160:A 3.64998e-06
58 *656:109 *902:50 0.000197322
59 *656:109 *904:25 0.000315689
60 *656:109 *1071:38 8.30039e-05
61 *656:109 *1078:14 0.00014684
62 *656:109 *1078:16 8.17626e-05
63 *3487:A2 *656:109 2.16833e-05
64 *3487:B1 *656:109 5.05521e-05
65 *3540:B *656:109 0.000191906
66 *3541:C *656:109 3.23663e-05
67 *3543:A2 *656:109 0.000118081
68 *3555:A2 *656:69 0.000180675
69 *3557:B *656:69 0.000118527
70 *3863:CLK *3968:RESET_B 2.24336e-05
71 *4002:D *3807:B1 0.000124895
72 *4002:RESET_B *3810:B1 8.89751e-05
73 *4003:RESET_B *656:109 1.82546e-05
74 *4004:RESET_B *656:89 3.39151e-05
75 *4005:RESET_B *656:78 0.000339879
76 *4006:RESET_B *656:69 0
77 *4006:RESET_B *656:78 0
78 *4009:RESET_B *656:10 0
79 *4048:CLK *4047:RESET_B 0.000131425
80 *4048:CLK *4048:RESET_B 7.00769e-05
81 *4048:CLK *656:47 4.31698e-05
82 *142:12 *3807:B1 0.000138047
83 *451:10 *656:109 0.000113882
84 *479:10 *3810:B1 0
85 *479:21 *656:109 0
86 *613:35 *3968:RESET_B 4.70393e-05
87 *655:6 *4129:A 0.000119873
88 *655:84 *656:47 0.000349497
89 *655:84 *656:54 0.000360924
90 *655:84 *656:69 2.11453e-05
*RES
1 *4130:X *656:10 7.49 
2 *656:10 *4047:RESET_B 2.1225 
3 *656:10 *4048:RESET_B 1.0875 
4 *4047:RESET_B *3968:RESET_B 8.9275 
5 *4048:RESET_B *656:47 6.9275 
6 *656:47 *4046:RESET_B 2 
7 *656:47 *656:54 4.44 
8 *656:54 *4129:A 4.74 
9 *656:54 *656:69 19.275 
10 *656:69 *3813:B1 3.6 
11 *656:69 *656:78 8.265 
12 *656:78 *3812:B1 3.6 
13 *656:78 *656:89 5.93 
14 *656:89 *656:109 24.86 
15 *656:109 *3810:B1 6.255 
16 *656:109 *3807:B1 10.185 
17 *656:89 *3811:B1 1.6 
*END

*D_NET *657 0.0133958
*CONN
*I *3819:B1 I *D sky130_fd_sc_hd__o21a_2
*I *3820:B1 I *D sky130_fd_sc_hd__o21a_2
*I *4128:A I *D sky130_fd_sc_hd__clkdlybuf4s25_1
*I *3814:B1 I *D sky130_fd_sc_hd__o21a_2
*I *3815:B1 I *D sky130_fd_sc_hd__o21a_2
*I *4130:A I *D sky130_fd_sc_hd__clkdlybuf4s25_1
*I *4131:X O *D sky130_fd_sc_hd__clkdlybuf4s25_1
*CAP
1 *3819:B1 0
2 *3820:B1 3.67818e-05
3 *4128:A 0.0007829
4 *3814:B1 0
5 *3815:B1 4.42892e-05
6 *4130:A 4.68855e-05
7 *4131:X 0.000197571
8 *657:59 0.00124679
9 *657:53 0.00139509
10 *657:36 0.00114175
11 *657:23 0.00107006
12 *657:6 0.00109645
13 *3815:B1 *3815:A2 1.91597e-05
14 *3820:B1 *3820:A2 3.64998e-06
15 *4128:A *3491:C 0
16 *4128:A *3491:D 1.12129e-05
17 *4128:A *3568:B1 6.79508e-05
18 *4128:A *3571:A1 0
19 *4128:A *3650:A1 0
20 *4128:A *3820:A2 0.000188767
21 *4128:A *904:63 5.26594e-05
22 *4128:A *919:10 0
23 *4128:A *1076:12 0
24 *4128:A *1076:31 0.000193757
25 *4130:A *4176:A 2.88357e-05
26 *657:6 *4123:A 0.000191343
27 *657:23 *3558:B 8.1877e-05
28 *657:23 *3815:A1 7.63883e-05
29 *657:23 *4046:D 6.29998e-05
30 *657:23 *896:10 0.00016141
31 *657:23 *904:105 0
32 *657:23 *1073:10 0
33 *657:23 *1085:19 4.10318e-05
34 *657:23 *1086:21 0
35 *657:23 *1086:36 0
36 *657:23 *1086:74 1.88904e-05
37 *657:23 *1118:14 0
38 *657:36 *3550:B1 0.000232258
39 *657:36 *1085:19 9.37731e-05
40 *657:53 *3819:A2 0.000686627
41 *657:53 *3820:A1 0.00012657
42 *657:53 *881:107 0.000414537
43 *657:59 *3820:A1 4.82919e-05
44 *657:59 *904:57 0.000486544
45 *657:59 *904:63 0.000202088
46 *3549:B1 *657:53 0.000124895
47 *3552:B *657:23 0
48 *3555:A2 *3815:B1 1.08758e-05
49 *3555:A2 *657:23 5.74791e-05
50 *3572:B *4128:A 2.30292e-05
51 *3876:RESET_B *4128:A 0.00020292
52 *3967:CLK *4128:A 0.000133453
53 *3973:RESET_B *4128:A 0.000287029
54 *4005:RESET_B *657:53 1.4389e-05
55 *4006:RESET_B *657:53 3.47837e-05
56 *4009:RESET_B *657:23 0.000696421
57 *4012:RESET_B *3820:B1 8.49205e-05
58 *4013:RESET_B *4128:A 0
59 *4085:A *4128:A 0.000121043
60 *4341:A *4128:A 8.33066e-06
61 *503:10 *657:59 0.000103192
62 *503:16 *4128:A 7.89689e-05
63 *503:16 *657:59 8.26536e-05
64 *655:28 *4128:A 0.000123194
65 *656:69 *657:23 0
66 *656:69 *657:36 0.000519815
67 *656:69 *657:53 0.000139245
*RES
1 *4131:X *657:6 4.465 
2 *657:6 *4130:A 2.41 
3 *657:6 *657:23 21.565 
4 *657:23 *3815:B1 2.41 
5 *657:23 *657:36 7.97 
6 *657:36 *3814:B1 3.6 
7 *657:36 *657:53 20.765 
8 *657:53 *657:59 11.84 
9 *657:59 *4128:A 24.97 
10 *657:59 *3820:B1 4.395 
11 *657:53 *3819:B1 1.6 
*END

*D_NET *658 0.014581
*CONN
*I *3780:B1 I *D sky130_fd_sc_hd__o21a_2
*I *3776:B1 I *D sky130_fd_sc_hd__o21a_2
*I *3778:B1 I *D sky130_fd_sc_hd__o21a_2
*I *3777:B1 I *D sky130_fd_sc_hd__o21a_2
*I *3783:B1 I *D sky130_fd_sc_hd__o21a_2
*I *3793:B1 I *D sky130_fd_sc_hd__o21a_2
*I *3779:B1 I *D sky130_fd_sc_hd__o21a_2
*I *3784:B1 I *D sky130_fd_sc_hd__o21a_2
*I *3826:B1 I *D sky130_fd_sc_hd__o21a_2
*I *3785:B1 I *D sky130_fd_sc_hd__o21a_2
*I *4132:X O *D sky130_fd_sc_hd__clkdlybuf4s25_1
*CAP
1 *3780:B1 0
2 *3776:B1 0
3 *3778:B1 0.00023974
4 *3777:B1 0.000353041
5 *3783:B1 0.00036543
6 *3793:B1 0.000228339
7 *3779:B1 0
8 *3784:B1 0.000127284
9 *3826:B1 0
10 *3785:B1 0.00022917
11 *4132:X 0.000206382
12 *658:114 0.000996779
13 *658:68 0.000249514
14 *658:64 0.000438574
15 *658:60 0.000532469
16 *658:56 0.000578859
17 *658:50 0.000334605
18 *658:36 0.000499534
19 *658:10 0.000315832
20 *658:8 0.0005538
21 *3777:B1 *3777:A2 8.08439e-05
22 *3777:B1 *889:16 4.66108e-05
23 *3777:B1 *911:10 0
24 *3778:B1 *3422:A1_N 4.9119e-05
25 *3778:B1 *3422:A2_N 0.000119756
26 *3778:B1 *885:28 9.72742e-06
27 *3778:B1 *899:47 5.4155e-06
28 *3783:B1 *3423:A 4.13092e-05
29 *3783:B1 *3431:B 8.23457e-05
30 *3783:B1 *3779:A1 0.000343596
31 *3783:B1 *3783:A1 4.82919e-05
32 *3783:B1 *3935:D 9.71067e-05
33 *3783:B1 *911:24 0
34 *3783:B1 *1089:22 0.000114492
35 *3784:B1 *3779:A1 1.37328e-05
36 *3784:B1 *880:91 6.90876e-05
37 *3784:B1 *880:102 0.000312964
38 *3784:B1 *894:72 8.8266e-05
39 *3784:B1 *894:83 0.000275548
40 *3785:B1 *3780:A1 1.22762e-05
41 *3785:B1 *3785:A1 0.000124895
42 *3785:B1 *3785:A2 8.8266e-05
43 *3785:B1 *898:102 0
44 *3793:B1 *3662:A1 0.000347922
45 *3793:B1 *880:102 6.81237e-05
46 *3793:B1 *911:24 0
47 *658:10 *3780:A1 8.98743e-05
48 *658:36 *3780:A1 5.09129e-05
49 *658:36 *3975:RESET_B 9.54219e-05
50 *658:50 *3521:A 0.00035215
51 *658:50 *3776:A1 4.99619e-05
52 *658:50 *3975:RESET_B 0.000107783
53 *658:50 *1089:22 3.9442e-05
54 *658:56 *3521:A 0.000199541
55 *658:68 *880:102 0.000111324
56 *658:68 *911:24 0
57 *658:68 *911:30 0
58 *658:114 *3422:A1_N 0
59 *658:114 *3426:A2 0.000186627
60 *3422:B1 *3778:B1 0.0001249
61 *3422:B2 *3778:B1 6.47326e-05
62 *3431:A *3783:B1 0
63 *3431:A *658:56 5.16348e-05
64 *3431:A *658:114 2.07184e-05
65 *3521:B *658:50 3.90266e-05
66 *3930:CLK *658:114 9.14049e-05
67 *3930:D *3777:B1 0.000271303
68 *3930:D *3778:B1 7.3151e-05
69 *3931:SET_B *3784:B1 4.60584e-05
70 *3975:CLK *3783:B1 8.68646e-05
71 *3975:D *3783:B1 0
72 *4018:D *658:36 9.24049e-05
73 *4018:RESET_B *658:10 7.75325e-05
74 *4018:RESET_B *658:36 3.68682e-05
75 *4082:A *658:50 1.91597e-05
76 *4083:A *658:50 0.000180682
77 *4099:A *658:56 0.000163204
78 *4099:A *658:60 0.000293598
79 *4099:A *658:64 0.000577747
80 *4149:A *658:114 0.000970678
81 *360:14 *658:64 0.00038879
82 *360:61 *658:60 0.000268739
83 *360:61 *658:64 0.000188957
84 *603:63 *658:114 1.00941e-05
85 *607:12 *658:114 0
86 *607:16 *658:114 0
87 *607:27 *658:50 0.000151672
88 *607:27 *658:56 0.000186393
89 *611:10 *3783:B1 0.000111278
90 *611:52 *3783:B1 2.13396e-05
*RES
1 *4132:X *658:8 5.775 
2 *658:8 *658:10 2.655 
3 *658:10 *3785:B1 7.755 
4 *658:10 *3826:B1 3.6 
5 *658:8 *658:36 7.595 
6 *658:36 *658:50 11.215 
7 *658:50 *658:56 5.825 
8 *658:56 *658:60 4.865 
9 *658:60 *658:64 7.28 
10 *658:64 *658:68 4.4 
11 *658:68 *3784:B1 6.55 
12 *658:68 *3779:B1 1.6 
13 *658:64 *3793:B1 8.445 
14 *658:60 *3783:B1 15.725 
15 *658:56 *658:114 13.58 
16 *658:114 *3777:B1 12.17 
17 *658:114 *3778:B1 6.55 
18 *658:50 *3776:B1 1.6 
19 *658:36 *3780:B1 1.6 
*END

*D_NET *659 0.0114494
*CONN
*I *3852:B1 I *D sky130_fd_sc_hd__o21a_2
*I *3843:B1 I *D sky130_fd_sc_hd__o21a_2
*I *3844:B1 I *D sky130_fd_sc_hd__o21a_2
*I *3853:B1 I *D sky130_fd_sc_hd__o21a_2
*I *3804:B1 I *D sky130_fd_sc_hd__o21a_2
*I *3851:B1 I *D sky130_fd_sc_hd__o21a_2
*I *3845:B1 I *D sky130_fd_sc_hd__o21a_2
*I *3763:B1 I *D sky130_fd_sc_hd__o21a_2
*I *3787:B1 I *D sky130_fd_sc_hd__o21a_2
*I *3788:B1 I *D sky130_fd_sc_hd__o21a_2
*I *4133:X O *D sky130_fd_sc_hd__clkdlybuf4s25_1
*CAP
1 *3852:B1 0
2 *3843:B1 0
3 *3844:B1 0.00013522
4 *3853:B1 3.37585e-05
5 *3804:B1 0.000413006
6 *3851:B1 0.000108006
7 *3845:B1 7.20905e-05
8 *3763:B1 0
9 *3787:B1 0
10 *3788:B1 0.000297174
11 *4133:X 0.000364377
12 *659:99 0.000579811
13 *659:90 0.000728954
14 *659:77 0.00082372
15 *659:75 0.000483956
16 *659:58 0.00049091
17 *659:47 0.000199093
18 *659:20 0.000470287
19 *659:16 0.000364256
20 *659:6 0.000623466
21 *3788:B1 *3788:A1 0
22 *3788:B1 *3939:D 4.65515e-05
23 *3788:B1 *4213:A 0
24 *3804:B1 *879:25 7.49327e-05
25 *3804:B1 *879:29 0.000124007
26 *3804:B1 *893:25 0.00015896
27 *3804:B1 *893:27 8.65905e-05
28 *3844:B1 *3844:A1 0.000253201
29 *3844:B1 *3844:A2 0.000205686
30 *3844:B1 *885:104 1.22762e-05
31 *3844:B1 *899:116 1.52184e-05
32 *3845:B1 *899:82 0.000122337
33 *3851:B1 *901:69 0.000198939
34 *659:6 *4133:A 2.97091e-05
35 *659:6 *885:54 1.83847e-05
36 *659:16 *885:62 6.96579e-05
37 *659:16 *885:64 4.7101e-05
38 *659:16 *899:82 0.000189845
39 *659:16 *899:84 8.65961e-05
40 *659:16 *911:10 0
41 *659:20 *3787:A1 0.000203178
42 *659:20 *3787:A2 0.000278111
43 *659:20 *885:64 0.000137277
44 *659:20 *899:84 0.000303869
45 *659:47 *4043:D 0.000105068
46 *659:47 *911:10 0
47 *659:58 *4043:D 9.9535e-05
48 *659:58 *901:69 3.09164e-05
49 *659:75 *3391:A2 1.34503e-05
50 *659:75 *4043:D 7.34286e-05
51 *659:75 *4169:A 1.52945e-05
52 *659:75 *4190:A 0
53 *659:75 *887:82 4.00541e-06
54 *659:75 *901:69 0.000478338
55 *659:77 *3391:A2 0.000164874
56 *659:90 *3391:B1 3.09233e-05
57 *659:90 *3853:A2 0
58 *659:90 *4044:D 0
59 *659:90 *1028:8 0
60 *659:99 *3843:A2 8.65905e-05
61 *659:99 *3853:A1 0.000354719
62 *659:99 *3853:A2 0.000354719
63 *3392:B1 *3804:B1 2.75145e-05
64 *3616:A *659:99 4.21973e-05
65 *3939:RESET_B *3788:B1 1.83756e-05
66 *3940:RESET_B *3788:B1 6.74079e-05
67 *4036:D *659:99 8.40213e-05
68 *4043:RESET_B *659:6 4.06007e-05
69 *4043:RESET_B *659:16 2.47313e-05
70 *4043:RESET_B *659:58 0
71 *4044:RESET_B *659:90 0
72 *4100:A *3845:B1 7.22354e-05
73 *4100:A *659:58 6.18754e-05
74 *628:91 *3845:B1 4.66108e-05
75 *628:91 *659:47 0.000152821
76 *628:91 *659:58 2.92496e-05
77 *628:93 *659:16 3.24501e-05
78 *628:93 *659:47 7.70828e-05
79 *628:97 *659:16 9.82856e-06
*RES
1 *4133:X *659:6 5.845 
2 *659:6 *659:16 8.695 
3 *659:16 *659:20 6.33 
4 *659:20 *3788:B1 10.7 
5 *659:20 *3787:B1 1.6 
6 *659:16 *3763:B1 1.6 
7 *659:6 *659:47 4.655 
8 *659:47 *3845:B1 5.43 
9 *659:47 *659:58 2.145 
10 *659:58 *3851:B1 5.775 
11 *659:58 *659:75 8.465 
12 *659:75 *659:77 2.865 
13 *659:77 *3804:B1 9.295 
14 *659:77 *659:90 8.185 
15 *659:90 *3853:B1 2.05 
16 *659:90 *659:99 9.765 
17 *659:99 *3844:B1 9.575 
18 *659:99 *3843:B1 1.6 
19 *659:75 *3852:B1 1.6 
*END

*D_NET *660 0.0137319
*CONN
*I *3835:B1 I *D sky130_fd_sc_hd__o21a_2
*I *3834:B1 I *D sky130_fd_sc_hd__o21a_2
*I *3833:B1 I *D sky130_fd_sc_hd__o21a_2
*I *3832:B1 I *D sky130_fd_sc_hd__o21a_2
*I *3831:B1 I *D sky130_fd_sc_hd__o21a_2
*I *3830:B1 I *D sky130_fd_sc_hd__o21a_2
*I *3626:B1 I *D sky130_fd_sc_hd__o21a_2
*I *3809:B1 I *D sky130_fd_sc_hd__o21a_2
*I *3808:B1 I *D sky130_fd_sc_hd__o21a_2
*I *3762:B1 I *D sky130_fd_sc_hd__o21a_2
*I *4134:X O *D sky130_fd_sc_hd__clkdlybuf4s25_1
*CAP
1 *3835:B1 0.000195382
2 *3834:B1 0
3 *3833:B1 0
4 *3832:B1 0
5 *3831:B1 0.000242382
6 *3830:B1 0.000179078
7 *3626:B1 0
8 *3809:B1 0.00031882
9 *3808:B1 0.000352503
10 *3762:B1 0.000156349
11 *4134:X 0
12 *660:104 0.000449116
13 *660:68 0.000471394
14 *660:64 0.000337442
15 *660:44 0.00031882
16 *660:31 0.000588143
17 *660:29 0.000523147
18 *660:27 0.00035924
19 *660:23 0.000932009
20 *660:4 0.000475384
21 *3762:B1 *4134:A 4.08514e-05
22 *3762:B1 *897:54 0.000162769
23 *3808:B1 *3496:B 0
24 *3808:B1 *3626:A1 0
25 *3808:B1 *3626:A2 7.89767e-05
26 *3808:B1 *897:54 0.000252608
27 *3808:B1 *897:58 4.66826e-05
28 *3808:B1 *1069:18 0
29 *3809:B1 *3626:A1 0.000201508
30 *3809:B1 *3809:A1 0.000275548
31 *3809:B1 *3809:A2 0.000237243
32 *3830:B1 *3830:A1 3.00381e-05
33 *3830:B1 *3830:A2 0.000124895
34 *3830:B1 *4132:A 3.64998e-06
35 *3830:B1 *886:18 6.27029e-05
36 *3830:B1 *900:20 8.65961e-05
37 *3830:B1 *900:33 7.44453e-05
38 *3835:B1 *4160:A 8.53113e-06
39 *3835:B1 *661:30 0.00028438
40 *3835:B1 *886:74 0.000285935
41 *660:23 *3855:D 0.000139238
42 *660:23 *4134:A 9.21168e-05
43 *660:23 *4135:A 0.000225934
44 *660:23 *4160:A 0.000582679
45 *660:23 *661:8 8.40213e-05
46 *660:23 *910:22 0
47 *660:27 *3355:A 0.000419392
48 *660:27 *3495:B 0.000119756
49 *660:27 *3516:B 0.000118294
50 *660:27 *886:16 5.83589e-05
51 *660:27 *900:18 0.000403502
52 *660:31 *3496:B 0
53 *660:64 *4145:A 0.00100422
54 *660:68 *900:33 2.34423e-05
55 *660:104 *4135:A 0.000225934
56 *660:104 *4160:A 0.000431518
57 *660:104 *680:10 0.000113797
58 *660:104 *886:63 0.000337524
59 *3497:C1 *660:31 0
60 *3854:D *660:31 0
61 *3854:SET_B *660:31 5.39718e-05
62 *4025:RESET_B *660:64 7.63125e-05
63 *4082:A *3831:B1 0.000319127
64 *4082:A *660:64 0.000458069
65 *4103:A *660:64 0.000239807
66 *4188:A *660:27 4.82863e-05
67 *485:10 *3762:B1 0
68 *610:19 *660:31 0
69 *610:19 *660:64 0
70 *610:47 *660:68 0
*RES
1 *4134:X *660:4 1.6 
2 *660:4 *3762:B1 8.12 
3 *660:4 *660:23 10.91 
4 *660:23 *660:27 11.765 
5 *660:27 *660:29 2 
6 *660:29 *660:31 3.93 
7 *660:31 *3808:B1 10.335 
8 *660:31 *660:44 2 
9 *660:44 *3809:B1 8.62 
10 *660:44 *3626:B1 1.6 
11 *660:29 *660:64 13.475 
12 *660:64 *660:68 2.87 
13 *660:68 *3830:B1 7.755 
14 *660:68 *3831:B1 7.08 
15 *660:64 *3832:B1 1.6 
16 *660:27 *3833:B1 1.6 
17 *660:23 *660:104 8.97 
18 *660:104 *3834:B1 3.6 
19 *660:104 *3835:B1 10.02 
*END

*D_NET *661 0.015468
*CONN
*I *3865:RESET_B I *D sky130_fd_sc_hd__dfrtp_2
*I *3837:B1 I *D sky130_fd_sc_hd__o21a_2
*I *3840:B1 I *D sky130_fd_sc_hd__o21a_2
*I *3839:B1 I *D sky130_fd_sc_hd__o21a_2
*I *3838:B1 I *D sky130_fd_sc_hd__o21a_2
*I *3841:B1 I *D sky130_fd_sc_hd__o21a_2
*I *3829:B1 I *D sky130_fd_sc_hd__o21a_2
*I *3836:B1 I *D sky130_fd_sc_hd__o21a_2
*I *3864:RESET_B I *D sky130_fd_sc_hd__dfrtp_2
*I *4134:A I *D sky130_fd_sc_hd__clkdlybuf4s25_1
*I *4135:X O *D sky130_fd_sc_hd__clkdlybuf4s25_1
*CAP
1 *3865:RESET_B 0
2 *3837:B1 0
3 *3840:B1 0.000847416
4 *3839:B1 0
5 *3838:B1 0.000137171
6 *3841:B1 0
7 *3829:B1 0.000289278
8 *3836:B1 0
9 *3864:RESET_B 0
10 *4134:A 0.000167643
11 *4135:X 0.000314385
12 *661:94 0.00103167
13 *661:83 0.000453312
14 *661:79 0.000208556
15 *661:53 0.00130248
16 *661:41 0.00131092
17 *661:30 0.000787937
18 *661:26 0.000602261
19 *661:19 0.000301425
20 *661:8 0.00074808
21 *3829:B1 *3573:A1 0.000163204
22 *3829:B1 *3604:A 8.95933e-05
23 *3829:B1 *4283:A 0.000122331
24 *3829:B1 *901:51 0.000160658
25 *3829:B1 *901:96 2.65028e-05
26 *3829:B1 *903:6 0.000278117
27 *3829:B1 *903:12 0.000118081
28 *3829:B1 *1113:16 0.000337498
29 *3838:B1 *3838:A2 0.000122337
30 *3838:B1 *1111:6 3.1835e-05
31 *3840:B1 *3839:A1 0
32 *4134:A *897:54 0.000201503
33 *661:8 *4135:A 4.99619e-05
34 *661:19 *4160:A 0.000584352
35 *661:19 *900:18 4.79251e-05
36 *661:26 *4160:A 0.000117825
37 *661:26 *900:18 5.36866e-05
38 *661:30 *3636:A1 4.55632e-05
39 *661:30 *4160:A 0.0005583
40 *661:30 *886:87 0
41 *661:30 *900:18 0.000431503
42 *661:30 *900:58 0.000116158
43 *661:30 *900:81 0
44 *661:41 *900:81 0
45 *661:41 *900:92 0
46 *661:53 *3597:A1 4.99619e-05
47 *661:53 *887:67 3.21081e-06
48 *661:53 *901:51 4.66108e-05
49 *661:83 *900:92 3.24046e-05
50 *661:83 *900:101 0.000181095
51 *661:83 *1112:14 0.000139238
52 *661:94 *3839:A1 0
53 *661:94 *3839:A2 0.000263586
54 *661:94 *900:101 1.71013e-05
55 *661:94 *1112:14 0.000178255
56 *3594:A1 *661:53 0.000206304
57 *3597:A2 *661:53 7.60965e-05
58 *3598:B1 *661:41 1.0183e-05
59 *3598:B1 *661:53 0.000354719
60 *3598:B1 *661:83 0
61 *3599:A2 *661:94 0
62 *3762:B1 *4134:A 4.08514e-05
63 *3835:B1 *661:30 0.00028438
64 *3855:SET_B *661:19 0
65 *3865:D *661:19 0
66 *4025:CLK *661:30 0
67 *4026:RESET_B *661:30 0.000339886
68 *4027:RESET_B *661:30 0.000210151
69 *4028:RESET_B *661:30 0
70 *4029:RESET_B *661:83 0.000102184
71 *4031:RESET_B *661:94 0.000162311
72 *4032:RESET_B *3840:B1 2.75145e-05
73 *4081:A *661:53 0.000301319
74 *390:19 *3829:B1 0
75 *466:12 *3829:B1 0
76 *518:27 *661:53 3.1492e-05
77 *518:35 *661:53 7.35729e-05
78 *660:23 *4134:A 9.21168e-05
79 *660:23 *661:8 8.40213e-05
*RES
1 *4135:X *661:8 6.205 
2 *661:8 *4134:A 5.5 
3 *661:8 *661:19 8.735 
4 *661:19 *3864:RESET_B 2 
5 *661:19 *661:26 1.38 
6 *661:26 *661:30 17.385 
7 *661:30 *3836:B1 3.6 
8 *661:30 *661:41 5.675 
9 *661:41 *661:53 17.955 
10 *661:53 *3829:B1 14.435 
11 *661:53 *3841:B1 1.6 
12 *661:41 *661:79 1.155 
13 *661:79 *661:83 6.44 
14 *661:83 *3838:B1 6.12 
15 *661:83 *661:94 5.97 
16 *661:94 *3839:B1 3.6 
17 *661:94 *3840:B1 16.86 
18 *661:79 *3837:B1 1.6 
19 *661:26 *3865:RESET_B 2 
*END

*D_NET *662 0.0207482
*CONN
*I *4132:A I *D sky130_fd_sc_hd__clkdlybuf4s25_1
*I *3975:RESET_B I *D sky130_fd_sc_hd__dfrtp_2
*I *3842:B1 I *D sky130_fd_sc_hd__o21a_2
*I *4133:A I *D sky130_fd_sc_hd__clkdlybuf4s25_1
*I *3847:B1 I *D sky130_fd_sc_hd__o21a_2
*I *4135:A I *D sky130_fd_sc_hd__clkdlybuf4s25_1
*I *4136:X O *D sky130_fd_sc_hd__clkdlybuf4s25_1
*CAP
1 *4132:A 0.00052028
2 *3975:RESET_B 0.000636427
3 *3842:B1 0.00112132
4 *4133:A 0.000355818
5 *3847:B1 0
6 *4135:A 0.000317989
7 *4136:X 6.99252e-05
8 *662:80 0.00163496
9 *662:52 0.00159587
10 *662:41 0.000881247
11 *662:33 0.00369166
12 *662:10 0.0028388
13 *3842:B1 *3604:A 7.00889e-06
14 *3842:B1 *3829:A1 6.52265e-05
15 *3842:B1 *885:54 6.1357e-05
16 *3842:B1 *887:52 2.10433e-05
17 *3842:B1 *887:106 0.000876012
18 *3842:B1 *901:96 1.82868e-05
19 *3842:B1 *903:25 0
20 *3842:B1 *1113:16 0.000661774
21 *3975:RESET_B *1089:22 0.000371249
22 *4132:A *3532:B 0
23 *4132:A *886:33 0
24 *4132:A *900:33 0
25 *4133:A *885:54 0.000113247
26 *4135:A *3636:S 3.32209e-05
27 *4135:A *3637:A1 0.000898711
28 *4135:A *3855:D 0.000139238
29 *4135:A *886:63 0.000209179
30 *4135:A *910:22 0.000103974
31 *662:10 *3637:A1 7.06865e-05
32 *662:10 *3834:A1 3.64998e-06
33 *662:10 *886:63 6.38291e-05
34 *662:33 *901:32 4.38278e-05
35 *662:33 *1106:8 8.53113e-06
36 *662:33 *1107:10 3.19242e-05
37 *662:41 *885:39 0.000206137
38 *662:41 *899:28 0
39 *662:41 *899:47 7.63204e-05
40 *662:52 *885:50 0.000130621
41 *662:52 *899:68 7.47215e-05
42 *3422:B2 *662:41 0
43 *3577:B *662:41 0
44 *3579:A1 *662:33 5.05437e-05
45 *3579:A1 *662:80 2.03321e-05
46 *3579:A2 *662:41 2.75229e-05
47 *3579:A2 *662:80 2.86623e-05
48 *3579:B1 *662:80 0
49 *3608:C *3842:B1 0.000151574
50 *3611:A2 *3842:B1 8.70923e-05
51 *3830:B1 *4132:A 3.64998e-06
52 *4018:D *662:80 0
53 *4022:D *662:41 0
54 *4022:D *662:80 0
55 *4022:RESET_B *662:80 0
56 *4023:D *662:33 1.17409e-05
57 *4023:D *662:80 0.000187071
58 *4023:RESET_B *662:80 0
59 *4024:CLK *662:33 1.54837e-05
60 *4025:D *662:33 2.49909e-05
61 *4033:D *3842:B1 0.000116158
62 *4034:D *3842:B1 0
63 *4034:RESET_B *3842:B1 9.428e-05
64 *4082:A *662:80 0
65 *4104:A *3975:RESET_B 4.82919e-05
66 *460:10 *662:33 0.000185405
67 *509:10 *662:41 0
68 *607:78 *662:41 0.000179814
69 *607:78 *662:52 0.000406778
70 *610:25 *4132:A 0.000187759
71 *610:47 *4132:A 0.000232258
72 *658:36 *3975:RESET_B 9.54219e-05
73 *658:50 *3975:RESET_B 0.000107783
74 *659:6 *4133:A 2.97091e-05
75 *660:23 *4135:A 0.000225934
76 *660:104 *4135:A 0.000225934
77 *661:8 *4135:A 4.99619e-05
*RES
1 *4136:X *662:10 4.92 
2 *662:10 *4135:A 17.16 
3 *662:10 *662:33 33.54 
4 *662:33 *662:41 14.45 
5 *662:41 *3847:B1 3.6 
6 *662:41 *662:52 6.695 
7 *662:52 *4133:A 6.115 
8 *662:52 *3842:B1 27.29 
9 *662:33 *662:80 12.265 
10 *662:80 *3975:RESET_B 11.2575 
11 *662:80 *4132:A 13.85 
*END

*D_NET *663 0.00105649
*CONN
*I *4073:A I *D sky130_fd_sc_hd__ebufn_2
*I *4074:LO O *D sky130_fd_sc_hd__conb_1
*CAP
1 *4073:A 0.000327725
2 *4074:LO 0.000327725
3 *4073:A *889:57 9.76238e-06
4 *4073:TE_B *4073:A 1.62376e-05
5 *4094:A *4073:A 2.97004e-06
6 *622:6 *4073:A 0.000160635
7 *622:76 *4073:A 0.000122331
8 *622:78 *4073:A 5.65627e-05
9 *622:126 *4073:A 3.25424e-05
10 *643:67 *4073:A 0
*RES
1 *4074:LO *4073:A 12.9862 
*END

*D_NET *664 0.00177613
*CONN
*I *3411:B1 I *D sky130_fd_sc_hd__o21ai_2
*I *3410:D1 I *D sky130_fd_sc_hd__a2111o_2
*I *4337:X O *D sky130_fd_sc_hd__clkdlybuf4s25_1
*CAP
1 *3411:B1 0
2 *3410:D1 0.000138243
3 *4337:X 9.59335e-05
4 *664:10 0.000234177
5 *3410:D1 *3410:A1 4.82863e-05
6 *3410:D1 *906:12 2.30292e-05
7 *3408:A1 *3410:D1 3.12853e-05
8 *3410:C1 *3410:D1 0.000358912
9 *4375:A *3410:D1 0.000137458
10 *414:23 *664:10 0
11 *631:10 *664:10 4.82863e-05
12 *631:12 *3410:D1 0.000337538
13 *631:12 *664:10 0.000139238
14 *653:8 *3410:D1 0.000162332
15 *653:8 *664:10 2.14129e-05
*RES
1 *4337:X *664:10 5.685 
2 *664:10 *3410:D1 9.705 
3 *664:10 *3411:B1 3.6 
*END

*D_NET *665 0.000370688
*CONN
*I *3635:B I *D sky130_fd_sc_hd__nor3_2
*I *4173:X O *D sky130_fd_sc_hd__dlygate4sd3_1
*CAP
1 *3635:B 0.000101017
2 *4173:X 0.000101017
3 *3635:B *3648:B 0.000112909
4 *3635:B *1011:10 7.9642e-06
5 *4085:A *3635:B 4.77807e-05
6 *4246:A *3635:B 0
*RES
1 *4173:X *3635:B 9.03 
*END

*D_NET *666 0.0019844
*CONN
*I *3863:RESET_B I *D sky130_fd_sc_hd__dfrtp_2
*I *4174:X O *D sky130_fd_sc_hd__dlygate4sd3_1
*CAP
1 *3863:RESET_B 0.000828479
2 *4174:X 0.000828479
3 *3863:RESET_B *3634:A 2.15594e-05
4 *3863:RESET_B *3634:B 0
5 *3863:RESET_B *3863:D 4.82863e-05
6 *3863:RESET_B *4047:D 6.95753e-05
7 *3863:RESET_B *4383:A 0
8 *3863:RESET_B *4389:A 3.67779e-05
9 *3964:CLK *3863:RESET_B 0
10 *4124:A *3863:RESET_B 0.000151247
11 *4346:A *3863:RESET_B 0
*RES
1 *4174:X *3863:RESET_B 16.6175 
*END

*D_NET *667 0.000553828
*CONN
*I *4041:D I *D sky130_fd_sc_hd__dfrtp_2
*I *4175:X O *D sky130_fd_sc_hd__dlygate4sd3_1
*CAP
1 *4041:D 0.00018964
2 *4175:X 0.00018964
3 *4041:D *4151:A 1.88904e-05
4 *4041:D *4175:A 3.86607e-05
5 *3850:B1 *4041:D 7.47366e-05
6 *4094:A *4041:D 4.22604e-05
7 *11:10 *4041:D 0
*RES
1 *4175:X *4041:D 10.155 
*END

*D_NET *668 0.000488408
*CONN
*I *4048:D I *D sky130_fd_sc_hd__dfrtp_2
*I *4176:X O *D sky130_fd_sc_hd__dlygate4sd3_1
*CAP
1 *4048:D 7.12201e-05
2 *4176:X 7.12201e-05
3 *4048:D *3817:A1 0.000161318
4 *4048:D *910:20 0.000159658
5 *4048:CLK *4048:D 2.49909e-05
*RES
1 *4176:X *4048:D 9.54 
*END

*D_NET *669 0.000397167
*CONN
*I *3971:D I *D sky130_fd_sc_hd__dfrtp_2
*I *4177:X O *D sky130_fd_sc_hd__dlygate4sd3_1
*CAP
1 *3971:D 0.000109751
2 *4177:X 0.000109751
3 *3971:D *4398:A 0
4 *3971:CLK *3971:D 0.0001249
5 *4380:A *3971:D 4.72328e-05
6 *649:10 *3971:D 5.53249e-06
*RES
1 *4177:X *3971:D 9.465 
*END

*D_NET *670 0.00108538
*CONN
*I *4044:D I *D sky130_fd_sc_hd__dfrtp_2
*I *4178:X O *D sky130_fd_sc_hd__dlygate4sd3_1
*CAP
1 *4044:D 0.00047677
2 *4178:X 0.00047677
3 *4044:D *3761:A 0
4 *4044:D *4178:A 3.72916e-05
5 *4045:RESET_B *4044:D 4.24575e-05
6 *4071:A *4044:D 0
7 *50:8 *4044:D 5.2089e-05
8 *659:90 *4044:D 0
*RES
1 *4178:X *4044:D 13.995 
*END

*D_NET *671 0.000786702
*CONN
*I *3960:D I *D sky130_fd_sc_hd__dfrtp_2
*I *4179:X O *D sky130_fd_sc_hd__dlygate4sd3_1
*CAP
1 *3960:D 0.00029429
2 *4179:X 0.00029429
3 *3960:D *4179:A 3.00381e-05
4 *3960:D *4386:A 0
5 *3960:D *981:65 2.84224e-05
6 *3960:CLK *3960:D 9.91257e-05
7 *3962:RESET_B *3960:D 0
8 *3971:CLK *3960:D 4.05358e-05
*RES
1 *4179:X *3960:D 12.405 
*END

*D_NET *672 0.00176478
*CONN
*I *3964:D I *D sky130_fd_sc_hd__dfrtp_2
*I *4180:X O *D sky130_fd_sc_hd__dlygate4sd3_1
*CAP
1 *3964:D 0.0005672
2 *4180:X 0.0005672
3 *3964:D *3634:A 0
4 *3964:D *4196:A 2.75229e-05
5 *3964:D *1011:10 0
6 *3635:C *3964:D 0.000222081
7 *3863:CLK *3964:D 0
8 *3964:CLK *3964:D 0
9 *3968:RESET_B *3964:D 0.000353859
10 *4174:A *3964:D 2.69217e-05
11 *4346:A *3964:D 0
*RES
1 *4180:X *3964:D 18.15 
*END

*D_NET *673 0.0031212
*CONN
*I *3414:A I *D sky130_fd_sc_hd__or3_2
*I *3415:A1 I *D sky130_fd_sc_hd__o21ai_2
*I *3413:A I *D sky130_fd_sc_hd__xnor2_2
*I *4338:X O *D sky130_fd_sc_hd__clkdlybuf4s25_1
*CAP
1 *3414:A 0.000429128
2 *3415:A1 0.000250278
3 *3413:A 0.000137258
4 *4338:X 0
5 *673:8 0.000493719
6 *673:4 0.00053531
7 *3414:A *3406:A1 5.7932e-05
8 *3406:A2 *3414:A 4.82863e-05
9 *3406:B1 *3414:A 7.72844e-05
10 *3414:C *3414:A 0.000497861
11 *3415:A2 *3415:A1 0
12 *3419:B *3415:A1 3.95724e-05
13 *3420:B *3415:A1 3.32811e-05
14 *3991:RESET_B *3414:A 2.49909e-05
15 *3993:CLK *3415:A1 0.000213101
16 *3993:CLK *673:8 1.70935e-05
17 *414:23 *673:8 0
18 *416:24 *3415:A1 0.000174846
19 *416:24 *673:8 9.12564e-05
*RES
1 *4338:X *673:4 1.6 
2 *673:4 *673:8 4.145 
3 *673:8 *3413:A 5.43 
4 *673:8 *3415:A1 10.23 
5 *673:4 *3414:A 10.75 
*END

*D_NET *674 0.000844936
*CONN
*I *3967:D I *D sky130_fd_sc_hd__dfrtp_2
*I *4181:X O *D sky130_fd_sc_hd__dlygate4sd3_1
*CAP
1 *3967:D 0.000242524
2 *4181:X 0.000242524
3 *3967:D *3650:A1 9.05535e-05
4 *4246:A *3967:D 0.000269335
*RES
1 *4181:X *3967:D 10.845 
*END

*D_NET *675 0.000543064
*CONN
*I *3981:D I *D sky130_fd_sc_hd__dfrtp_2
*I *4182:X O *D sky130_fd_sc_hd__dlygate4sd3_1
*CAP
1 *3981:D 0.000179034
2 *4182:X 0.000179034
3 *3982:D *3981:D 5.2089e-05
4 *621:29 *3981:D 7.8936e-05
5 *621:35 *3981:D 5.39718e-05
*RES
1 *4182:X *3981:D 10.155 
*END

*D_NET *676 0.0021245
*CONN
*I *3961:D I *D sky130_fd_sc_hd__dfrtp_2
*I *3685:A1 I *D sky130_fd_sc_hd__a22o_2
*I *4183:X O *D sky130_fd_sc_hd__dlygate4sd3_1
*CAP
1 *3961:D 0
2 *3685:A1 0.000367495
3 *4183:X 0.000282929
4 *676:14 0.000650423
5 *3685:A1 *3456:A2 0
6 *3685:A1 *3684:A1 0.000243076
7 *3685:A1 *3685:B2 1.74e-05
8 *676:14 *3518:A2 5.21046e-05
9 *3685:A2 *3685:A1 0.000220557
10 *3894:D *3685:A1 0.000164686
11 *3946:RESET_B *3685:A1 4.66108e-05
12 *3961:CLK *3685:A1 4.82919e-05
13 *559:10 *3685:A1 3.09233e-05
*RES
1 *4183:X *676:14 9.35 
2 *676:14 *3685:A1 13.55 
3 *676:14 *3961:D 1.6 
*END

*D_NET *677 0.000312821
*CONN
*I *4046:D I *D sky130_fd_sc_hd__dfrtp_2
*I *4184:X O *D sky130_fd_sc_hd__dlygate4sd3_1
*CAP
1 *4046:D 0.00010102
2 *4184:X 0.00010102
3 *4046:D *896:31 4.77807e-05
4 *657:23 *4046:D 6.29998e-05
*RES
1 *4184:X *4046:D 9.03 
*END

*D_NET *678 0.00233305
*CONN
*I *3985:D I *D sky130_fd_sc_hd__dfrtp_2
*I *3440:B1 I *D sky130_fd_sc_hd__a21oi_2
*I *4185:X O *D sky130_fd_sc_hd__dlygate4sd3_1
*CAP
1 *3985:D 0
2 *3440:B1 0.000417175
3 *4185:X 0.000140954
4 *678:12 0.000558128
5 *3440:B1 *3440:A1 0
6 *3440:B1 *3792:A1 0.000157835
7 *3440:B1 *3792:A2 0.000265892
8 *3440:B1 *878:16 0.000184263
9 *3440:B1 *934:28 0.000201332
10 *678:12 *4139:A 4.66108e-05
11 *678:12 *878:6 6.71882e-05
12 *678:12 *878:16 6.1357e-05
13 *678:12 *880:102 0.000116158
14 *678:12 *894:83 0.000116158
*RES
1 *4185:X *678:12 9.155 
2 *678:12 *3440:B1 11.26 
3 *678:12 *3985:D 1.6 
*END

*D_NET *679 0.00142909
*CONN
*I *4040:D I *D sky130_fd_sc_hd__dfrtp_2
*I *3390:A2 I *D sky130_fd_sc_hd__o21a_2
*I *4186:X O *D sky130_fd_sc_hd__dlygate4sd3_1
*CAP
1 *4040:D 0.000134482
2 *3390:A2 0.000234625
3 *4186:X 0.00011357
4 *679:8 0.000482676
5 *3390:A2 *3846:A2 3.77199e-05
6 *3390:A2 *878:92 0
7 *3390:A2 *892:68 7.66727e-05
8 *4040:D *878:92 0
9 *4040:D *892:68 2.76346e-05
10 *679:8 *4186:A 5.34747e-05
11 *679:8 *934:28 1.03423e-05
12 *3390:B1 *3390:A2 4.82919e-05
13 *3916:D *3390:A2 0.000138544
14 *4040:CLK *4040:D 7.10578e-05
*RES
1 *4186:X *679:8 5.085 
2 *679:8 *3390:A2 8.745 
3 *679:8 *4040:D 5.865 
*END

*D_NET *680 0.00201815
*CONN
*I *3636:A0 I *D sky130_fd_sc_hd__mux2_1
*I *3516:B I *D sky130_fd_sc_hd__nor2_2
*I *4187:X O *D sky130_fd_sc_hd__dlygate4sd3_1
*CAP
1 *3636:A0 0
2 *3516:B 0.00029847
3 *4187:X 3.92873e-05
4 *680:10 0.000337757
5 *3516:B *886:16 0.000409663
6 *3516:B *886:63 0.000268734
7 *3516:B *900:18 0
8 *680:10 *4160:A 0.000113797
9 *3864:D *3516:B 0.000307576
10 *4026:CLK *3516:B 0
11 *610:98 *3516:B 1.07797e-05
12 *660:27 *3516:B 0.000118294
13 *660:104 *680:10 0.000113797
*RES
1 *4187:X *680:10 6.98 
2 *680:10 *3516:B 14.24 
3 *680:10 *3636:A0 1.6 
*END

*D_NET *681 0.000874534
*CONN
*I *3855:D I *D sky130_fd_sc_hd__dfstp_2
*I *4188:X O *D sky130_fd_sc_hd__dlygate4sd3_1
*CAP
1 *3855:D 0.000191861
2 *4188:X 0.000191861
3 *3855:D *3637:A0 0.000115762
4 *3855:D *3637:A1 4.66108e-05
5 *3865:D *3855:D 4.99619e-05
6 *4135:A *3855:D 0.000139238
7 *660:23 *3855:D 0.000139238
*RES
1 *4188:X *3855:D 11.715 
*END

*D_NET *682 0.00263648
*CONN
*I *3684:A1 I *D sky130_fd_sc_hd__a22o_2
*I *3959:D I *D sky130_fd_sc_hd__dfrtp_2
*I *4189:X O *D sky130_fd_sc_hd__dlygate4sd3_1
*CAP
1 *3684:A1 0.000463387
2 *3959:D 5.64999e-05
3 *4189:X 0.000322506
4 *682:8 0.000842394
5 *3684:A1 *3456:A2 0
6 *3684:A1 *3518:A2 0.000409819
7 *3959:D *3456:A2 0
8 *3959:D *3518:A2 7.06865e-05
9 *682:8 *3657:B 5.05521e-05
10 *682:8 *4189:A 4.60584e-05
11 *3684:A2 *3684:A1 1.2818e-05
12 *3685:A1 *3684:A1 0.000243076
13 *3894:RESET_B *682:8 9.70252e-06
14 *3895:CLK *3684:A1 0
15 *3961:CLK *3684:A1 4.82919e-05
16 *3973:D *682:8 2.79977e-05
17 *560:10 *3684:A1 3.26889e-05
*RES
1 *4189:X *682:8 7.5 
2 *682:8 *3959:D 4.62375 
3 *682:8 *3684:A1 13.59 
*END

*D_NET *683 0.00179363
*CONN
*I *3392:A2 I *D sky130_fd_sc_hd__o21a_2
*I *4043:D I *D sky130_fd_sc_hd__dfrtp_2
*I *4190:X O *D sky130_fd_sc_hd__dlygate4sd3_1
*CAP
1 *3392:A2 0.000260105
2 *4043:D 0.000197998
3 *4190:X 6.49051e-05
4 *683:6 0.000523008
5 *3392:A2 *4169:A 4.82919e-05
6 *3392:A2 *4190:A 4.47125e-05
7 *3392:A2 *911:141 8.8266e-05
8 *4043:D *4169:A 0.000164686
9 *4043:D *911:10 0
10 *4043:D *1030:8 9.54399e-05
11 *683:6 *4190:A 2.8185e-05
12 *628:12 *4043:D 0
13 *659:47 *4043:D 0.000105068
14 *659:58 *4043:D 9.9535e-05
15 *659:75 *4043:D 7.34286e-05
*RES
1 *4190:X *683:6 2.395 
2 *683:6 *4043:D 11.315 
3 *683:6 *3392:A2 5.875 
*END

*D_NET *684 0.00354405
*CONN
*I *3415:B1 I *D sky130_fd_sc_hd__o21ai_2
*I *3414:B I *D sky130_fd_sc_hd__or3_2
*I *4339:X O *D sky130_fd_sc_hd__clkdlybuf4s25_1
*CAP
1 *3415:B1 0.00025002
2 *3414:B 0.000903003
3 *4339:X 0
4 *684:6 0.00115302
5 *3415:B1 *762:10 5.20968e-05
6 *3406:B1 *3414:B 8.22234e-06
7 *3414:C *3414:B 0.000914194
8 *3415:A2 *3414:B 0
9 *3415:A2 *3415:B1 0
10 *3416:B *3415:B1 7.2285e-05
11 *3419:B *3415:B1 2.75229e-05
12 *4338:A *3414:B 1.7386e-05
13 *4339:A *3414:B 0
14 *4339:A *3415:B1 0
15 *4347:A *3415:B1 0
16 *414:36 *3414:B 0
17 *416:24 *3414:B 0.000119831
18 *416:30 *3415:B1 2.26468e-05
19 *642:6 *3414:B 3.81908e-06
*RES
1 *4339:X *684:6 3.6 
2 *684:6 *3414:B 16.275 
3 *684:6 *3415:B1 8.49 
*END

*D_NET *685 0.00325983
*CONN
*I *3355:A I *D sky130_fd_sc_hd__inv_2
*I *3637:A0 I *D sky130_fd_sc_hd__mux2_1
*I *4191:X O *D sky130_fd_sc_hd__dlygate4sd3_1
*CAP
1 *3355:A 0.000135911
2 *3637:A0 0.000573037
3 *4191:X 0.000109696
4 *685:10 0.000818644
5 *3355:A *3495:A_N 8.40269e-05
6 *3355:A *3833:A1 1.90686e-05
7 *3355:A *886:16 0.000399899
8 *3355:A *886:18 3.00381e-05
9 *3355:A *900:18 2.59835e-05
10 *3355:A *900:20 8.8266e-05
11 *3637:A0 *3495:B 0.000160651
12 *3637:A0 *1068:19 2.15594e-05
13 *3637:A0 *1069:12 0.000183738
14 *685:10 *3516:A 0
15 *685:10 *1068:19 5.57814e-05
16 *3855:CLK *3637:A0 0
17 *3855:D *3637:A0 0.000115762
18 *3855:SET_B *3637:A0 0
19 *4188:A *3637:A0 0
20 *610:81 *685:10 1.83756e-05
21 *660:27 *3355:A 0.000419392
*RES
1 *4191:X *685:10 5.43 
2 *685:10 *3637:A0 14.025 
3 *685:10 *3355:A 9.705 
*END

*D_NET *686 0.00415307
*CONN
*I *3625:C I *D sky130_fd_sc_hd__nor3_2
*I *3433:B1 I *D sky130_fd_sc_hd__a22o_2
*I *3430:B1 I *D sky130_fd_sc_hd__a22o_2
*I *4192:X O *D sky130_fd_sc_hd__dlygate4sd3_1
*CAP
1 *3625:C 0.000213281
2 *3433:B1 0.00058488
3 *3430:B1 0.000245799
4 *4192:X 0
5 *686:10 0.00113126
6 *686:4 0.000513867
7 *3430:B1 *880:38 0
8 *3430:B1 *911:62 9.50342e-06
9 *3430:B1 *1067:28 9.36526e-05
10 *3433:B1 *3520:B 0.000187037
11 *3433:B1 *4222:A 7.67345e-05
12 *3433:B1 *1067:28 9.01848e-05
13 *3625:C *3526:A1 0.000222119
14 *3625:C *3625:A 0
15 *3625:C *894:72 0.000120655
16 *3625:C *1093:46 0
17 *686:10 *3361:B 0
18 *686:10 *3526:A1 3.86529e-05
19 *686:10 *911:62 0
20 *686:10 *993:14 0
21 *686:10 *1093:46 0
22 *3430:B2 *3430:B1 2.46089e-05
23 *3430:B2 *686:10 2.46089e-05
24 *3934:D *686:10 0.000116158
25 *645:10 *686:10 0.000386038
26 *645:42 *686:10 7.4027e-05
*RES
1 *4192:X *686:4 1.6 
2 *686:4 *686:10 10.99 
3 *686:10 *3430:B1 8.9 
4 *686:10 *3433:B1 9.31 
5 *686:4 *3625:C 9.395 
*END

*D_NET *687 0.00150688
*CONN
*I *4016:D I *D sky130_fd_sc_hd__dfstp_2
*I *4193:X O *D sky130_fd_sc_hd__dlygate4sd3_1
*CAP
1 *4016:D 0.000524005
2 *4193:X 0.000524005
3 *4016:D *3396:A 3.83194e-05
4 *4016:D *880:59 1.44259e-05
5 *4016:D *894:51 0
6 *3664:A0 *4016:D 5.83121e-06
7 *3782:B1 *4016:D 0.00015829
8 *3934:RESET_B *4016:D 0.000116853
9 *4122:A *4016:D 8.40269e-05
10 *4236:A *4016:D 4.11281e-05
11 *645:42 *4016:D 0
*RES
1 *4193:X *4016:D 16.245 
*END

*D_NET *688 0.000846839
*CONN
*I *3424:A2 I *D sky130_fd_sc_hd__a32o_2
*I *3517:A I *D sky130_fd_sc_hd__nor2_2
*I *4194:X O *D sky130_fd_sc_hd__dlygate4sd3_1
*CAP
1 *3424:A2 1.76446e-05
2 *3517:A 0.000100374
3 *4194:X 5.10499e-05
4 *688:12 0.000169069
5 *3424:A2 *3424:B1 8.65905e-05
6 *3424:A2 *3517:B 4.21973e-05
7 *3517:A *3424:B1 1.99848e-05
8 *3517:A *3517:B 0.000163749
9 *3517:A *911:24 5.01192e-05
10 *688:12 *3423:A 5.13155e-05
11 *688:12 *3424:B1 0
12 *688:12 *3517:B 0
13 *688:12 *889:16 9.47454e-05
*RES
1 *4194:X *688:12 7.085 
2 *688:12 *3517:A 4.135 
3 *688:12 *3424:A2 2.395 
*END

*D_NET *689 0.00308745
*CONN
*I *4038:D I *D sky130_fd_sc_hd__dfstp_2
*I *4195:X O *D sky130_fd_sc_hd__dlygate4sd3_1
*CAP
1 *4038:D 0.000812677
2 *4195:X 0.000812677
3 *4038:D *3440:A1 0.000495107
4 *4038:D *4151:A 0.000257199
5 *4038:D *4217:A 4.82919e-05
6 *4038:D *878:53 1.46744e-05
7 *4038:D *892:58 0.000122331
8 *4038:D *993:46 9.54399e-05
9 *4038:D *1030:28 0.000148084
10 *4038:D *1035:12 7.99009e-05
11 *91:10 *4038:D 0.000120655
12 *354:24 *4038:D 8.041e-05
13 *360:33 *4038:D 0
*RES
1 *4195:X *4038:D 24.03 
*END

*D_NET *690 0.000870345
*CONN
*I *3968:D I *D sky130_fd_sc_hd__dfrtp_2
*I *4196:X O *D sky130_fd_sc_hd__dlygate4sd3_1
*CAP
1 *3968:D 0.000120187
2 *4196:X 0.000120187
3 *3968:D *3634:A 0.000141323
4 *3968:D *4389:A 0.000385327
5 *3635:C *3968:D 2.97473e-05
6 *613:35 *3968:D 7.35729e-05
*RES
1 *4196:X *3968:D 7.445 
*END

*D_NET *691 0.00594216
*CONN
*I *3744:B1 I *D sky130_fd_sc_hd__a21o_2
*I *3462:B1 I *D sky130_fd_sc_hd__a22o_2
*I *3978:D I *D sky130_fd_sc_hd__dfrtp_2
*I *4197:X O *D sky130_fd_sc_hd__dlygate4sd3_1
*CAP
1 *3744:B1 0.000611385
2 *3462:B1 0.000556854
3 *3978:D 0.000505734
4 *4197:X 0.000891624
5 *691:10 0.00134283
6 *3462:B1 *3462:B2 5.05437e-05
7 *3744:B1 *3892:D 0
8 *3744:B1 *4197:A 0
9 *3744:B1 *949:25 0
10 *3744:B1 *1008:10 0
11 *3978:D *3330:A 0.000156791
12 *3978:D *3460:A_N 0
13 *3978:D *4297:A 0
14 *3978:D *949:25 3.77566e-05
15 *3978:D *949:38 0.000100216
16 *3978:D *981:65 0.000526162
17 *3978:D *981:76 0.000201739
18 *691:10 *3460:A_N 0
19 *691:10 *949:25 7.24779e-05
20 *3457:A1 *3978:D 1.7635e-05
21 *3892:RESET_B *3744:B1 0
22 *3946:CLK *3462:B1 9.01757e-05
23 *3946:D *3462:B1 0.000239813
24 *3970:RESET_B *3978:D 4.11198e-05
25 *603:13 *3744:B1 0.000137752
26 *603:27 *3744:B1 4.59845e-05
27 *615:10 *3978:D 9.81229e-05
28 *615:14 *3978:D 9.30595e-05
29 *615:84 *3978:D 0.000101951
30 *649:46 *3978:D 2.24336e-05
*RES
1 *4197:X *691:10 7.575 
2 *691:10 *3978:D 17.475 
3 *691:10 *3462:B1 10.62 
4 *4197:X *3744:B1 17.13 
*END

*D_NET *692 0.002183
*CONN
*I *3426:A1 I *D sky130_fd_sc_hd__a211oi_2
*I *3424:B2 I *D sky130_fd_sc_hd__a32o_2
*I *4198:X O *D sky130_fd_sc_hd__dlygate4sd3_1
*CAP
1 *3426:A1 2.08101e-05
2 *3424:B2 0.000529306
3 *4198:X 0.000139216
4 *692:6 0.000689332
5 *3424:B2 *3397:B 0
6 *3424:B2 *3423:A 0
7 *3424:B2 *3426:A2 4.82863e-05
8 *3424:B2 *4328:A 8.23457e-05
9 *3424:B2 *889:16 0.000100544
10 *3424:B2 *911:24 0.000336837
11 *692:6 *4198:A 2.32688e-05
12 *3426:B1 *692:6 4.66826e-05
13 *4199:A *692:6 8.40213e-05
14 *611:132 *692:6 8.23457e-05
*RES
1 *4198:X *692:6 4.12 
2 *692:6 *3424:B2 14.81 
3 *692:6 *3426:A1 1.96 
*END

*D_NET *693 0.000272929
*CONN
*I *3928:D I *D sky130_fd_sc_hd__dfstp_2
*I *4199:X O *D sky130_fd_sc_hd__dlygate4sd3_1
*CAP
1 *3928:D 0.000136464
2 *4199:X 0.000136464
*RES
1 *4199:X *3928:D 5.03 
*END

*D_NET *694 0.00247516
*CONN
*I *3674:A1 I *D sky130_fd_sc_hd__mux2_1
*I *4200:X O *D sky130_fd_sc_hd__dlygate4sd3_1
*CAP
1 *3674:A1 0.000547837
2 *4200:X 0.000547837
3 *3674:A1 *3647:A0 7.23602e-05
4 *3674:A1 *3669:A 8.23457e-05
5 *3674:A1 *3672:A1 0.000128998
6 *3674:A1 *3673:A 1.82759e-05
7 *3674:A1 *4310:A 0
8 o_receive_data[5] *3674:A1 0.000625553
9 *3674:S *3674:A1 9.37731e-05
10 *3885:CLK *3674:A1 0.000185405
11 *3886:D *3674:A1 7.23602e-05
12 *359:61 *3674:A1 4.40446e-05
13 *359:67 *3674:A1 0
14 *624:46 *3674:A1 5.63701e-05
*RES
1 *4200:X *3674:A1 19.545 
*END

*D_NET *695 0.00269515
*CONN
*I *3970:D I *D sky130_fd_sc_hd__dfrtp_2
*I *4340:X O *D sky130_fd_sc_hd__clkdlybuf4s25_1
*CAP
1 *3970:D 0.000935103
2 *4340:X 0.000935103
3 *3970:D *3651:B 5.21953e-05
4 *3970:D *3653:B 3.64998e-06
5 *3970:D *4068:A 0
6 *3970:D *4177:A 1.73877e-05
7 *3970:D *4297:A 0.000145026
8 *3970:D *990:10 0.000511576
9 *3970:CLK *3970:D 9.51101e-05
10 *646:18 *3970:D 0
11 *649:10 *3970:D 0
12 *649:36 *3970:D 0
13 *649:46 *3970:D 0
*RES
1 *4340:X *3970:D 22.38 
*END

*D_NET *696 0.00153076
*CONN
*I *3362:A0 I *D sky130_fd_sc_hd__mux2_1
*I *3686:B1 I *D sky130_fd_sc_hd__a21o_2
*I *4201:X O *D sky130_fd_sc_hd__dlygate4sd3_1
*CAP
1 *3362:A0 0
2 *3686:B1 0.000292238
3 *4201:X 0.000199891
4 *696:6 0.000492129
5 *3686:B1 *3329:A 3.6889e-05
6 *3686:B1 *3679:B1 0.00020183
7 *3686:B1 *4164:A 5.30242e-05
8 *3686:B1 *880:12 0
9 *3686:B1 *894:12 3.47837e-05
10 *3686:A1 *3686:B1 3.96153e-05
11 *3927:RESET_B *3686:B1 9.54399e-05
12 *3998:RESET_B *3686:B1 0
13 *4019:D *696:6 8.49205e-05
*RES
1 *4201:X *696:6 4.465 
2 *696:6 *3686:B1 12.11 
3 *696:6 *3362:A0 1.6 
*END

*D_NET *697 0.000708076
*CONN
*I *3896:D I *D sky130_fd_sc_hd__dfrtp_2
*I *4202:X O *D sky130_fd_sc_hd__dlygate4sd3_1
*CAP
1 *3896:D 0.000266345
2 *4202:X 0.000266345
3 *3896:D *3468:B2 0
4 *3896:D *4141:A 0
5 *3896:RESET_B *3896:D 5.05276e-05
6 *603:13 *3896:D 0.000124858
*RES
1 *4202:X *3896:D 11.4 
*END

*D_NET *698 0.00251835
*CONN
*I *3672:A1 I *D sky130_fd_sc_hd__mux2_1
*I *4203:X O *D sky130_fd_sc_hd__dlygate4sd3_1
*CAP
1 *3672:A1 0.000410578
2 *4203:X 0.000410578
3 *3672:A1 *3666:A1 4.92014e-05
4 *3666:A0 *3672:A1 4.66108e-05
5 *3670:S *3672:A1 0.000160635
6 *3672:S *3672:A1 0.000122331
7 *3674:A1 *3672:A1 0.000128998
8 *3885:CLK *3672:A1 0.000185405
9 *3885:D *3672:A1 0.000121876
10 *3886:D *3672:A1 0.000241286
11 *3887:D *3672:A1 0.000404775
12 *3888:D *3672:A1 9.37731e-05
13 *359:67 *3672:A1 1.52184e-05
14 *359:87 *3672:A1 4.21973e-05
15 *623:77 *3672:A1 1.14559e-05
16 *624:59 *3672:A1 2.68721e-05
17 *624:83 *3672:A1 4.65643e-05
*RES
1 *4203:X *3672:A1 20.775 
*END

*D_NET *699 0.0009758
*CONN
*I *3676:A1 I *D sky130_fd_sc_hd__mux2_1
*I *4204:X O *D sky130_fd_sc_hd__dlygate4sd3_1
*CAP
1 *3676:A1 0.000378068
2 *4204:X 0.000378068
3 *3676:A1 *870:8 8.52901e-05
4 *359:61 *3676:A1 0.000134373
*RES
1 *4204:X *3676:A1 12.855 
*END

*D_NET *700 0.00137305
*CONN
*I *3670:A1 I *D sky130_fd_sc_hd__mux2_1
*I *4205:X O *D sky130_fd_sc_hd__dlygate4sd3_1
*CAP
1 *3670:A1 0.00031807
2 *4205:X 0.00031807
3 *3670:A1 *3666:A1 6.47594e-05
4 *3670:A1 *4207:A 0.000123225
5 *3670:A1 *4392:A 0
6 o_receive_data[3] *3670:A1 0.000234674
7 *3670:S *3670:A1 0.000124895
8 *3989:D *3670:A1 0
9 *624:83 *3670:A1 7.25036e-05
10 *624:91 *3670:A1 0.000116853
*RES
1 *4205:X *3670:A1 13.935 
*END

*D_NET *701 0.00197564
*CONN
*I *3666:A1 I *D sky130_fd_sc_hd__mux2_1
*I *4206:X O *D sky130_fd_sc_hd__dlygate4sd3_1
*CAP
1 *3666:A1 0.000616616
2 *4206:X 0.000616616
3 *3666:A1 *4392:A 3.68769e-05
4 *3666:A1 *866:10 6.23375e-05
5 *3666:A1 *868:18 0
6 *3670:A1 *3666:A1 6.47594e-05
7 *3672:A1 *3666:A1 4.92014e-05
8 *3885:D *3666:A1 0.000295989
9 *3887:D *3666:A1 0.000181145
10 *623:77 *3666:A1 5.20968e-05
11 *624:83 *3666:A1 0
*RES
1 *4206:X *3666:A1 20.1 
*END

*D_NET *702 0.000776255
*CONN
*I *3668:A1 I *D sky130_fd_sc_hd__mux2_1
*I *4207:X O *D sky130_fd_sc_hd__dlygate4sd3_1
*CAP
1 *3668:A1 0.000268407
2 *4207:X 0.000268407
3 *3668:A1 *3669:B 6.60261e-06
4 *3668:A1 *4395:A 0.000110226
5 *3668:A1 *869:10 4.40812e-05
6 *3670:A0 *3668:A1 7.85319e-05
*RES
1 *4207:X *3668:A1 12.6 
*END

*D_NET *703 0.0012333
*CONN
*I *3664:A1 I *D sky130_fd_sc_hd__mux2_1
*I *4208:X O *D sky130_fd_sc_hd__dlygate4sd3_1
*CAP
1 *3664:A1 0.000265006
2 *4208:X 0.000265006
3 *3664:A1 *3745:A0 0.00012657
4 *3664:A1 *3745:A1 4.60584e-05
5 *3664:A1 *907:26 1.34361e-05
6 *3664:S *3664:A1 0.000517225
7 *3884:D *3664:A1 0
8 *4049:RESET_B *3664:A1 0
*RES
1 *4208:X *3664:A1 14.055 
*END

*D_NET *704 0.00021076
*CONN
*I *3522:A I *D sky130_fd_sc_hd__and2_2
*I *4209:X O *D sky130_fd_sc_hd__dlygate4sd3_1
*CAP
1 *3522:A 3.89098e-05
2 *4209:X 3.89098e-05
3 *3522:A *883:38 6.55328e-05
4 *4020:CLK *3522:A 6.74079e-05
*RES
1 *4209:X *3522:A 8.58 
*END

*D_NET *705 0.00117545
*CONN
*I *3678:A1 I *D sky130_fd_sc_hd__mux2_1
*I *4210:X O *D sky130_fd_sc_hd__dlygate4sd3_1
*CAP
1 *3678:A1 0.000280851
2 *4210:X 0.000280851
3 *3678:A1 *3712:B 0.000431139
4 *3678:A1 *4397:A 1.33293e-05
5 *3678:A1 *871:10 0
6 *3717:B1 *3678:A1 3.00381e-05
7 *3905:D *3678:A1 0.000139238
*RES
1 *4210:X *3678:A1 13.395 
*END

*D_NET *706 0.00479711
*CONN
*I *3969:D I *D sky130_fd_sc_hd__dfrtp_2
*I *3634:B I *D sky130_fd_sc_hd__or3b_2
*I *4341:X O *D sky130_fd_sc_hd__clkdlybuf4s25_1
*CAP
1 *3969:D 0.000336411
2 *3634:B 0.000807984
3 *4341:X 0.000181612
4 *706:12 0.00132601
5 *3634:B *4123:A 0
6 *3634:B *4383:A 8.93911e-05
7 *3634:B *910:20 0.000925686
8 *3634:B *1012:14 1.03755e-05
9 *706:12 *1012:14 0.000425373
10 *3635:C *3634:B 0.000315527
11 *3863:RESET_B *3634:B 0
12 *3876:D *706:12 9.18057e-05
13 *613:10 *706:12 3.60738e-06
14 *613:16 *706:12 9.18546e-05
15 *613:22 *3634:B 1.79483e-05
16 *613:22 *706:12 0.00017353
*RES
1 *4341:X *706:12 9.87 
2 *706:12 *3634:B 10.3864 
3 *706:12 *3969:D 8.19 
*END

*D_NET *707 0.00201642
*CONN
*I *3450:A1 I *D sky130_fd_sc_hd__a21o_2
*I *3444:A I *D sky130_fd_sc_hd__and2_2
*I *4211:X O *D sky130_fd_sc_hd__dlygate4sd3_1
*CAP
1 *3450:A1 0.000101026
2 *3444:A 0.000316009
3 *4211:X 0.000125406
4 *707:10 0.000542442
5 *3444:A *3444:B 5.41685e-05
6 *3444:A *4254:A 3.70572e-05
7 *3444:A *755:12 4.82919e-05
8 *3450:A1 *936:41 2.42236e-05
9 *707:10 *936:41 0.000181283
10 *3450:A2 *3450:A1 2.75145e-05
11 *3450:B1 *3450:A1 2.97004e-06
12 *3955:CLK *3450:A1 0.000114492
13 *73:6 *707:10 4.82863e-05
14 *114:10 *3450:A1 5.64143e-05
15 *114:10 *707:10 0.000112299
16 *617:26 *3444:A 6.52265e-05
17 *617:32 *3444:A 0.000159305
*RES
1 *4211:X *707:10 7.215 
2 *707:10 *3444:A 9.24 
3 *707:10 *3450:A1 5.94 
*END

*D_NET *708 0.00235714
*CONN
*I *3432:A1 I *D sky130_fd_sc_hd__a21o_2
*I *3427:A1 I *D sky130_fd_sc_hd__a22o_2
*I *4212:X O *D sky130_fd_sc_hd__dlygate4sd3_1
*CAP
1 *3432:A1 0
2 *3427:A1 0.000417545
3 *4212:X 0.000193428
4 *708:10 0.000610973
5 *3427:A1 *3427:B2 0
6 *3427:A1 *4315:A 3.23663e-05
7 *3427:A1 *883:36 2.0248e-05
8 *3427:B1 *3427:A1 0.000160641
9 *3431:A *708:10 2.42236e-05
10 *3432:A2 *3427:A1 0.00016163
11 *3432:A2 *708:10 9.50342e-06
12 *3521:B *708:10 0.000117297
13 *3932:D *708:10 0
14 *3975:D *3427:A1 0.000316118
15 *3975:D *708:10 0.000281174
16 *611:8 *708:10 1.19928e-05
*RES
1 *4212:X *708:10 7.815 
2 *708:10 *3427:A1 11.19 
3 *708:10 *3432:A1 3.6 
*END

*D_NET *709 0.00138144
*CONN
*I *3437:B1 I *D sky130_fd_sc_hd__a22o_2
*I *3436:B1 I *D sky130_fd_sc_hd__a22o_2
*I *4213:X O *D sky130_fd_sc_hd__dlygate4sd3_1
*CAP
1 *3437:B1 2.54989e-05
2 *3436:B1 0.000353378
3 *4213:X 9.7363e-05
4 *709:10 0.00047624
5 *3436:B1 *3436:A2 1.94805e-05
6 *3436:B1 *3437:B2 0
7 *3436:B1 *3438:A2 0
8 *3436:B1 *1030:16 4.24292e-06
9 *3436:B1 *1030:18 0.000167481
10 *3437:B1 *3437:A2 4.82919e-05
11 *709:10 *3438:A2 0
12 *709:10 *1030:28 5.02217e-05
13 *4253:A *3436:B1 0.000139245
*RES
1 *4213:X *709:10 5.175 
2 *709:10 *3436:B1 10.785 
3 *709:10 *3437:B1 4.05 
*END

*D_NET *710 0.000429161
*CONN
*I *3939:D I *D sky130_fd_sc_hd__dfrtp_2
*I *4214:X O *D sky130_fd_sc_hd__dlygate4sd3_1
*CAP
1 *3939:D 0.000158539
2 *4214:X 0.000158539
3 *3939:D *3788:A1 3.86607e-05
4 *3939:D *879:25 2.68721e-05
5 *3788:B1 *3939:D 4.65515e-05
6 *3940:RESET_B *3939:D 0
*RES
1 *4214:X *3939:D 9.72 
*END

*D_NET *711 0.000778171
*CONN
*I *3427:B2 I *D sky130_fd_sc_hd__a22o_2
*I *3400:A I *D sky130_fd_sc_hd__and2_2
*I *4215:X O *D sky130_fd_sc_hd__dlygate4sd3_1
*CAP
1 *3427:B2 0.000121454
2 *3400:A 5.69675e-05
3 *4215:X 1.69128e-05
4 *711:6 0.000195335
5 *3400:A *3399:A 8.8266e-05
6 *3427:B2 *3335:A 0
7 *3427:B2 *1070:10 0
8 *3427:A1 *3427:B2 0
9 *3427:B1 *3427:B2 4.94404e-05
10 *3432:A2 *3400:A 0.000201503
11 *3432:A2 *711:6 4.82919e-05
12 *3975:D *3427:B2 0
13 *4216:A *3427:B2 0
*RES
1 *4215:X *711:6 2.05 
2 *711:6 *3400:A 3.43 
3 *711:6 *3427:B2 7.745 
*END

*D_NET *712 0.000332483
*CONN
*I *3937:D I *D sky130_fd_sc_hd__dfrtp_2
*I *4216:X O *D sky130_fd_sc_hd__dlygate4sd3_1
*CAP
1 *3937:D 0.000101193
2 *4216:X 0.000101193
3 *3937:D *3780:A2 0
4 *3937:D *4212:A 7.4027e-05
5 *3937:CLK *3937:D 5.60711e-05
*RES
1 *4216:X *3937:D 8.91 
*END

*D_NET *713 0.00244667
*CONN
*I *3442:A2 I *D sky130_fd_sc_hd__o21a_2
*I *3440:A2 I *D sky130_fd_sc_hd__a21oi_2
*I *4217:X O *D sky130_fd_sc_hd__dlygate4sd3_1
*CAP
1 *3442:A2 0.000223099
2 *3440:A2 0.000417585
3 *4217:X 0
4 *713:6 0.000640684
5 *3440:A2 *892:23 1.88656e-05
6 *3440:A2 *934:28 2.50188e-05
7 *3442:A2 *3442:A1 8.42239e-05
8 *3442:A2 *3526:A1 0
9 *3442:A2 *3790:A2 4.31106e-05
10 *3442:A2 *892:23 0.000111376
11 *3442:A2 *892:46 6.28498e-05
12 *3441:B *3440:A2 3.51596e-05
13 *3790:B1 *3440:A2 0.00019407
14 *3942:D *3440:A2 6.16226e-06
15 *3942:D *3442:A2 0.000125082
16 *3944:D *3440:A2 0.00015997
17 *91:10 *3440:A2 0.000115679
18 *360:33 *3440:A2 0
19 *627:55 *3440:A2 0.000183738
*RES
1 *4217:X *713:6 3.6 
2 *713:6 *3440:A2 9.3099 
3 *713:6 *3442:A2 8.49 
*END

*D_NET *714 0.00125319
*CONN
*I *3660:A0 I *D sky130_fd_sc_hd__mux2_1
*I *4218:X O *D sky130_fd_sc_hd__dlygate4sd3_1
*CAP
1 *3660:A0 0.000401098
2 *4218:X 0.000401098
3 *3660:A0 *3659:A1 8.75256e-05
4 *3660:A0 *910:60 0.000363467
*RES
1 *4218:X *3660:A0 8.48 
*END

*D_NET *715 0.00162165
*CONN
*I *3388:A1 I *D sky130_fd_sc_hd__a21oi_2
*I *4219:X O *D sky130_fd_sc_hd__dlygate4sd3_1
*CAP
1 *3388:A1 0.00023912
2 *4219:X 0.00023912
3 *3388:A1 *3766:A1 0.000158965
4 *3388:A1 *3766:A2 8.57024e-05
5 *3767:B1 *3388:A1 0.00021951
6 *3918:RESET_B *3388:A1 3.00381e-05
7 *4220:A *3388:A1 4.92935e-05
8 *606:45 *3388:A1 0.000599902
*RES
1 *4219:X *3388:A1 11.705 
*END

*D_NET *716 0.000668581
*CONN
*I *3917:D I *D sky130_fd_sc_hd__dfrtp_2
*I *4220:X O *D sky130_fd_sc_hd__dlygate4sd3_1
*CAP
1 *3917:D 0.000174934
2 *4220:X 0.000174934
3 *3917:D *877:14 9.30717e-05
4 *3917:D *1041:10 2.67022e-05
5 *606:45 *3917:D 0.000198939
*RES
1 *4220:X *3917:D 10.155 
*END

*D_NET *717 0.00130228
*CONN
*I *3660:A1 I *D sky130_fd_sc_hd__mux2_1
*I *4342:X O *D sky130_fd_sc_hd__clkdlybuf4s25_1
*CAP
1 *3660:A1 0.000289136
2 *4342:X 0.000289136
3 *3660:A1 *3394:A2 0.000108257
4 *3660:A1 *3394:B2 0.000109931
5 *3660:A1 *4168:A 0
6 *3660:A1 *4384:A 9.46725e-05
7 *3660:A1 *910:60 1.91597e-05
8 *3660:A1 *1018:23 0.000271798
9 *3882:D *3660:A1 0.000120186
*RES
1 *4342:X *3660:A1 13.455 
*END

*D_NET *718 0.00143905
*CONN
*I *3659:A0 I *D sky130_fd_sc_hd__mux2_1
*I *4221:X O *D sky130_fd_sc_hd__dlygate4sd3_1
*CAP
1 *3659:A0 0.000294218
2 *4221:X 0.000294218
3 *3659:A0 *4168:A 0.000126754
4 *3659:A0 *4387:A 0.000162311
5 o_cmd_status_reg[3] *3659:A0 0.000295068
6 *3881:D *3659:A0 0.000266477
*RES
1 *4221:X *3659:A0 14.655 
*END

*D_NET *719 0.00102646
*CONN
*I *3362:S I *D sky130_fd_sc_hd__mux2_1
*I *4222:X O *D sky130_fd_sc_hd__dlygate4sd3_1
*CAP
1 *3362:S 0.000159782
2 *4222:X 0.000159782
3 *3362:S *993:14 0.000474327
4 *3362:S *1067:28 7.1001e-05
5 *120:12 *3362:S 0.000161566
*RES
1 *4222:X *3362:S 12.66 
*END

*D_NET *720 0.000691923
*CONN
*I *3704:A1 I *D sky130_fd_sc_hd__o22a_2
*I *4223:X O *D sky130_fd_sc_hd__dlygate4sd3_1
*CAP
1 *3704:A1 0.000204256
2 *4223:X 0.000204256
3 *3704:A1 *3621:A2 1.38283e-05
4 *3704:A1 *951:10 2.69443e-06
5 *3704:A2 *3704:A1 6.90254e-05
6 *435:12 *3704:A1 0.000197862
*RES
1 *4223:X *3704:A1 10.41 
*END

*D_NET *721 0.000110169
*CONN
*I *3702:A1 I *D sky130_fd_sc_hd__o22a_2
*I *4224:X O *D sky130_fd_sc_hd__dlygate4sd3_1
*CAP
1 *3702:A1 6.14499e-06
2 *4224:X 6.14499e-06
3 *3484:A2 *3702:A1 4.89395e-05
4 *3702:B2 *3702:A1 4.89395e-05
*RES
1 *4224:X *3702:A1 3.65 
*END

*D_NET *722 0.000475396
*CONN
*I *3700:A1 I *D sky130_fd_sc_hd__o22a_2
*I *4225:X O *D sky130_fd_sc_hd__dlygate4sd3_1
*CAP
1 *3700:A1 7.52385e-05
2 *4225:X 7.52385e-05
3 *3700:A1 *3622:A2 0.000112087
4 *3700:A1 *954:10 3.64998e-06
5 *3899:CLK *3700:A1 0.0001592
6 *435:14 *3700:A1 2.49909e-05
7 *435:22 *3700:A1 2.49909e-05
*RES
1 *4225:X *3700:A1 9.375 
*END

*D_NET *723 0.00222073
*CONN
*I *3398:A I *D sky130_fd_sc_hd__nor2_2
*I *3390:A1 I *D sky130_fd_sc_hd__o21a_2
*I *4226:X O *D sky130_fd_sc_hd__dlygate4sd3_1
*CAP
1 *3398:A 0.000171205
2 *3390:A1 0.00022192
3 *4226:X 0.000163773
4 *723:10 0.000556898
5 *3390:A1 *3846:A1 2.03578e-05
6 *3390:A1 *3849:A1 3.96653e-05
7 *3390:A1 *878:92 6.57653e-06
8 *3398:A *3396:B 0
9 *3398:A *3434:A 0.000409981
10 *3398:A *3661:A1 9.50342e-06
11 *3398:A *3846:A1 0
12 *723:10 *3324:A 1.56428e-05
13 *723:10 *3389:A1 7.5416e-05
14 *723:10 *3434:A 2.25106e-05
15 *723:10 *4226:A 8.40213e-05
16 *723:10 *878:92 0
17 *723:10 *1034:6 3.03775e-05
18 *3390:B1 *3390:A1 0.000164874
19 *3916:RESET_B *723:10 3.24046e-05
20 *4038:SET_B *3390:A1 3.09233e-05
21 *4038:SET_B *3398:A 0.000164679
22 *359:8 *3398:A 0
*RES
1 *4226:X *723:10 6.9375 
2 *723:10 *3390:A1 8.0025 
3 *723:10 *3398:A 8.8725 
*END

*D_NET *724 0.00029978
*CONN
*I *3389:B1 I *D sky130_fd_sc_hd__a21o_2
*I *4227:X O *D sky130_fd_sc_hd__dlygate4sd3_1
*CAP
1 *3389:B1 3.24884e-05
2 *4227:X 3.24884e-05
3 *3389:B1 *3434:A 0.000117402
4 *3389:B1 *4138:A 0.000117402
*RES
1 *4227:X *3389:B1 8.58 
*END

*D_NET *725 0.00223283
*CONN
*I *3748:A0 I *D sky130_fd_sc_hd__mux2_1
*I *3402:B I *D sky130_fd_sc_hd__and2_2
*I *4228:X O *D sky130_fd_sc_hd__dlygate4sd3_1
*CAP
1 *3748:A0 4.5293e-05
2 *3402:B 0.000456706
3 *4228:X 0.000501999
4 *3402:B *3661:B1_N 0
5 *3402:B *907:32 0
6 *3402:B *907:40 8.53113e-06
7 *3402:B *939:16 0
8 *3748:A0 *3748:A1 4.99619e-05
9 *3748:A0 *939:16 0.000134314
10 *3662:B1 *3402:B 5.93588e-05
11 *3883:D *3402:B 0.000293712
12 *3905:RESET_B *3402:B 0
13 *3982:SET_B *3402:B 4.94326e-05
14 *4016:CLK *3402:B 0.000198939
15 *4016:CLK *3748:A0 0.000277223
16 *643:58 *3402:B 0.000110333
17 *643:67 *3402:B 4.70256e-05
*RES
1 *4228:X *3402:B 16.785 
2 *4228:X *3748:A0 5.72 
*END

*D_NET *726 0.00044944
*CONN
*I *4052:D I *D sky130_fd_sc_hd__dfrtp_2
*I *4229:X O *D sky130_fd_sc_hd__dlygate4sd3_1
*CAP
1 *4052:D 9.06686e-05
2 *4229:X 9.06686e-05
3 *4052:CLK *4052:D 2.75145e-05
4 *4229:A *4052:D 0.000116853
5 *11:10 *4052:D 7.37738e-05
6 *354:24 *4052:D 4.99619e-05
*RES
1 *4229:X *4052:D 9.48 
*END

*D_NET *727 0.00130659
*CONN
*I *3698:A1 I *D sky130_fd_sc_hd__o22a_2
*I *4230:X O *D sky130_fd_sc_hd__dlygate4sd3_1
*CAP
1 *3698:A1 0.00039871
2 *4230:X 0.00039871
3 *3698:A1 *3622:B1 0
4 *3698:A1 *3758:A0 6.60042e-05
5 *3698:A1 *3758:S 0.000161796
6 *3698:A1 *4057:RESET_B 5.72004e-05
7 *3698:A1 *4224:A 3.05295e-05
8 *3698:A2 *3698:A1 0.000120692
9 *3698:B2 *3698:A1 7.29448e-05
*RES
1 *4230:X *3698:A1 14.82 
*END

*D_NET *728 0.00541163
*CONN
*I *3659:A1 I *D sky130_fd_sc_hd__mux2_1
*I *4343:X O *D sky130_fd_sc_hd__clkdlybuf4s25_1
*CAP
1 *3659:A1 0.00164306
2 *4343:X 0.00164306
3 *3659:A1 *3395:A 0.000222061
4 *3659:A1 *4196:A 0.000716407
5 *3659:A1 *4218:A 0.000122331
6 *3659:A1 *4221:A 2.66935e-05
7 *3659:A1 *4385:A 0
8 *3659:A1 *4386:A 4.08512e-05
9 *3659:A1 *4387:A 0.000232099
10 *3659:A1 *910:10 3.61525e-05
11 *3659:A1 *910:50 0.000145127
12 *3659:A1 *910:60 8.40213e-05
13 *3659:A1 *1011:6 0.000232262
14 *3659:A1 *1013:10 0.000158811
15 *3660:A0 *3659:A1 8.75256e-05
16 *3881:RESET_B *3659:A1 2.11651e-05
*RES
1 *4343:X *3659:A1 33.135 
*END

*D_NET *729 0.000906556
*CONN
*I *3688:A1 I *D sky130_fd_sc_hd__o21a_2
*I *4231:X O *D sky130_fd_sc_hd__dlygate4sd3_1
*CAP
1 *3688:A1 0.000415363
2 *4231:X 0.000415363
3 *3688:A1 *950:10 0
4 *3897:D *3688:A1 0
5 *3904:D *3688:A1 7.58309e-05
6 *3949:CLK *3688:A1 0
7 *634:110 *3688:A1 0
*RES
1 *4231:X *3688:A1 13.8 
*END

*D_NET *730 0.000435282
*CONN
*I *3429:A2 I *D sky130_fd_sc_hd__a22o_2
*I *4232:X O *D sky130_fd_sc_hd__dlygate4sd3_1
*CAP
1 *3429:A2 0.000132744
2 *4232:X 0.000132744
3 *3429:A2 *911:30 9.08333e-05
4 *3429:A2 *1088:10 7.89611e-05
*RES
1 *4232:X *3429:A2 9.75375 
*END

*D_NET *731 0.000488681
*CONN
*I *3935:D I *D sky130_fd_sc_hd__dfrtp_2
*I *4233:X O *D sky130_fd_sc_hd__dlygate4sd3_1
*CAP
1 *3935:D 0.000124053
2 *4233:X 0.000124053
3 *3783:B1 *3935:D 9.71067e-05
4 *611:8 *3935:D 4.80285e-05
5 *611:52 *3935:D 9.54399e-05
*RES
1 *4233:X *3935:D 9.465 
*END

*D_NET *732 0.000857328
*CONN
*I *3391:B1 I *D sky130_fd_sc_hd__a21o_2
*I *4234:X O *D sky130_fd_sc_hd__dlygate4sd3_1
*CAP
1 *3391:B1 0.000267506
2 *4234:X 0.000267506
3 *3391:B1 *3391:A1 0.000118504
4 *3391:B1 *4169:A 0
5 *3391:B1 *911:10 0
6 *3391:B1 *1030:16 5.43769e-05
7 *3392:B1 *3391:B1 0.000118513
8 *3915:D *3391:B1 0
9 *659:90 *3391:B1 3.09233e-05
*RES
1 *4234:X *3391:B1 12.36 
*END

*D_NET *733 0.00712974
*CONN
*I *3521:A I *D sky130_fd_sc_hd__or2_2
*I *3428:B1 I *D sky130_fd_sc_hd__a21o_2
*I *4235:X O *D sky130_fd_sc_hd__dlygate4sd3_1
*CAP
1 *3521:A 0.00103681
2 *3428:B1 0.000789382
3 *4235:X 0
4 *733:4 0.00182619
5 *3428:B1 *3428:A2 0.000649795
6 *3428:B1 *3625:B 0.00122702
7 *3521:A *3423:A 8.8266e-05
8 *3521:A *3625:B 0.000131791
9 *3521:A *4145:A 3.94592e-05
10 *3846:B1 *3428:B1 0.000406486
11 *4082:A *3521:A 1.82561e-05
12 *4099:A *3428:B1 2.30292e-05
13 *4099:A *3521:A 9.36114e-05
14 *4193:A *3428:B1 0.000121437
15 *4236:A *3428:B1 4.66108e-05
16 *360:14 *3428:B1 1.85451e-05
17 *645:59 *3428:B1 6.1357e-05
18 *658:50 *3521:A 0.00035215
19 *658:56 *3521:A 0.000199541
*RES
1 *4235:X *733:4 1.6 
2 *733:4 *3428:B1 20.8 
3 *733:4 *3521:A 15.535 
*END

*D_NET *734 0.000668255
*CONN
*I *3936:D I *D sky130_fd_sc_hd__dfrtp_2
*I *4236:X O *D sky130_fd_sc_hd__dlygate4sd3_1
*CAP
1 *3936:D 8.35212e-05
2 *4236:X 8.35212e-05
3 *3936:D *993:14 0.000105068
4 *3936:D *993:23 7.53115e-05
5 *3936:D *1093:46 0.000320834
*RES
1 *4236:X *3936:D 10.875 
*END

*D_NET *735 0.000673172
*CONN
*I *3382:A1 I *D sky130_fd_sc_hd__a21oi_2
*I *4237:X O *D sky130_fd_sc_hd__dlygate4sd3_1
*CAP
1 *3382:A1 8.2809e-05
2 *4237:X 8.2809e-05
3 *3382:A1 *1044:45 0.000137454
4 *3382:A1 *1048:35 0.000325629
5 *3382:A2 *3382:A1 3.46615e-05
6 *355:18 *3382:A1 9.80943e-06
*RES
1 *4237:X *3382:A1 6.5525 
*END

*D_NET *736 0.00108805
*CONN
*I *3467:A2 I *D sky130_fd_sc_hd__a22o_2
*I *3455:A2 I *D sky130_fd_sc_hd__a21o_2
*I *4238:X O *D sky130_fd_sc_hd__dlygate4sd3_1
*CAP
1 *3467:A2 0.000210633
2 *3455:A2 6.62741e-05
3 *4238:X 0
4 *736:4 0.000276907
5 *3455:A2 *3332:A 5.91165e-05
6 *3467:A2 *3332:A 2.46494e-05
7 *3467:A2 *3467:A1 1.37395e-05
8 *3467:A2 *3680:B2 0.000134538
9 *3467:A2 *1006:14 7.06865e-05
10 *4126:A *3467:A2 1.2818e-05
11 *111:10 *3467:A2 0
12 *365:6 *3455:A2 0.00012657
13 *651:34 *3455:A2 9.21168e-05
*RES
1 *4238:X *736:4 1.6 
2 *736:4 *3455:A2 3.79 
3 *736:4 *3467:A2 9.84875 
*END

*D_NET *737 0.000744845
*CONN
*I *3561:A1 I *D sky130_fd_sc_hd__o21a_2
*I *4239:X O *D sky130_fd_sc_hd__dlygate4sd3_1
*CAP
1 *3561:A1 0.000223213
2 *4239:X 0.000223213
3 *3557:B *3561:A1 0.000162311
4 *3557:C *3561:A1 0.000136109
*RES
1 *4239:X *3561:A1 7.115 
*END

*D_NET *738 0.000319922
*CONN
*I *3470:B2 I *D sky130_fd_sc_hd__a22o_2
*I *4240:X O *D sky130_fd_sc_hd__dlygate4sd3_1
*CAP
1 *3470:B2 9.64356e-05
2 *4240:X 9.64356e-05
3 *3470:B2 *936:41 0
4 *4093:A *3470:B2 0.00011852
5 *636:109 *3470:B2 8.53113e-06
*RES
1 *4240:X *3470:B2 9.03 
*END

*D_NET *739 0.00272797
*CONN
*I *3641:A1 I *D sky130_fd_sc_hd__mux2_1
*I *4344:X O *D sky130_fd_sc_hd__clkdlybuf4s25_1
*CAP
1 *3641:A1 0.000974882
2 *4344:X 0.000974882
3 *3641:A1 *3641:A0 0.000196045
4 *3641:A1 *3707:A 0.000321515
5 *3641:A1 *3707:B 0
6 *3641:A1 *3709:B 0.000139252
7 *3641:A1 *4396:A 9.5101e-05
8 *3713:A *3641:A1 0
9 *3734:B *3641:A1 1.77595e-05
10 *359:61 *3641:A1 8.53113e-06
11 *623:107 *3641:A1 0
12 *640:28 *3641:A1 0
*RES
1 *4344:X *3641:A1 23.835 
*END

*D_NET *740 0.000933508
*CONN
*I *3962:D I *D sky130_fd_sc_hd__dfrtp_2
*I *4345:X O *D sky130_fd_sc_hd__clkdlybuf4s25_1
*CAP
1 *3962:D 0.000439737
2 *4345:X 0.000439737
3 *3962:D *908:16 7.00889e-06
4 *3962:CLK *3962:D 4.70256e-05
*RES
1 *4345:X *3962:D 12.48 
*END

*D_NET *741 0.000530462
*CONN
*I *3958:D I *D sky130_fd_sc_hd__dfrtp_2
*I *4241:X O *D sky130_fd_sc_hd__dlygate4sd3_1
*CAP
1 *3958:D 0.000106333
2 *4241:X 0.000106333
3 *3958:D *3470:A2 0.000178314
4 *3958:D *880:38 0.000114492
5 *3469:A1 *3958:D 0
6 *621:91 *3958:D 2.49909e-05
*RES
1 *4241:X *3958:D 9.795 
*END

*D_NET *742 0.00108468
*CONN
*I *3694:A1 I *D sky130_fd_sc_hd__a22o_2
*I *4242:X O *D sky130_fd_sc_hd__dlygate4sd3_1
*CAP
1 *3694:A1 0.000436567
2 *4242:X 0.000436567
3 *3623:C1 *3694:A1 5.98029e-05
4 *434:43 *3694:A1 9.12494e-06
5 *632:12 *3694:A1 0.00014262
*RES
1 *4242:X *3694:A1 13.08 
*END

*D_NET *743 0.000668991
*CONN
*I *3696:A1 I *D sky130_fd_sc_hd__a22o_2
*I *4243:X O *D sky130_fd_sc_hd__dlygate4sd3_1
*CAP
1 *3696:A1 0.000159236
2 *4243:X 0.000159236
3 *3692:B2 *3696:A1 1.10951e-05
4 *3696:B1 *3696:A1 0.000119873
5 *3696:B2 *3696:A1 0.000134123
6 *3898:CLK *3696:A1 8.54281e-05
*RES
1 *4243:X *3696:A1 10.575 
*END

*D_NET *744 0.00105334
*CONN
*I *3692:A1 I *D sky130_fd_sc_hd__a22o_2
*I *4244:X O *D sky130_fd_sc_hd__dlygate4sd3_1
*CAP
1 *3692:A1 0.000446111
2 *4244:X 0.000446111
3 *3692:A1 *4223:A 7.58309e-05
4 *3692:A2 *3692:A1 3.55658e-05
5 *3898:D *3692:A1 4.97182e-05
*RES
1 *4244:X *3692:A1 14.265 
*END

*D_NET *745 0.00312816
*CONN
*I *3650:A1 I *D sky130_fd_sc_hd__o21a_2
*I *3395:B I *D sky130_fd_sc_hd__or3_2
*I *4245:X O *D sky130_fd_sc_hd__dlygate4sd3_1
*CAP
1 *3650:A1 0.000369596
2 *3395:B 0.000158271
3 *4245:X 0.000317876
4 *745:10 0.000845744
5 *3395:B *3395:A 0.000156622
6 *3650:A1 *3395:A 4.12775e-05
7 *3650:A1 *896:45 0
8 *745:10 *3395:A 0.000347444
9 *745:10 *3649:B 0.000293916
10 *745:10 *919:10 1.67164e-05
11 *3650:B1 *3650:A1 1.22325e-05
12 *3967:CLK *3650:A1 2.74281e-05
13 *3967:D *3650:A1 9.05535e-05
14 *3973:RESET_B *745:10 1.61285e-05
15 *4013:RESET_B *3650:A1 8.53113e-06
16 *4128:A *3650:A1 0
17 *4246:A *3650:A1 6.878e-05
18 *4379:A *745:10 0
19 *543:25 *3650:A1 0.000122821
20 *655:28 *3650:A1 0.00023422
*RES
1 *4245:X *745:10 13.865 
2 *745:10 *3395:B 4.735 
3 *745:10 *3650:A1 13.235 
*END

*D_NET *746 0.000802904
*CONN
*I *3863:D I *D sky130_fd_sc_hd__dfrtp_2
*I *4246:X O *D sky130_fd_sc_hd__dlygate4sd3_1
*CAP
1 *3863:D 0.000185911
2 *4246:X 0.000185911
3 *3863:D *1010:12 4.66108e-05
4 *3863:D *1011:10 0.000263309
5 *3394:A3 *3863:D 0
6 *3863:RESET_B *3863:D 4.82863e-05
7 *3964:RESET_B *3863:D 0
8 *4124:A *3863:D 3.00381e-05
9 *613:22 *3863:D 4.28375e-05
*RES
1 *4246:X *3863:D 11.265 
*END

*D_NET *747 0.00138841
*CONN
*I *3605:A1 I *D sky130_fd_sc_hd__o21a_2
*I *4247:X O *D sky130_fd_sc_hd__dlygate4sd3_1
*CAP
1 *3605:A1 0.000247805
2 *4247:X 0.000247805
3 *3605:A1 *3601:A 0.000273872
4 *3503:B *3605:A1 4.58166e-05
5 *3601:B *3605:A1 0.000137578
6 *3601:C *3605:A1 0.000127828
7 *4032:CLK *3605:A1 0.000307702
*RES
1 *4247:X *3605:A1 14.295 
*END

*D_NET *748 0.000319102
*CONN
*I *4032:D I *D sky130_fd_sc_hd__dfrtp_2
*I *4248:X O *D sky130_fd_sc_hd__dlygate4sd3_1
*CAP
1 *4032:D 0.000113541
2 *4248:X 0.000113541
3 *4032:D *3840:A1 5.30673e-05
4 *4032:D *3840:A2 3.89528e-05
*RES
1 *4248:X *4032:D 9.12 
*END

*D_NET *749 0.00345979
*CONN
*I *3679:B2 I *D sky130_fd_sc_hd__a22o_2
*I *3756:A0 I *D sky130_fd_sc_hd__mux2_1
*I *3401:A I *D sky130_fd_sc_hd__and2_2
*I *4249:X O *D sky130_fd_sc_hd__dlygate4sd3_1
*CAP
1 *3679:B2 0.000296665
2 *3756:A0 0.000118924
3 *3401:A 0
4 *4249:X 0
5 *749:12 0.000543641
6 *749:4 0.000721382
7 *3679:B2 *936:41 1.8644e-05
8 *3756:A0 *3756:A1 4.66108e-05
9 *3756:A0 *907:40 8.40213e-05
10 *3756:A0 *907:46 4.07182e-05
11 *3756:A0 *961:22 2.0514e-05
12 *749:12 *3401:B 4.66108e-05
13 *749:12 *3468:A2 0.000162738
14 *749:12 *3525:A1 1.73877e-05
15 *749:12 *3679:B1 0
16 *749:12 *905:16 6.10014e-05
17 *749:12 *907:46 0.000260906
18 *749:12 *948:10 7.06865e-05
19 *749:12 *961:22 0.000569146
20 *3469:B1 *749:12 0.000125238
21 *3974:D *749:12 0.000116158
22 *3983:RESET_B *749:12 0
23 *73:6 *749:12 0.000138799
24 *646:43 *749:12 0
*RES
1 *4249:X *749:4 1.6 
2 *749:4 *749:12 16.84 
3 *749:12 *3401:A 1.6 
4 *749:12 *3756:A0 4.135 
5 *749:4 *3679:B2 5.185 
*END

*D_NET *750 0.000681854
*CONN
*I *3892:D I *D sky130_fd_sc_hd__dfrtp_2
*I *4250:X O *D sky130_fd_sc_hd__dlygate4sd3_1
*CAP
1 *3892:D 0.000297637
2 *4250:X 0.000297637
3 *3892:D *3460:A_N 0
4 *3892:D *949:25 8.53113e-06
5 *3744:B1 *3892:D 0
6 *603:43 *3892:D 7.80485e-05
*RES
1 *4250:X *3892:D 11.1 
*END

*D_NET *751 0.00233674
*CONN
*I *4047:D I *D sky130_fd_sc_hd__dfrtp_2
*I *4346:X O *D sky130_fd_sc_hd__clkdlybuf4s25_1
*CAP
1 *4047:D 0.000705413
2 *4346:X 0.000705413
3 *4047:D *3634:A 0.000108733
4 *4047:D *4176:A 8.33066e-06
5 *4047:D *4180:A 0.000246964
6 *3635:C *4047:D 0.000162311
7 *3863:RESET_B *4047:D 6.95753e-05
8 *4048:CLK *4047:D 0.000330003
9 *656:10 *4047:D 0
*RES
1 *4346:X *4047:D 18.1987 
*END

*D_NET *752 0.00192224
*CONN
*I *3456:B1 I *D sky130_fd_sc_hd__a22o_2
*I *3461:B1 I *D sky130_fd_sc_hd__a221o_2
*I *3523:S I *D sky130_fd_sc_hd__mux2_1
*I *4251:X O *D sky130_fd_sc_hd__dlygate4sd3_1
*CAP
1 *3456:B1 7.19235e-05
2 *3461:B1 8.24255e-05
3 *3523:S 0.000138197
4 *4251:X 0
5 *752:6 0.000355391
6 *752:4 0.000206692
7 *3456:B1 *3680:A2_N 7.89594e-05
8 *3461:B1 *3461:B2 0.000291365
9 *752:6 *3680:A2_N 0.000201508
10 *3454:A1 *3461:B1 9.47454e-05
11 *3456:B2 *3456:B1 3.54536e-05
12 *3456:B2 *3523:S 5.36281e-05
13 *3456:B2 *752:6 0.000126163
14 *3461:A2 *3461:B1 5.98004e-06
15 *3950:RESET_B *3461:B1 0.0001587
16 *375:6 *3523:S 2.11084e-05
*RES
1 *4251:X *752:4 1.6 
2 *752:4 *752:6 3.21 
3 *752:6 *3523:S 3.79 
4 *752:6 *3461:B1 9.02 
5 *752:4 *3456:B1 3.46 
*END

*D_NET *753 0.00459274
*CONN
*I *3526:A1 I *D sky130_fd_sc_hd__o21ai_2
*I *4252:X O *D sky130_fd_sc_hd__dlygate4sd3_1
*CAP
1 *3526:A1 0.000790927
2 *4252:X 0.000790927
3 *3526:A1 *3363:B1 0.000855602
4 *3526:A1 *3438:A2 0.000164686
5 *3526:A1 *3442:A1 0
6 *3526:A1 *993:46 0
7 *3526:A1 *1062:10 0.000129047
8 *3526:A1 *1062:30 0.000244453
9 *3442:A2 *3526:A1 0
10 *3625:C *3526:A1 0.000222119
11 *3942:D *3526:A1 0.000141292
12 *367:12 *3526:A1 0.000294421
13 *645:42 *3526:A1 3.78024e-05
14 *645:59 *3526:A1 0.000506095
15 *645:70 *3526:A1 0.000376721
16 *686:10 *3526:A1 3.86529e-05
*RES
1 *4252:X *3526:A1 31.725 
*END

*D_NET *754 0.000413906
*CONN
*I *3996:D I *D sky130_fd_sc_hd__dfstp_2
*I *4253:X O *D sky130_fd_sc_hd__dlygate4sd3_1
*CAP
1 *3996:D 0.000168905
2 *4253:X 0.000168905
3 *3996:D *879:29 7.60965e-05
4 *3996:D *893:55 0
5 *3996:SET_B *3996:D 0
6 *628:42 *3996:D 0
*RES
1 *4253:X *3996:D 9.72 
*END

*D_NET *755 0.00297393
*CONN
*I *3756:A1 I *D sky130_fd_sc_hd__mux2_1
*I *3757:A0 I *D sky130_fd_sc_hd__mux2_1
*I *4254:X O *D sky130_fd_sc_hd__dlygate4sd3_1
*CAP
1 *3756:A1 2.89988e-05
2 *3757:A0 0.000639372
3 *4254:X 0.000220195
4 *755:12 0.000888566
5 *3757:A0 *3757:A1 2.30292e-05
6 *3757:A0 *3757:S 5.5201e-05
7 *3757:A0 *3759:A0 1.16578e-05
8 *3757:A0 *905:28 0.000231643
9 *3757:A0 *905:30 9.80032e-06
10 *3757:A0 *961:22 3.39151e-05
11 *3444:A *755:12 4.82919e-05
12 *3756:A0 *3756:A1 4.66108e-05
13 *3954:D *755:12 0.000120186
14 *4060:D *3757:A0 0
15 *4060:RESET_B *3757:A0 0.000118527
16 *114:10 *3757:A0 0
17 *114:10 *755:12 0
18 *604:70 *3757:A0 0.000214272
19 *617:32 *755:12 2.50049e-05
20 *617:36 *3757:A0 0.000202095
21 *617:36 *755:12 5.65627e-05
*RES
1 *4254:X *755:12 7.665 
2 *755:12 *3757:A0 17.46 
3 *755:12 *3756:A1 4.05 
*END

*D_NET *756 0.00117621
*CONN
*I *3451:B1 I *D sky130_fd_sc_hd__a22o_2
*I *4255:X O *D sky130_fd_sc_hd__dlygate4sd3_1
*CAP
1 *3451:B1 0.000370838
2 *4255:X 0.000370838
3 *3451:B1 *3340:A 0
4 *3451:B1 *3342:A 1.7396e-05
5 *3451:B1 *3451:B2 0.000386226
6 *4019:CLK *3451:B1 0
7 *4256:A *3451:B1 3.09088e-05
*RES
1 *4255:X *3451:B1 13.335 
*END

*D_NET *757 0.000734456
*CONN
*I *3953:D I *D sky130_fd_sc_hd__dfrtp_2
*I *4256:X O *D sky130_fd_sc_hd__dlygate4sd3_1
*CAP
1 *3953:D 0.00025632
2 *4256:X 0.00025632
3 *3953:D *3342:A 0.000120186
4 *3953:D *3461:B2 0
5 *3523:A0 *3953:D 0
6 *616:23 *3953:D 3.00381e-05
7 *616:29 *3953:D 7.15908e-05
*RES
1 *4256:X *3953:D 11.5275 
*END

*D_NET *758 0.00157852
*CONN
*I *3654:A1 I *D sky130_fd_sc_hd__o21a_2
*I *4257:X O *D sky130_fd_sc_hd__dlygate4sd3_1
*CAP
1 *3654:A1 0.000515486
2 *4257:X 0.000515486
3 *3654:A1 *3652:A1 0
4 *3654:A1 *4388:A 0.000146232
5 *3654:A1 *4399:A 0
6 *3652:A2 *3654:A1 9.23578e-05
7 *3877:D *3654:A1 0.000181741
8 *3878:D *3654:A1 0
9 *3878:RESET_B *3654:A1 0.000127216
10 *543:31 *3654:A1 0
*RES
1 *4257:X *3654:A1 17.88 
*END

*D_NET *759 0.000652019
*CONN
*I *3652:A1 I *D sky130_fd_sc_hd__o21a_2
*I *4258:X O *D sky130_fd_sc_hd__dlygate4sd3_1
*CAP
1 *3652:A1 0.000134911
2 *4258:X 0.000134911
3 *3652:A1 *4167:A 0.000112408
4 *3652:A1 *4388:A 7.1624e-05
5 *3652:B1 *3652:A1 0.00019608
6 *3654:A1 *3652:A1 0
7 *543:31 *3652:A1 2.0851e-06
*RES
1 *4258:X *3652:A1 10.665 
*END

*D_NET *760 0.0010672
*CONN
*I *3758:A1 I *D sky130_fd_sc_hd__mux2_1
*I *3753:A0 I *D sky130_fd_sc_hd__mux2_1
*I *4259:X O *D sky130_fd_sc_hd__dlygate4sd3_1
*CAP
1 *3758:A1 0
2 *3753:A0 0.000204038
3 *4259:X 0.00016548
4 *760:6 0.000369519
5 *3753:A0 *964:37 3.41598e-05
6 *760:6 *3758:A0 4.21973e-05
7 *760:6 *3758:S 1.34503e-05
8 *3698:B2 *3753:A0 8.64421e-05
9 *3698:B2 *760:6 0.00011138
10 *608:77 *3753:A0 4.05358e-05
*RES
1 *4259:X *760:6 3.775 
2 *760:6 *3753:A0 8.405 
3 *760:6 *3758:A1 1.6 
*END

*D_NET *761 0.000479078
*CONN
*I *4057:D I *D sky130_fd_sc_hd__dfrtp_2
*I *4260:X O *D sky130_fd_sc_hd__dlygate4sd3_1
*CAP
1 *4057:D 0.000101307
2 *4260:X 0.000101307
3 *4057:D *964:12 2.49909e-05
4 *4057:D *964:37 0.000116853
5 *4260:A *4057:D 1.77665e-05
6 *608:77 *4057:D 0.000116853
*RES
1 *4260:X *4057:D 9.48 
*END

*D_NET *762 0.000807791
*CONN
*I *3417:A I *D sky130_fd_sc_hd__or2_2
*I *3418:A I *D sky130_fd_sc_hd__nand2_2
*I *4347:X O *D sky130_fd_sc_hd__clkdlybuf4s25_1
*CAP
1 *3417:A 9.19342e-05
2 *3418:A 0
3 *4347:X 0.000103121
4 *762:10 0.000195055
5 *3415:A2 *3417:A 0
6 *3415:A2 *762:10 0
7 *3415:B1 *762:10 5.20968e-05
8 *3417:B *3417:A 0.000201335
9 *3417:B *762:10 9.50342e-06
10 *416:30 *762:10 0.000154745
*RES
1 *4347:X *762:10 5.775 
2 *762:10 *3418:A 3.6 
3 *762:10 *3417:A 6 
*END

*D_NET *763 0.00556801
*CONN
*I *3363:B1 I *D sky130_fd_sc_hd__a31o_2
*I *4261:X O *D sky130_fd_sc_hd__dlygate4sd3_1
*CAP
1 *3363:B1 0.00130241
2 *4261:X 0.00130241
3 *3363:B1 *3434:B 0.000201511
4 *3363:B1 *3436:A1 2.0514e-05
5 *3363:B1 *3438:B1 4.11194e-05
6 *3363:B1 *3528:A2 0.000160635
7 *3363:B1 *3786:A1 0
8 *3363:B1 *878:53 0
9 *3363:B1 *880:91 0.000348699
10 *3363:B1 *993:58 8.87364e-05
11 *3363:B1 *1051:20 2.86623e-05
12 *3363:B1 *1051:39 4.80285e-05
13 *3363:B1 *1062:30 5.72829e-05
14 *3363:B1 *1063:29 6.36578e-05
15 *3526:A1 *3363:B1 0.000855602
16 *3528:B1 *3363:B1 0
17 *3938:D *3363:B1 0
18 *3938:SET_B *3363:B1 5.39718e-05
19 *3944:D *3363:B1 0.000376621
20 *91:10 *3363:B1 0.000134535
21 *360:33 *3363:B1 0
22 *367:12 *3363:B1 0.000296088
23 *627:59 *3363:B1 5.3023e-05
24 *645:42 *3363:B1 0.000134509
*RES
1 *4261:X *3363:B1 38.49 
*END

*D_NET *764 0.000668858
*CONN
*I *3438:B1 I *D sky130_fd_sc_hd__a22o_2
*I *4262:X O *D sky130_fd_sc_hd__dlygate4sd3_1
*CAP
1 *3438:B1 0.000145734
2 *4262:X 0.000145734
3 *3438:B1 *3438:A2 9.8106e-05
4 *3438:B1 *3786:A1 4.5783e-05
5 *3363:B1 *3438:B1 4.11194e-05
6 *3435:B1 *3438:B1 5.75628e-05
7 *3438:A1 *3438:B1 2.75229e-05
8 *3438:B2 *3438:B1 4.14666e-06
9 *3442:B1 *3438:B1 7.22329e-05
10 *3938:D *3438:B1 3.09164e-05
*RES
1 *4262:X *3438:B1 10.77 
*END

*D_NET *765 0.00109695
*CONN
*I *3467:A1 I *D sky130_fd_sc_hd__a22o_2
*I *4263:X O *D sky130_fd_sc_hd__dlygate4sd3_1
*CAP
1 *3467:A1 0.000321428
2 *4263:X 0.000321428
3 *3467:A1 *3680:B1 0.000189299
4 *3467:A2 *3467:A1 1.37395e-05
5 *3823:B1 *3467:A1 0
6 *3945:D *3467:A1 7.83173e-05
7 *3951:RESET_B *3467:A1 0
8 *4126:A *3467:A1 0.000172736
*RES
1 *4263:X *3467:A1 13.995 
*END

*D_NET *766 0.00299713
*CONN
*I *3433:B2 I *D sky130_fd_sc_hd__a22o_2
*I *3468:B2 I *D sky130_fd_sc_hd__a22o_2
*I *4264:X O *D sky130_fd_sc_hd__dlygate4sd3_1
*CAP
1 *3433:B2 0.000276022
2 *3468:B2 0.00067899
3 *4264:X 9.4204e-05
4 *766:6 0.00104922
5 *3433:B2 *993:14 0
6 *3468:B2 *4141:A 0
7 *3468:B2 *4201:A 4.85494e-05
8 *3468:B2 *4264:A 8.65961e-05
9 *3468:B2 *958:18 0.000306355
10 *3468:B2 *978:18 1.19928e-05
11 *3468:B2 *993:14 0
12 *766:6 *4201:A 1.34503e-05
13 *3451:A1 *3468:B2 0.000232116
14 *3896:D *3468:B2 0
15 *4017:CLK *3468:B2 0
16 *4116:A *3468:B2 8.53113e-06
17 *4302:A *3468:B2 0.000161722
18 *365:16 *3468:B2 2.9381e-05
19 *603:13 *3433:B2 0
20 *603:13 *3468:B2 0
21 *603:55 *3433:B2 0
*RES
1 *4264:X *766:6 3.085 
2 *766:6 *3468:B2 20.165 
3 *766:6 *3433:B2 9.785 
*END

*D_NET *767 0.000879102
*CONN
*I *3931:D I *D sky130_fd_sc_hd__dfstp_2
*I *4265:X O *D sky130_fd_sc_hd__dlygate4sd3_1
*CAP
1 *3931:D 0.000292536
2 *4265:X 0.000292536
3 *3931:D *4278:A 3.00381e-05
4 *3931:D *911:42 5.33172e-05
5 *3931:D *993:14 0
6 *3936:CLK *3931:D 6.74079e-05
7 *3936:RESET_B *3931:D 0.000143266
8 *603:55 *3931:D 0
*RES
1 *4265:X *3931:D 12.45 
*END

*D_NET *768 0.000695002
*CONN
*I *3658:A1 I *D sky130_fd_sc_hd__o21a_2
*I *4266:X O *D sky130_fd_sc_hd__dlygate4sd3_1
*CAP
1 *3658:A1 0.000107437
2 *4266:X 0.000107437
3 *3658:A1 *3656:A1 4.66108e-05
4 *3658:A1 *4070:A 4.12775e-05
5 *3658:A1 *4167:A 6.86208e-05
6 *3656:A2 *3658:A1 0.000154765
7 *3879:D *3658:A1 0.000121032
8 *3880:D *3658:A1 1.06042e-05
9 *543:27 *3658:A1 1.10435e-05
10 *543:31 *3658:A1 2.61744e-05
*RES
1 *4266:X *3658:A1 10.485 
*END

*D_NET *769 0.00143445
*CONN
*I *3757:A1 I *D sky130_fd_sc_hd__mux2_1
*I *3759:A0 I *D sky130_fd_sc_hd__mux2_1
*I *4267:X O *D sky130_fd_sc_hd__dlygate4sd3_1
*CAP
1 *3757:A1 8.00125e-06
2 *3759:A0 0.00021955
3 *4267:X 9.13014e-05
4 *769:10 0.000318853
5 *3757:A1 *905:30 4.82919e-05
6 *3759:A0 *3757:S 0
7 *3759:A0 *3759:A1 4.66108e-05
8 *3759:A0 *905:30 0.000165642
9 *3759:A0 *905:34 4.36954e-05
10 *769:10 *3621:A1 0.0002954
11 *769:10 *3623:A1 8.97564e-05
12 *769:10 *965:27 7.26629e-05
13 *3757:A0 *3757:A1 2.30292e-05
14 *3757:A0 *3759:A0 1.16578e-05
*RES
1 *4267:X *769:10 9.02 
2 *769:10 *3759:A0 5.86 
3 *769:10 *3757:A1 2.05 
*END

*D_NET *770 0.00193288
*CONN
*I *3656:A1 I *D sky130_fd_sc_hd__o21a_2
*I *4268:X O *D sky130_fd_sc_hd__dlygate4sd3_1
*CAP
1 *3656:A1 0.000599756
2 *4268:X 0.000599756
3 *3656:A1 *4070:A 4.66108e-05
4 *3656:A1 *4266:A 9.55262e-06
5 *3656:A1 *1015:8 7.03276e-05
6 *3658:A1 *3656:A1 4.66108e-05
7 *3879:D *3656:A1 1.91597e-05
8 *4379:A *3656:A1 6.90254e-05
9 *605:56 *3656:A1 1.56428e-05
10 *614:8 *3656:A1 0.000308645
11 *614:101 *3656:A1 0.000147796
*RES
1 *4268:X *3656:A1 15.9 
*END

*D_NET *771 0.00162429
*CONN
*I *3750:A0 I *D sky130_fd_sc_hd__mux2_1
*I *3747:A1 I *D sky130_fd_sc_hd__mux2_1
*I *4269:X O *D sky130_fd_sc_hd__dlygate4sd3_1
*CAP
1 *3750:A0 0.000116506
2 *3747:A1 0.000148332
3 *4269:X 7.68654e-05
4 *771:6 0.000341704
5 *3750:A0 *3750:S 0.000405997
6 *4286:A *3750:A0 0
7 *640:28 *3750:A0 0.000220547
8 *640:35 *3747:A1 0.000112409
9 *640:35 *3750:A0 0.000201925
*RES
1 *4269:X *771:6 2.395 
2 *771:6 *3747:A1 7.775 
3 *771:6 *3750:A0 10.55 
*END

*D_NET *772 0.000146751
*CONN
*I *4054:D I *D sky130_fd_sc_hd__dfrtp_2
*I *4270:X O *D sky130_fd_sc_hd__dlygate4sd3_1
*CAP
1 *4054:D 7.33753e-05
2 *4270:X 7.33753e-05
3 *4054:D *3750:S 0
4 *4270:A *4054:D 0
*RES
1 *4270:X *4054:D 8.325 
*END

*D_NET *773 0.00217658
*CONN
*I *3420:A I *D sky130_fd_sc_hd__xnor2_2
*I *4348:X O *D sky130_fd_sc_hd__clkdlybuf4s25_1
*CAP
1 *3420:A 0.000530246
2 *4348:X 0.000530246
3 *3802:B1 *3420:A 0.00030562
4 *3994:CLK *3420:A 0
5 *3995:CLK *3420:A 0.000235857
6 *3995:D *3420:A 0.000435376
7 *641:139 *3420:A 0.000139238
*RES
1 *4348:X *3420:A 19.44 
*END

*D_NET *774 0.0019529
*CONN
*I *3754:A0 I *D sky130_fd_sc_hd__mux2_1
*I *3759:A1 I *D sky130_fd_sc_hd__mux2_1
*I *4271:X O *D sky130_fd_sc_hd__dlygate4sd3_1
*CAP
1 *3754:A0 0
2 *3759:A1 0.000305159
3 *4271:X 0.000348198
4 *774:10 0.000653357
5 *3759:A1 *3754:A1 0.000241397
6 *3759:A1 *4058:D 0
7 *3759:A1 *905:34 0.00015639
8 *3759:A1 *962:8 2.49909e-05
9 *3759:A1 *962:10 5.23362e-05
10 *774:10 *3708:B 3.64998e-06
11 *774:10 *3754:A1 9.50342e-06
12 *774:10 *4058:D 0
13 *774:10 *875:58 0
14 *3759:A0 *3759:A1 4.66108e-05
15 *4063:D *774:10 4.57758e-05
16 *4272:A *774:10 6.55328e-05
17 *632:12 *3759:A1 0
18 *632:12 *774:10 0
*RES
1 *4271:X *774:10 9.27 
2 *774:10 *3759:A1 9.885 
3 *774:10 *3754:A0 3.6 
*END

*D_NET *775 0.000517057
*CONN
*I *4058:D I *D sky130_fd_sc_hd__dfrtp_2
*I *4272:X O *D sky130_fd_sc_hd__dlygate4sd3_1
*CAP
1 *4058:D 0.000234385
2 *4272:X 0.000234385
3 *4058:D *914:57 4.82863e-05
4 *3759:A1 *4058:D 0
5 *632:12 *4058:D 0
6 *774:10 *4058:D 0
*RES
1 *4272:X *4058:D 10.815 
*END

*D_NET *776 0.00036056
*CONN
*I *3760:A0 I *D sky130_fd_sc_hd__mux2_1
*I *4273:X O *D sky130_fd_sc_hd__dlygate4sd3_1
*CAP
1 *3760:A0 7.04911e-05
2 *4273:X 7.04911e-05
3 *3760:A0 *3760:A1 4.99619e-05
4 *3760:A0 *905:42 4.47209e-05
5 *3760:A0 *905:50 0.000124895
*RES
1 *4273:X *3760:A0 5.03 
*END

*D_NET *777 0.00069453
*CONN
*I *4064:D I *D sky130_fd_sc_hd__dfrtp_2
*I *4274:X O *D sky130_fd_sc_hd__dlygate4sd3_1
*CAP
1 *4064:D 0.000269943
2 *4274:X 0.000269943
3 *4064:D *4064:RESET_B 0
4 *4064:D *967:10 3.4222e-05
5 *4064:D *967:16 3.05295e-05
6 *4059:D *4064:D 8.98913e-05
7 *4274:A *4064:D 0
*RES
1 *4274:X *4064:D 11.76 
*END

*D_NET *778 0.000978935
*CONN
*I *3461:B2 I *D sky130_fd_sc_hd__a221o_2
*I *4275:X O *D sky130_fd_sc_hd__dlygate4sd3_1
*CAP
1 *3461:B2 0.000188075
2 *4275:X 0.000188075
3 *3461:B2 *3743:A 1.34967e-05
4 *3454:A1 *3461:B2 1.15688e-05
5 *3461:B1 *3461:B2 0.000291365
6 *3523:A0 *3461:B2 0.00019929
7 *3950:RESET_B *3461:B2 4.09964e-05
8 *3953:D *3461:B2 0
9 *3980:D *3461:B2 4.05358e-05
10 *433:10 *3461:B2 5.53249e-06
*RES
1 *4275:X *3461:B2 12.9 
*END

*D_NET *779 0.00186384
*CONN
*I *3746:A1 I *D sky130_fd_sc_hd__mux2_1
*I *3752:A0 I *D sky130_fd_sc_hd__mux2_1
*I *4276:X O *D sky130_fd_sc_hd__dlygate4sd3_1
*CAP
1 *3746:A1 0
2 *3752:A0 0.000387737
3 *4276:X 0.000136439
4 *779:10 0.000524176
5 *3752:A0 *3667:A 0.000231564
6 *3752:A0 *3746:S 0.000196001
7 *3752:A0 *3752:A1 4.85763e-05
8 *3752:A0 *3752:S 2.53216e-05
9 *779:10 *3667:A 0.000127373
10 *779:10 *3746:S 9.50342e-06
11 *779:10 *4276:A 0
12 *4050:RESET_B *3752:A0 8.53113e-06
13 *606:45 *779:10 8.40213e-05
14 *624:44 *3752:A0 8.45944e-05
*RES
1 *4276:X *779:10 6.03 
2 *779:10 *3752:A0 10.155 
3 *779:10 *3746:A1 3.6 
*END

*D_NET *780 0.000524811
*CONN
*I *4056:D I *D sky130_fd_sc_hd__dfrtp_2
*I *4277:X O *D sky130_fd_sc_hd__dlygate4sd3_1
*CAP
1 *4056:D 0.000144922
2 *4277:X 0.000144922
3 *4056:D *3752:A1 0.000117825
4 *4056:D *4395:A 0
5 *4095:A *4056:D 4.47819e-05
6 *4277:A *4056:D 7.23602e-05
*RES
1 *4277:X *4056:D 10.365 
*END

*D_NET *781 0.00116068
*CONN
*I *3430:A2 I *D sky130_fd_sc_hd__a22o_2
*I *4278:X O *D sky130_fd_sc_hd__dlygate4sd3_1
*CAP
1 *3430:A2 0.000100987
2 *4278:X 0.000100987
3 *3430:A2 *911:42 0.000238137
4 *3430:A2 *911:48 0.000282078
5 *3430:A2 *1093:18 2.05056e-05
6 *4120:A *3430:A2 0.000200717
7 *643:6 *3430:A2 0.000217269
*RES
1 *4278:X *3430:A2 8.405 
*END

*D_NET *782 0.00182443
*CONN
*I *3454:A2 I *D sky130_fd_sc_hd__o21a_2
*I *4279:X O *D sky130_fd_sc_hd__dlygate4sd3_1
*CAP
1 *3454:A2 0.000210367
2 *4279:X 0.000210367
3 *3454:A2 *990:18 0.000625762
4 *4077:A *3454:A2 3.45588e-05
5 *4087:A *3454:A2 0.0004706
6 *4088:A *3454:A2 0.000150453
7 *111:10 *3454:A2 0.000122325
*RES
1 *4279:X *3454:A2 15.585 
*END

*D_NET *783 0.000363752
*CONN
*I *3747:A0 I *D sky130_fd_sc_hd__mux2_1
*I *4280:X O *D sky130_fd_sc_hd__dlygate4sd3_1
*CAP
1 *3747:A0 4.30453e-05
2 *4280:X 4.30453e-05
3 *3747:A0 *889:105 0.000198516
4 *3666:S *3747:A0 7.91457e-05
*RES
1 *4280:X *3747:A0 5.03 
*END

*D_NET *784 0.00194335
*CONN
*I *3639:A1 I *D sky130_fd_sc_hd__mux2_1
*I *4349:X O *D sky130_fd_sc_hd__clkdlybuf4s25_1
*CAP
1 *3639:A1 0.000651415
2 *4349:X 0.000651415
3 *3639:A1 *3638:A1 0.000222418
4 *3639:A1 *3639:S 4.66742e-05
5 *3639:A1 *908:16 0.000164686
6 *3862:RESET_B *3639:A1 0.000163204
7 *4345:A *3639:A1 0
8 *4350:A *3639:A1 4.35348e-05
9 *618:109 *3639:A1 0
*RES
1 *4349:X *3639:A1 17.82 
*END

*D_NET *785 0.00205548
*CONN
*I *3749:A1 I *D sky130_fd_sc_hd__mux2_1
*I *3751:A0 I *D sky130_fd_sc_hd__mux2_1
*I *4281:X O *D sky130_fd_sc_hd__dlygate4sd3_1
*CAP
1 *3749:A1 0.00033681
2 *3751:A0 0.000194957
3 *4281:X 0.000257869
4 *785:10 0.000789636
5 *3749:A1 *4165:A 1.91597e-05
6 *3749:A1 *907:12 0.000242801
7 *3749:A1 *934:32 4.43682e-05
8 *3751:A0 *3751:A1 1.83756e-05
9 *3751:A0 *3752:S 2.10134e-05
10 *3751:A0 *934:32 6.6925e-05
11 *785:10 *4281:A 0
12 *785:10 *877:14 0
13 *785:10 *934:28 2.24423e-05
14 *4042:CLK *3749:A1 4.11194e-05
15 *4042:RESET_B *3749:A1 0
16 *11:10 *3749:A1 0
17 *641:37 *785:10 0
18 *641:54 *785:10 0
*RES
1 *4281:X *785:10 9.785 
2 *785:10 *3751:A0 4.12 
3 *785:10 *3749:A1 11.195 
*END

*D_NET *786 0.000537282
*CONN
*I *4055:D I *D sky130_fd_sc_hd__dfrtp_2
*I *4282:X O *D sky130_fd_sc_hd__dlygate4sd3_1
*CAP
1 *4055:D 0.00010833
2 *4282:X 0.00010833
3 *4055:D *3665:B 7.89611e-05
4 *4055:D *3751:A1 1.01661e-05
5 *4055:D *3752:S 7.81876e-05
6 *4055:D *889:91 9.30717e-05
7 *641:37 *4055:D 0
8 *646:61 *4055:D 6.0236e-05
*RES
1 *4282:X *4055:D 10.62 
*END

*D_NET *787 0.000891477
*CONN
*I *3573:A1 I *D sky130_fd_sc_hd__o21ai_2
*I *4283:X O *D sky130_fd_sc_hd__dlygate4sd3_1
*CAP
1 *3573:A1 0.000250462
2 *4283:X 0.000250462
3 *3573:A1 *903:12 0
4 *3573:A1 *1097:10 0
5 *3829:B1 *3573:A1 0.000163204
6 *4021:D *3573:A1 0
7 *4021:RESET_B *3573:A1 0.000166346
8 *161:12 *3573:A1 6.10014e-05
*RES
1 *4283:X *3573:A1 12.36 
*END

*D_NET *788 0.000647701
*CONN
*I *3749:A0 I *D sky130_fd_sc_hd__mux2_1
*I *4284:X O *D sky130_fd_sc_hd__dlygate4sd3_1
*CAP
1 *3749:A0 0.000171778
2 *4284:X 0.000171778
3 *3749:A0 *3663:B 0.000304145
*RES
1 *4284:X *3749:A0 6.41 
*END

*D_NET *789 0.00140968
*CONN
*I *3745:A0 I *D sky130_fd_sc_hd__mux2_1
*I *4285:X O *D sky130_fd_sc_hd__dlygate4sd3_1
*CAP
1 *3745:A0 0.000221773
2 *4285:X 0.000221773
3 *3745:A0 *3745:A1 5.99668e-05
4 *3745:A0 *4285:A 7.4645e-05
5 *3745:A0 *871:10 7.4027e-05
6 *3664:A0 *3745:A0 2.16833e-05
7 *3664:A1 *3745:A0 0.00012657
8 *3664:S *3745:A0 2.30292e-05
9 *3678:A0 *3745:A0 0
10 *3905:D *3745:A0 6.55328e-05
11 *359:43 *3745:A0 0.0001249
12 *359:45 *3745:A0 0.000234674
13 *640:8 *3745:A0 4.66108e-05
14 *640:14 *3745:A0 0.000114492
*RES
1 *4285:X *3745:A0 14.265 
*END

*D_NET *790 0.000160778
*CONN
*I *4049:D I *D sky130_fd_sc_hd__dfrtp_2
*I *4286:X O *D sky130_fd_sc_hd__dlygate4sd3_1
*CAP
1 *4049:D 4.43893e-05
2 *4286:X 4.43893e-05
3 *4049:CLK *4049:D 3.59997e-05
4 *641:37 *4049:D 3.59997e-05
*RES
1 *4286:X *4049:D 8.325 
*END

*D_NET *791 0.000578852
*CONN
*I *3746:A0 I *D sky130_fd_sc_hd__mux2_1
*I *4287:X O *D sky130_fd_sc_hd__dlygate4sd3_1
*CAP
1 *3746:A0 0.000135066
2 *4287:X 0.000135066
3 *3917:CLK *3746:A0 0.000308719
*RES
1 *4287:X *3746:A0 6.065 
*END

*D_NET *792 0.00297684
*CONN
*I *3755:A1 I *D sky130_fd_sc_hd__mux2_1
*I *3758:A0 I *D sky130_fd_sc_hd__mux2_1
*I *4288:X O *D sky130_fd_sc_hd__dlygate4sd3_1
*CAP
1 *3755:A1 4.85978e-05
2 *3758:A0 0.000155376
3 *4288:X 0.000374117
4 *792:10 0.000578092
5 *3755:A1 *3753:S 4.66108e-05
6 *3755:A1 *905:54 0.000196376
7 *3755:A1 *964:37 0.000234685
8 *3758:A0 *3758:S 0.000281789
9 *3758:A0 *4057:RESET_B 1.07797e-05
10 *792:10 *4057:RESET_B 2.23485e-05
11 *792:10 *4062:RESET_B 4.88074e-05
12 *792:10 *4288:A 0
13 *3698:A1 *3758:A0 6.60042e-05
14 *3698:B2 *3758:A0 0.00017459
15 *4059:D *792:10 0.000535811
16 *608:77 *3758:A0 0
17 *608:77 *792:10 0
18 *608:128 *792:10 0.000160658
19 *760:6 *3758:A0 4.21973e-05
*RES
1 *4288:X *792:10 11.895 
2 *792:10 *3758:A0 7.92 
3 *792:10 *3755:A1 5.775 
*END

*D_NET *793 0.000185977
*CONN
*I *3529:A1 I *D sky130_fd_sc_hd__o21ai_2
*I *4289:X O *D sky130_fd_sc_hd__dlygate4sd3_1
*CAP
1 *3529:A1 5.6871e-05
2 *4289:X 5.6871e-05
3 *612:6 *3529:A1 7.22354e-05
*RES
1 *4289:X *3529:A1 4.34 
*END

*D_NET *794 0.00106891
*CONN
*I *3755:A0 I *D sky130_fd_sc_hd__mux2_1
*I *4290:X O *D sky130_fd_sc_hd__dlygate4sd3_1
*CAP
1 *3755:A0 0.000322017
2 *4290:X 0.000322017
3 *3755:A0 *4057:RESET_B 0.000108478
4 *3755:A0 *4290:A 8.88108e-06
5 *3755:A0 *905:50 8.97564e-05
6 *3755:A0 *967:16 9.5433e-05
7 *3755:A0 *967:22 0
8 *3755:A0 *969:14 0
9 *4059:D *3755:A0 0
10 *604:24 *3755:A0 0.000122331
*RES
1 *4290:X *3755:A0 13.215 
*END

*D_NET *795 0.00214525
*CONN
*I *3638:A1 I *D sky130_fd_sc_hd__mux2_1
*I *4350:X O *D sky130_fd_sc_hd__clkdlybuf4s25_1
*CAP
1 *3638:A1 0.000340339
2 *4350:X 0.000340339
3 *3638:A1 *846:12 0.000433003
4 *3638:A1 *908:16 0.000141606
5 *3639:A1 *3638:A1 0.000222418
6 *4350:A *3638:A1 0.000547916
7 *4362:A *3638:A1 0.000119631
*RES
1 *4350:X *3638:A1 17.715 
*END

*D_NET *796 0.000151255
*CONN
*I *3373:C1 I *D sky130_fd_sc_hd__a311o_2
*I *4291:X O *D sky130_fd_sc_hd__dlygate4sd3_1
*CAP
1 *3373:C1 7.56277e-05
2 *4291:X 7.56277e-05
*RES
1 *4291:X *3373:C1 4.34 
*END

*D_NET *797 0.0028745
*CONN
*I *3548:B1 I *D sky130_fd_sc_hd__a21o_2
*I *4292:X O *D sky130_fd_sc_hd__dlygate4sd3_1
*CAP
1 *3548:B1 0.00068682
2 *4292:X 0.00068682
3 *3548:B1 *3626:A1 0.00025626
4 *3548:B1 *3626:A2 0.000351146
5 *3548:B1 *881:103 6.65725e-05
6 *3548:B1 *896:133 0.000410651
7 *3490:B *3548:B1 0.00010131
8 *4084:A *3548:B1 0.000314917
*RES
1 *4292:X *3548:B1 25.83 
*END

*D_NET *798 0.000244684
*CONN
*I *4006:D I *D sky130_fd_sc_hd__dfrtp_2
*I *4293:X O *D sky130_fd_sc_hd__dlygate4sd3_1
*CAP
1 *4006:D 0.000122342
2 *4293:X 0.000122342
*RES
1 *4293:X *4006:D 4.685 
*END

*D_NET *799 0.000834616
*CONN
*I *3570:B1 I *D sky130_fd_sc_hd__a21oi_2
*I *4294:X O *D sky130_fd_sc_hd__dlygate4sd3_1
*CAP
1 *3570:B1 0.000180082
2 *4294:X 0.000180082
3 *3570:B1 *3568:A1 8.8266e-05
4 *3570:B1 *3568:B1 4.82863e-05
5 *3568:A2 *3570:B1 4.82863e-05
6 *3569:B1 *3570:B1 4.82863e-05
7 *3572:B *3570:B1 5.37324e-05
8 *4014:D *3570:B1 6.74079e-05
9 *503:18 *3570:B1 0.000120186
*RES
1 *4294:X *3570:B1 11.46 
*END

*D_NET *800 0.00088095
*CONN
*I *3632:A0 I *D sky130_fd_sc_hd__mux2_1
*I *4295:X O *D sky130_fd_sc_hd__dlygate4sd3_1
*CAP
1 *3632:A0 0.000250355
2 *4295:X 0.000250355
3 *3632:A0 *3687:B1 0
4 *3632:A0 *845:10 0.000167854
5 *3485:C *3632:A0 0.000182349
6 *3862:D *3632:A0 0
7 *4360:A *3632:A0 3.00381e-05
*RES
1 *4295:X *3632:A0 12.6 
*END

*D_NET *801 0.000514797
*CONN
*I *3633:A0 I *D sky130_fd_sc_hd__mux2_1
*I *4296:X O *D sky130_fd_sc_hd__dlygate4sd3_1
*CAP
1 *3633:A0 4.70533e-05
2 *4296:X 4.70533e-05
3 *3633:A0 *4296:A 0.00012657
4 *3633:A0 *846:23 4.35432e-05
5 *3633:A0 *908:16 0.000164874
6 *3633:A0 *908:18 8.57024e-05
*RES
1 *4296:X *3633:A0 5.375 
*END

*D_NET *802 0.00202182
*CONN
*I *3519:B I *D sky130_fd_sc_hd__and2_2
*I *3443:C I *D sky130_fd_sc_hd__nor3_2
*I *4297:X O *D sky130_fd_sc_hd__dlygate4sd3_1
*CAP
1 *3519:B 0
2 *3443:C 0.000180262
3 *4297:X 0.000212607
4 *802:12 0.000392869
5 *3443:C *3443:B 0.000274659
6 *3443:C *3519:A 0.000235573
7 *3443:C *989:20 2.30292e-05
8 *802:12 *3685:B2 0.000338289
9 *802:12 *4325:A 4.29365e-05
10 *3684:B2 *802:12 0.000139933
11 *4087:A *802:12 9.33923e-05
12 *426:10 *3443:C 8.8266e-05
*RES
1 *4297:X *802:12 10.76 
2 *802:12 *3443:C 6.19 
3 *802:12 *3519:B 1.6 
*END

*D_NET *803 0.000533682
*CONN
*I *3645:A0 I *D sky130_fd_sc_hd__mux2_1
*I *4298:X O *D sky130_fd_sc_hd__dlygate4sd3_1
*CAP
1 *3645:A0 0.000236148
2 *4298:X 0.000236148
3 *3645:A0 *3711:B 0
4 *3645:A0 *4396:A 0
5 *3645:A0 *909:63 4.91189e-05
6 *3645:A0 *909:72 1.22676e-05
*RES
1 *4298:X *3645:A0 11.01 
*END

*D_NET *804 0.00019703
*CONN
*I *3614:B1 I *D sky130_fd_sc_hd__a21oi_2
*I *4299:X O *D sky130_fd_sc_hd__dlygate4sd3_1
*CAP
1 *3614:B1 9.8515e-05
2 *4299:X 9.8515e-05
*RES
1 *4299:X *3614:B1 4.685 
*END

*D_NET *805 0.000982608
*CONN
*I *3641:A0 I *D sky130_fd_sc_hd__mux2_1
*I *4300:X O *D sky130_fd_sc_hd__dlygate4sd3_1
*CAP
1 *3641:A0 0.000160741
2 *4300:X 0.000160741
3 *3641:A0 *928:8 7.65948e-05
4 *3641:A1 *3641:A0 0.000196045
5 *3676:S *3641:A0 0.000106565
6 *359:45 *3641:A0 0.000197081
7 *359:61 *3641:A0 8.4841e-05
*RES
1 *4300:X *3641:A0 8.135 
*END

*D_NET *806 0.00130001
*CONN
*I *3636:A1 I *D sky130_fd_sc_hd__mux2_1
*I *4351:X O *D sky130_fd_sc_hd__clkdlybuf4s25_1
*CAP
1 *3636:A1 0.000358097
2 *4351:X 0.000358097
3 *3636:A1 *4159:A 0
4 *3636:A1 *886:63 0.000191226
5 *3636:A1 *887:14 0
6 *3636:A1 *900:18 0.000164679
7 *3636:A1 *900:58 0.000108322
8 *4025:CLK *3636:A1 0
9 *4026:RESET_B *3636:A1 7.4027e-05
10 *661:30 *3636:A1 4.55632e-05
*RES
1 *4351:X *3636:A1 13.98 
*END

*D_NET *807 0.000764648
*CONN
*I *3468:B1 I *D sky130_fd_sc_hd__a22o_2
*I *4301:X O *D sky130_fd_sc_hd__dlygate4sd3_1
*CAP
1 *3468:B1 0.000146918
2 *4301:X 0.000146918
3 *3468:B1 *3679:B1 0.00027064
4 *3468:B1 *4301:A 0.000153499
5 *617:107 *3468:B1 4.66742e-05
*RES
1 *4301:X *3468:B1 11.16 
*END

*D_NET *808 0.000545156
*CONN
*I *3956:D I *D sky130_fd_sc_hd__dfrtp_2
*I *4302:X O *D sky130_fd_sc_hd__dlygate4sd3_1
*CAP
1 *3956:D 0.000182703
2 *4302:X 0.000182703
3 *3956:D *3525:S 6.61758e-05
4 *3956:D *3679:B1 1.82476e-05
5 *3956:CLK *3956:D 4.82919e-05
6 *4302:A *3956:D 4.70343e-05
*RES
1 *4302:X *3956:D 10.755 
*END

*D_NET *809 0.000308418
*CONN
*I *3642:A0 I *D sky130_fd_sc_hd__mux2_1
*I *4303:X O *D sky130_fd_sc_hd__dlygate4sd3_1
*CAP
1 *3642:A0 8.57588e-05
2 *4303:X 8.57588e-05
3 *3642:A0 *3642:A1 0.000111909
4 *3870:D *3642:A0 2.49909e-05
*RES
1 *4303:X *3642:A0 5.03 
*END

*D_NET *810 0.00075833
*CONN
*I *3681:A I *D sky130_fd_sc_hd__nor2_2
*I *4304:X O *D sky130_fd_sc_hd__dlygate4sd3_1
*CAP
1 *3681:A 0.000233933
2 *4304:X 0.000233933
3 *3681:A *3680:A1_N 4.7043e-05
4 *3948:RESET_B *3681:A 0.000124895
5 *4126:A *3681:A 0.000118527
*RES
1 *4304:X *3681:A 11.79 
*END

*D_NET *811 0.00112748
*CONN
*I *3643:A0 I *D sky130_fd_sc_hd__mux2_1
*I *4305:X O *D sky130_fd_sc_hd__dlygate4sd3_1
*CAP
1 *3643:A0 0.000402106
2 *4305:X 0.000402106
3 *3643:A0 *3643:A1 3.00381e-05
4 *3643:A0 *3647:A0 5.51158e-05
5 *3643:A0 *4310:A 0
6 o_receive_data[0] *3643:A0 8.41703e-06
7 *359:61 *3643:A0 0.000123225
8 *623:60 *3643:A0 0.000106472
*RES
1 *4305:X *3643:A0 14.28 
*END

*D_NET *812 0.000422756
*CONN
*I *3453:A1 I *D sky130_fd_sc_hd__a22o_2
*I *4306:X O *D sky130_fd_sc_hd__dlygate4sd3_1
*CAP
1 *3453:A1 3.80136e-05
2 *4306:X 3.80136e-05
3 *3453:A1 *3448:B 0.000198051
4 *3453:A2 *3453:A1 2.66362e-05
5 *3458:C *3453:A1 7.37493e-05
6 *3947:CLK *3453:A1 4.82919e-05
*RES
1 *4306:X *3453:A1 5.03 
*END

*D_NET *813 0.0018746
*CONN
*I *3627:A0 I *D sky130_fd_sc_hd__mux2_1
*I *4307:X O *D sky130_fd_sc_hd__dlygate4sd3_1
*CAP
1 *3627:A0 0.000525112
2 *4307:X 0.000525112
3 *3627:A0 *3472:A 0.000239014
4 *3627:A0 *3627:A1 4.82919e-05
5 *3627:A0 *3627:S 0
6 *3627:A0 *3857:RESET_B 0
7 *3627:A0 *908:73 0.000202533
8 *3627:A0 *909:37 2.41307e-05
9 *3627:A0 *913:44 0
10 *3484:A1 *3627:A0 0.000148149
11 *3857:D *3627:A0 0.000112291
12 *4363:A *3627:A0 0
13 *4364:A *3627:A0 4.99619e-05
*RES
1 *4307:X *3627:A0 19.485 
*END

*D_NET *814 0.000970052
*CONN
*I *3628:A0 I *D sky130_fd_sc_hd__mux2_1
*I *4308:X O *D sky130_fd_sc_hd__dlygate4sd3_1
*CAP
1 *3628:A0 0.000209248
2 *4308:X 0.000209248
3 *3628:A0 *3472:B 1.91597e-05
4 *3628:A0 *3697:A1 9.14049e-05
5 *3628:A0 *4318:A 8.18774e-05
6 *3484:B1 *3628:A0 0.000241033
7 *3484:B2 *3628:A0 0.000118081
*RES
1 *4308:X *3628:A0 11.595 
*END

*D_NET *815 0.000336491
*CONN
*I *3646:A0 I *D sky130_fd_sc_hd__mux2_1
*I *4309:X O *D sky130_fd_sc_hd__dlygate4sd3_1
*CAP
1 *3646:A0 0.000168246
2 *4309:X 0.000168246
*RES
1 *4309:X *3646:A0 5.375 
*END

*D_NET *816 0.00155186
*CONN
*I *3647:A0 I *D sky130_fd_sc_hd__mux2_1
*I *4310:X O *D sky130_fd_sc_hd__dlygate4sd3_1
*CAP
1 *3647:A0 0.000621158
2 *4310:X 0.000621158
3 *3647:A0 *3647:A1 4.82863e-05
4 *3647:A0 *3673:B 3.09088e-05
5 *3647:A0 *4310:A 5.83121e-06
6 *3647:A0 *869:10 1.39472e-05
7 o_receive_data[0] *3647:A0 4.82919e-05
8 *3643:A0 *3647:A0 5.51158e-05
9 *3674:A1 *3647:A0 7.23602e-05
10 *3674:S *3647:A0 3.48037e-05
11 *623:60 *3647:A0 0
*RES
1 *4310:X *3647:A0 16.605 
*END

*D_NET *817 0.00288938
*CONN
*I *3637:A1 I *D sky130_fd_sc_hd__mux2_1
*I *4352:X O *D sky130_fd_sc_hd__clkdlybuf4s25_1
*CAP
1 *3637:A1 0.000397337
2 *4352:X 0.000397337
3 *3637:A1 *3636:S 0.000651904
4 *3637:A1 *3637:S 1.83847e-05
5 *3637:A1 *4147:A 0.000276249
6 *3637:A1 *886:63 3.57846e-05
7 *3637:A1 *886:74 2.23485e-05
8 *3637:A1 *900:68 7.4027e-05
9 *3855:D *3637:A1 4.66108e-05
10 *4135:A *3637:A1 0.000898711
11 *662:10 *3637:A1 7.06865e-05
*RES
1 *4352:X *3637:A1 21.45 
*END

*D_NET *818 0.000712251
*CONN
*I *3640:A0 I *D sky130_fd_sc_hd__mux2_1
*I *4311:X O *D sky130_fd_sc_hd__dlygate4sd3_1
*CAP
1 *3640:A0 0.000202056
2 *4311:X 0.000202056
3 *3640:A0 *3640:S 4.66108e-05
4 *3640:A0 *916:77 3.84409e-05
5 *3640:A1 *3640:A0 4.66108e-05
6 *3739:A *3640:A0 2.84224e-05
7 *3739:B *3640:A0 7.4027e-05
8 *3912:D *3640:A0 7.4027e-05
*RES
1 *4311:X *3640:A0 11.355 
*END

*D_NET *819 0.0013681
*CONN
*I *3352:A I *D sky130_fd_sc_hd__inv_2
*I *4312:X O *D sky130_fd_sc_hd__dlygate4sd3_1
*CAP
1 *3352:A 0.000312858
2 *4312:X 0.000312858
3 *3352:A *3588:A 0.00015639
4 *3352:A *3589:A 0.000114492
5 *3352:A *3591:B 2.32724e-05
6 *3352:A *1109:14 3.57349e-05
7 *3352:A *1109:16 3.57349e-05
8 *3352:A *1109:46 2.92496e-05
9 *3589:B *3352:A 3.45516e-05
10 *3593:A1 *3352:A 0.00012083
11 *4028:D *3352:A 0.000192125
*RES
1 *4312:X *3352:A 14.235 
*END

*D_NET *820 0.000718737
*CONN
*I *3644:A0 I *D sky130_fd_sc_hd__mux2_1
*I *4313:X O *D sky130_fd_sc_hd__dlygate4sd3_1
*CAP
1 *3644:A0 0.000285882
2 *4313:X 0.000285882
3 *3644:A0 *4288:A 3.01206e-05
4 *4091:A *3644:A0 0.000116853
*RES
1 *4313:X *3644:A0 11.67 
*END

*D_NET *821 0.00107746
*CONN
*I *3459:A1 I *D sky130_fd_sc_hd__a21o_2
*I *4314:X O *D sky130_fd_sc_hd__dlygate4sd3_1
*CAP
1 *3459:A1 0.000136839
2 *4314:X 0.000136839
3 *3459:A1 *3524:A1 2.75229e-05
4 *3459:A1 *948:12 7.09999e-05
5 *3459:A1 *1004:18 3.51884e-05
6 *3459:A2 *3459:A1 4.82863e-05
7 *3459:B1 *3459:A1 0.000200615
8 *3524:A2 *3459:A1 9.04893e-05
9 *3524:B1 *3459:A1 4.99619e-05
10 *3972:CLK *3459:A1 0.000136884
11 *113:8 *3459:A1 0.000143833
*RES
1 *4314:X *3459:A1 12.045 
*END

*D_NET *822 0.00145054
*CONN
*I *3520:A I *D sky130_fd_sc_hd__and2_2
*I *4315:X O *D sky130_fd_sc_hd__dlygate4sd3_1
*CAP
1 *3520:A 0.000476748
2 *4315:X 0.000476748
3 *3520:A *3433:A1 5.30673e-05
4 *3520:A *883:58 0.000119521
5 *3933:D *3520:A 5.83121e-06
6 *3980:CLK *3520:A 1.83756e-05
7 *4316:A *3520:A 5.83121e-06
8 *611:12 *3520:A 0.000294421
*RES
1 *4315:X *3520:A 16.35 
*END

*D_NET *823 0.000661578
*CONN
*I *4017:D I *D sky130_fd_sc_hd__dfrtp_2
*I *4316:X O *D sky130_fd_sc_hd__dlygate4sd3_1
*CAP
1 *4017:D 0.000312393
2 *4316:X 0.000312393
3 *4017:D *996:12 3.67924e-05
4 *603:13 *4017:D 0
*RES
1 *4316:X *4017:D 12.27 
*END

*D_NET *824 0.000481336
*CONN
*I *3629:A0 I *D sky130_fd_sc_hd__mux2_1
*I *4317:X O *D sky130_fd_sc_hd__dlygate4sd3_1
*CAP
1 *3629:A0 0.000119952
2 *4317:X 0.000119952
3 *3629:A0 *3629:A1 6.99206e-05
4 *3629:A0 *3701:A1 8.49205e-05
5 *3629:A0 *844:14 0
6 *3858:D *3629:A0 0
7 *4369:A *3629:A0 8.65905e-05
*RES
1 *4317:X *3629:A0 9.63 
*END

*D_NET *825 0.000510911
*CONN
*I *3630:A0 I *D sky130_fd_sc_hd__mux2_1
*I *4318:X O *D sky130_fd_sc_hd__dlygate4sd3_1
*CAP
1 *3630:A0 4.63774e-05
2 *4318:X 4.63774e-05
3 *3630:A0 *3478:B 0.000232978
4 *3630:A0 *908:73 0.000119873
5 *3484:B2 *3630:A0 6.53053e-05
*RES
1 *4318:X *3630:A0 5.375 
*END

*D_NET *826 0.000869283
*CONN
*I *3435:B2 I *D sky130_fd_sc_hd__a2bb2o_2
*I *4319:X O *D sky130_fd_sc_hd__dlygate4sd3_1
*CAP
1 *3435:B2 0.000183689
2 *4319:X 0.000183689
3 *3435:B2 *993:58 0.000137578
4 *3435:B2 *1065:10 4.66108e-05
5 *3435:A1_N *3435:B2 2.16833e-05
6 *3435:B1 *3435:B2 4.77757e-05
7 *3438:B2 *3435:B2 8.40213e-05
8 *3941:CLK *3435:B2 2.49909e-05
9 *645:101 *3435:B2 0.000139245
*RES
1 *4319:X *3435:B2 11.46 
*END

*D_NET *827 0.00075388
*CONN
*I *3376:A1 I *D sky130_fd_sc_hd__a21oi_2
*I *4320:X O *D sky130_fd_sc_hd__dlygate4sd3_1
*CAP
1 *3376:A1 0.000208428
2 *4320:X 0.000208428
3 *3376:A1 *3368:A2 3.7712e-05
4 *3376:A1 *4320:A 8.8266e-05
5 *394:52 *3376:A1 4.82863e-05
6 *394:58 *3376:A1 0.000162759
*RES
1 *4320:X *3376:A1 7.805 
*END

*D_NET *828 0.0200456
*CONN
*I *4136:A I *D sky130_fd_sc_hd__clkdlybuf4s25_1
*I *4131:A I *D sky130_fd_sc_hd__clkdlybuf4s25_1
*I *4123:A I *D sky130_fd_sc_hd__clkdlybuf4s25_1
*I *4353:X O *D sky130_fd_sc_hd__clkdlybuf4s25_1
*CAP
1 *4136:A 6.05382e-05
2 *4131:A 5.16505e-05
3 *4123:A 0.00468679
4 *4353:X 0.000399158
5 *828:42 0.0018657
6 *828:12 0.00473844
7 *828:10 0.00220432
8 *4123:A *3817:A2 1.88602e-05
9 *4123:A *4068:A 0
10 *4123:A *910:20 0
11 *4123:A *989:20 1.00941e-05
12 *828:10 *910:20 0
13 *828:42 *4147:A 0.000574303
14 *828:42 *4160:A 0.000186092
15 *828:42 *4161:A 0.000642819
16 *828:42 *4187:A 0.00047218
17 *828:42 *888:10 0.000250987
18 *828:42 *888:25 0.00102997
19 *828:42 *902:10 0.000141599
20 *828:42 *902:19 0.00124421
21 *828:42 *902:30 0.00079275
22 *828:42 *1072:10 0
23 *3634:B *4123:A 0
24 *4351:A *828:42 0.000353151
25 *4352:A *828:42 0.000112971
26 *655:84 *4123:A 1.7635e-05
27 *657:6 *4123:A 0.000191343
*RES
1 *4353:X *828:10 9.105 
2 *828:10 *828:12 2 
3 *828:12 *4123:A 18.1744 
4 *828:12 *4131:A 2.395 
5 *828:10 *828:42 57.225 
6 *828:42 *4136:A 4.395 
*END

*D_NET *829 0.00221036
*CONN
*I *3631:A0 I *D sky130_fd_sc_hd__mux2_1
*I *4321:X O *D sky130_fd_sc_hd__dlygate4sd3_1
*CAP
1 *3631:A0 0.00044552
2 *4321:X 0.00044552
3 *3631:A0 *3482:B 9.68787e-05
4 *3631:A0 *3631:A1 0.00010585
5 *3631:A0 *844:14 0.0008352
6 *620:58 *3631:A0 0.000281389
*RES
1 *4321:X *3631:A0 17.4 
*END

*D_NET *830 0.000395449
*CONN
*I *3377:A1 I *D sky130_fd_sc_hd__o21ai_2
*I *4322:X O *D sky130_fd_sc_hd__dlygate4sd3_1
*CAP
1 *3377:A1 0.000123862
2 *4322:X 0.000123862
3 *3377:B1 *3377:A1 8.8266e-05
4 *3378:B *3377:A1 2.05056e-05
5 *3922:D *3377:A1 3.89528e-05
*RES
1 *4322:X *3377:A1 9.72 
*END

*D_NET *831 0.000647192
*CONN
*I *3471:A1 I *D sky130_fd_sc_hd__a21o_2
*I *4323:X O *D sky130_fd_sc_hd__dlygate4sd3_1
*CAP
1 *3471:A1 0.000236324
2 *4323:X 0.000236324
3 *3471:A1 *936:41 0
4 *3471:A1 *939:16 7.23602e-05
5 *72:10 *3471:A1 0.000102184
*RES
1 *4323:X *3471:A1 11.25 
*END

*D_NET *832 0.000202547
*CONN
*I *3353:A I *D sky130_fd_sc_hd__inv_2
*I *4324:X O *D sky130_fd_sc_hd__dlygate4sd3_1
*CAP
1 *3353:A 7.71275e-05
2 *4324:X 7.71275e-05
3 *3353:A *3501:A 4.82919e-05
*RES
1 *4324:X *3353:A 4.34 
*END

*D_NET *833 0.00143491
*CONN
*I *3518:A2 I *D sky130_fd_sc_hd__a21o_2
*I *4325:X O *D sky130_fd_sc_hd__dlygate4sd3_1
*CAP
1 *3518:A2 0.000451148
2 *4325:X 0.000451148
3 *3518:A2 *3456:A2 0
4 *3518:A2 *3657:B 0
5 *3684:A1 *3518:A2 0.000409819
6 *3959:D *3518:A2 7.06865e-05
7 *616:78 *3518:A2 0
8 *676:14 *3518:A2 5.21046e-05
*RES
1 *4325:X *3518:A2 16.485 
*END

*D_NET *834 9.29249e-05
*CONN
*I *3348:A I *D sky130_fd_sc_hd__inv_2
*I *4326:X O *D sky130_fd_sc_hd__dlygate4sd3_1
*CAP
1 *3348:A 1.8812e-05
2 *4326:X 1.8812e-05
3 *3348:A *881:103 7.00889e-06
4 *3567:A1 *3348:A 4.82919e-05
*RES
1 *4326:X *3348:A 3.65 
*END

*D_NET *835 0.000352025
*CONN
*I *3525:S I *D sky130_fd_sc_hd__mux2_1
*I *4327:X O *D sky130_fd_sc_hd__dlygate4sd3_1
*CAP
1 *3525:S 8.40085e-05
2 *4327:X 8.40085e-05
3 *3525:S *3462:B2 0
4 *3525:S *3679:B1 0.000117832
5 *3956:D *3525:S 6.61758e-05
6 *4302:A *3525:S 0
*RES
1 *4327:X *3525:S 9.03 
*END

*D_NET *836 0.000591379
*CONN
*I *3397:B I *D sky130_fd_sc_hd__and2_2
*I *4328:X O *D sky130_fd_sc_hd__dlygate4sd3_1
*CAP
1 *3397:B 0.000139658
2 *4328:X 0.000139658
3 *3397:B *3423:A 0.000116158
4 *3397:B *889:16 0.000122331
5 *3424:B2 *3397:B 0
6 *105:8 *3397:B 7.35729e-05
*RES
1 *4328:X *3397:B 10.41 
*END

*D_NET *837 0.00126639
*CONN
*I *3467:B1 I *D sky130_fd_sc_hd__a22o_2
*I *4329:X O *D sky130_fd_sc_hd__dlygate4sd3_1
*CAP
1 *3467:B1 0.000480169
2 *4329:X 0.000480169
3 *3467:B1 *3680:A1_N 5.73851e-05
4 *3467:B1 *3680:A2_N 0.000202056
5 *3467:B1 *3680:B1 4.66108e-05
6 *3467:B1 *3680:B2 0
7 *3467:B2 *3467:B1 0
*RES
1 *4329:X *3467:B1 13.605 
*END

*D_NET *838 0.00268379
*CONN
*I *3456:A2 I *D sky130_fd_sc_hd__a22o_2
*I *4330:X O *D sky130_fd_sc_hd__dlygate4sd3_1
*CAP
1 *3456:A2 0.00085217
2 *4330:X 0.00085217
3 *3456:A2 *3341:A 0.000157872
4 *3456:A2 *3456:A1 4.03718e-05
5 *3456:A2 *3518:A1 0
6 *3456:A2 *3680:A2_N 4.30176e-06
7 *3456:A2 *3683:A_N 0
8 *3456:A2 *1000:10 6.65804e-05
9 *3456:A2 *1003:18 0
10 *3467:B2 *3456:A2 0.000161623
11 *3518:A2 *3456:A2 0
12 *3684:A1 *3456:A2 0
13 *3685:A1 *3456:A2 0
14 *3894:CLK *3456:A2 6.73751e-05
15 *3894:D *3456:A2 0
16 *3895:CLK *3456:A2 7.67708e-05
17 *3946:RESET_B *3456:A2 0
18 *3950:D *3456:A2 3.67779e-05
19 *3959:D *3456:A2 0
20 *111:10 *3456:A2 0.00013063
21 *559:10 *3456:A2 0
22 *605:12 *3456:A2 7.89767e-05
23 *616:76 *3456:A2 7.04021e-05
24 *616:78 *3456:A2 8.77642e-05
*RES
1 *4330:X *3456:A2 26.0438 
*END

*D_NET *839 0.00442143
*CONN
*I *3477:A I *D sky130_fd_sc_hd__or2_2
*I *3478:A I *D sky130_fd_sc_hd__nand2_2
*I *3627:A1 I *D sky130_fd_sc_hd__mux2_1
*I *4354:X O *D sky130_fd_sc_hd__clkdlybuf4s25_1
*CAP
1 *3477:A 0.000569341
2 *3478:A 0.000117344
3 *3627:A1 0.000622426
4 *4354:X 0
5 *839:8 0.000795094
6 *839:6 0.000624665
7 *3477:A *3477:B 4.77769e-05
8 *3477:A *3691:A1 9.81229e-05
9 *3478:A *3478:B 0.000119247
10 *3478:A *3630:A1 4.66108e-05
11 *3627:A1 *3479:A 0.000374293
12 *3627:A1 *3691:A1 1.7309e-05
13 *3627:A1 *3693:A1 0.000426206
14 *839:8 *3479:A 2.02316e-05
15 *839:8 *843:8 7.03276e-05
16 *3484:B2 *3478:A 1.54665e-05
17 *3627:A0 *3627:A1 4.82919e-05
18 *3856:D *3627:A1 0.000273008
19 *3857:CLK *3627:A1 0
20 *4363:A *3627:A1 0
21 *4364:A *3627:A1 0.000112631
22 *4367:A *3627:A1 2.3038e-05
23 *620:32 *3627:A1 0
*RES
1 *4354:X *839:6 3.6 
2 *839:6 *839:8 1.125 
3 *839:8 *3627:A1 18.06 
4 *839:8 *3478:A 5.79 
5 *839:6 *3477:A 13.23 
*END

*D_NET *840 0.000705421
*CONN
*I *3642:A1 I *D sky130_fd_sc_hd__mux2_1
*I *4355:X O *D sky130_fd_sc_hd__clkdlybuf4s25_1
*CAP
1 *3642:A1 0.000239991
2 *4355:X 0.000239991
3 *3642:A1 *3642:S 3.64998e-06
4 *3642:A0 *3642:A1 0.000111909
5 *3870:CLK *3642:A1 2.87867e-05
6 *3870:D *3642:A1 8.73389e-06
7 *4333:A *3642:A1 7.23602e-05
*RES
1 *4355:X *3642:A1 10.59 
*END

*D_NET *841 0.0051497
*CONN
*I *3473:A I *D sky130_fd_sc_hd__or2_2
*I *3628:A1 I *D sky130_fd_sc_hd__mux2_1
*I *3472:A I *D sky130_fd_sc_hd__nand2_2
*I *4356:X O *D sky130_fd_sc_hd__clkdlybuf4s25_1
*CAP
1 *3473:A 0.000342244
2 *3628:A1 9.67787e-05
3 *3472:A 0.000442355
4 *4356:X 9.85909e-05
5 *841:21 0.000439022
6 *841:6 0.000540945
7 *3472:A *3477:B 2.73857e-05
8 *3473:A *3472:B 1.91597e-05
9 *3473:A *3473:B 0.000675042
10 *3473:A *3478:B 8.41307e-05
11 *3473:A *909:33 0.000380699
12 *3473:A *982:21 2.0794e-05
13 *3473:A *982:48 1.0397e-05
14 *3473:A *983:31 0.000113007
15 *3628:A1 *908:59 4.6368e-06
16 *3628:A1 *908:63 9.77048e-06
17 *3484:A1 *3472:A 0.000222229
18 *3484:A2 *3473:A 1.05984e-05
19 *3484:B1 *3473:A 0.000142923
20 *3484:B1 *3628:A1 0.000178672
21 *3484:B2 *3473:A 8.9257e-05
22 *3484:B2 *3628:A1 0.000178672
23 *3627:A0 *3472:A 0.000239014
24 *3702:B1 *3473:A 2.20014e-05
25 *3702:B2 *3473:A 0.000470372
26 *3903:D *3473:A 4.89295e-05
27 *4354:A *3472:A 1.52184e-05
28 *620:21 *3472:A 0.00016938
29 *620:21 *841:6 5.74791e-05
*RES
1 *4356:X *841:6 2.74 
2 *841:6 *3472:A 14.18 
3 *841:6 *841:21 2 
4 *841:21 *3628:A1 6.195 
5 *841:21 *3473:A 15.945 
*END

*D_NET *842 0.00282058
*CONN
*I *3476:A I *D sky130_fd_sc_hd__xor2_2
*I *3629:A1 I *D sky130_fd_sc_hd__mux2_1
*I *4357:X O *D sky130_fd_sc_hd__clkdlybuf4s25_1
*CAP
1 *3476:A 5.24277e-05
2 *3629:A1 0.000166419
3 *4357:X 0.000618348
4 *842:10 0.000837195
5 *3476:A *4317:A 4.11729e-05
6 *3629:A1 *3629:S 0.000144588
7 *3629:A1 *908:49 1.03592e-05
8 *842:10 *3701:A1 0.000157045
9 *842:10 *908:49 0.000311797
10 *3629:A0 *3629:A1 6.99206e-05
11 *3858:D *3629:A1 0
12 *4369:A *3629:A1 4.82919e-05
13 *427:43 *842:10 5.68633e-05
14 *427:55 *842:10 0.00030615
*RES
1 *4357:X *842:10 13.245 
2 *842:10 *3629:A1 6.705 
3 *842:10 *3476:A 4.395 
*END

*D_NET *843 0.00164689
*CONN
*I *3630:A1 I *D sky130_fd_sc_hd__mux2_1
*I *3479:A I *D sky130_fd_sc_hd__xor2_2
*I *4358:X O *D sky130_fd_sc_hd__clkdlybuf4s25_1
*CAP
1 *3630:A1 0.000110146
2 *3479:A 0.000132792
3 *4358:X 2.19671e-05
4 *843:8 0.000264905
5 *3479:A *3691:A1 0.000395689
6 *3479:A *3697:A1 4.66108e-05
7 *3630:A1 *3478:B 0.000100822
8 *843:8 *3691:A1 6.24991e-05
9 *3478:A *3630:A1 4.66108e-05
10 *3627:A1 *3479:A 0.000374293
11 *839:8 *3479:A 2.02316e-05
12 *839:8 *843:8 7.03276e-05
*RES
1 *4358:X *843:8 4.47 
2 *843:8 *3479:A 8.745 
3 *843:8 *3630:A1 5.085 
*END

*D_NET *844 0.00416774
*CONN
*I *3631:A1 I *D sky130_fd_sc_hd__mux2_1
*I *3482:A I *D sky130_fd_sc_hd__xor2_2
*I *4359:X O *D sky130_fd_sc_hd__clkdlybuf4s25_1
*CAP
1 *3631:A1 3.69163e-05
2 *3482:A 0
3 *4359:X 0.000853657
4 *844:14 0.000890573
5 *3631:A1 *3631:S 0.000103983
6 *844:14 *3693:A1 0.000611857
7 *844:14 *3695:A1 0.000224192
8 *3629:A0 *844:14 0
9 *3631:A0 *3631:A1 0.00010585
10 *3631:A0 *844:14 0.0008352
11 *3692:B2 *3631:A1 3.63701e-06
12 *3692:B2 *844:14 1.3758e-05
13 *3858:D *844:14 0.000268971
14 *4364:A *844:14 0.000219145
15 *427:55 *844:14 0
*RES
1 *4359:X *844:14 21.525 
2 *844:14 *3482:A 3.6 
3 *844:14 *3631:A1 4.98 
*END

*D_NET *845 0.00220334
*CONN
*I *3632:A1 I *D sky130_fd_sc_hd__mux2_1
*I *3481:A I *D sky130_fd_sc_hd__nand2_2
*I *3480:A I *D sky130_fd_sc_hd__or2_2
*I *4360:X O *D sky130_fd_sc_hd__clkdlybuf4s25_1
*CAP
1 *3632:A1 3.43601e-05
2 *3481:A 0.000141921
3 *3480:A 0
4 *4360:X 0.000173116
5 *845:10 0.000403743
6 *845:6 0.000469299
7 *3481:A *3481:B 0.00019671
8 *3632:A1 *908:32 4.82919e-05
9 *845:10 *3703:A1 0.000137573
10 *845:10 *987:10 0
11 *845:10 *987:23 0
12 *3485:C *3481:A 4.77807e-05
13 *3485:C *845:10 0
14 *3632:A0 *845:10 0.000167854
15 *3704:B2 *3481:A 0
16 *3861:D *845:6 0.000107643
17 *4360:A *3632:A1 0.0001249
18 *4360:A *845:6 0.000123225
19 *4360:A *845:10 0
20 *562:14 *3481:A 2.69217e-05
*RES
1 *4360:X *845:6 5.155 
2 *845:6 *845:10 7.97 
3 *845:10 *3480:A 3.6 
4 *845:10 *3481:A 6.705 
5 *845:6 *3632:A1 2.74 
*END

*D_NET *846 0.00296732
*CONN
*I *3474:A I *D sky130_fd_sc_hd__or2_2
*I *3475:A I *D sky130_fd_sc_hd__nand2_2
*I *3633:A1 I *D sky130_fd_sc_hd__mux2_1
*I *4361:X O *D sky130_fd_sc_hd__clkdlybuf4s25_1
*CAP
1 *3474:A 0.000124697
2 *3475:A 0
3 *3633:A1 0
4 *4361:X 0.000400775
5 *846:23 0.000362948
6 *846:12 0.000639026
7 *846:12 *3687:B1 0
8 *846:12 *4296:A 1.70935e-05
9 *846:23 *4296:A 0.000118978
10 *846:23 *988:12 7.37764e-05
11 *3633:A0 *846:23 4.35432e-05
12 *3638:A1 *846:12 0.000433003
13 *3862:CLK *3474:A 3.25831e-05
14 *3862:CLK *846:23 0.000185411
15 *4113:A *3474:A 0.000198934
16 *427:20 *3474:A 0.000154488
17 *427:20 *846:23 4.9968e-05
18 *618:20 *3474:A 0.000132096
*RES
1 *4361:X *846:12 11.645 
2 *846:12 *3633:A1 1.6 
3 *846:12 *846:23 6.815 
4 *846:23 *3475:A 3.6 
5 *846:23 *3474:A 7.32 
*END

*D_NET *847 0.00274294
*CONN
*I *3687:B1 I *D sky130_fd_sc_hd__a221o_2
*I *4362:X O *D sky130_fd_sc_hd__clkdlybuf4s25_1
*CAP
1 *3687:B1 0.00101507
2 *4362:X 0.00101507
3 *3687:B1 *3687:A2 7.92982e-06
4 *3687:B1 *3689:A1 3.97492e-05
5 *3687:B1 *3690:A1 4.10387e-05
6 *3687:B1 *3690:A2 4.76051e-05
7 *3687:B1 *4296:A 0
8 *3687:B1 *988:12 0
9 *3687:B1 *988:29 0
10 *3483:A1 *3687:B1 0.000116158
11 *3483:B1 *3687:B1 0.000137578
12 *3483:B2 *3687:B1 6.62031e-05
13 *3485:C *3687:B1 0
14 *3632:A0 *3687:B1 0
15 *3862:D *3687:B1 3.39151e-05
16 *4360:A *3687:B1 6.10796e-05
17 *4362:A *3687:B1 4.92935e-05
18 *4370:A *3687:B1 9.3305e-05
19 *427:20 *3687:B1 0
20 *434:16 *3687:B1 1.08105e-05
21 *618:12 *3687:B1 8.12408e-06
22 *846:12 *3687:B1 0
*RES
1 *4362:X *3687:B1 24.225 
*END

*D_NET *848 0.00351769
*CONN
*I *3691:A1 I *D sky130_fd_sc_hd__mux2_1
*I *4363:X O *D sky130_fd_sc_hd__clkdlybuf4s25_1
*CAP
1 *3691:A1 0.00119955
2 *4363:X 0.00119955
3 *3691:A1 *908:59 0.0002432
4 *3477:A *3691:A1 9.81229e-05
5 *3479:A *3691:A1 0.000395689
6 *3484:A2 *3691:A1 1.92979e-05
7 *3485:D *3691:A1 1.2782e-05
8 *3627:A1 *3691:A1 1.7309e-05
9 *3859:D *3691:A1 0.000158356
10 *4356:A *3691:A1 1.92979e-05
11 *4358:A *3691:A1 0
12 *4367:A *3691:A1 0
13 *620:32 *3691:A1 9.20357e-05
14 *843:8 *3691:A1 6.24991e-05
*RES
1 *4363:X *3691:A1 18.101 
*END

*D_NET *849 0.00350392
*CONN
*I *3693:A1 I *D sky130_fd_sc_hd__mux2_1
*I *4364:X O *D sky130_fd_sc_hd__clkdlybuf4s25_1
*CAP
1 *3693:A1 0.000589851
2 *4364:X 0.000589851
3 *3693:A1 *3627:S 4.82863e-05
4 *3693:A1 *3693:A0 8.40269e-05
5 *3693:A1 *4321:A 0.000129451
6 *3693:A1 *986:10 4.34042e-05
7 *3693:A1 *986:27 2.75229e-05
8 *3627:A1 *3693:A1 0.000426206
9 *3856:D *3693:A1 0.000274659
10 *4356:A *3693:A1 0
11 *4364:A *3693:A1 0.000611599
12 *427:61 *3693:A1 8.34281e-06
13 *427:67 *3693:A1 5.88664e-05
14 *844:14 *3693:A1 0.000611857
*RES
1 *4364:X *3693:A1 23.7 
*END

*D_NET *850 0.00436591
*CONN
*I *3695:A1 I *D sky130_fd_sc_hd__mux2_1
*I *4365:X O *D sky130_fd_sc_hd__clkdlybuf4s25_1
*CAP
1 *3695:A1 0.00112113
2 *4365:X 0.00112113
3 *3695:A1 *3629:S 5.10096e-05
4 *3695:A1 *3695:A0 5.57821e-05
5 *3695:A1 *3701:A1 0.00039633
6 *3695:A1 *4381:A 0.000176221
7 *3695:A1 *908:49 0.000101043
8 *3485:B *3695:A1 0.000121643
9 *3858:D *3695:A1 0.000241483
10 *4357:A *3695:A1 0.000288917
11 *4364:A *3695:A1 0.000345394
12 *427:55 *3695:A1 0.000121643
13 *844:14 *3695:A1 0.000224192
*RES
1 *4365:X *3695:A1 29.265 
*END

*D_NET *851 0.000521163
*CONN
*I *3643:A1 I *D sky130_fd_sc_hd__mux2_1
*I *4366:X O *D sky130_fd_sc_hd__clkdlybuf4s25_1
*CAP
1 *3643:A1 0.000183517
2 *4366:X 0.000183517
3 *3643:A1 *3647:A1 5.20968e-05
4 *3643:A1 *3647:S 7.19946e-05
5 *3643:A0 *3643:A1 3.00381e-05
6 *623:60 *3643:A1 0
*RES
1 *4366:X *3643:A1 10.56 
*END

*D_NET *852 0.00380493
*CONN
*I *3697:A1 I *D sky130_fd_sc_hd__mux2_1
*I *4367:X O *D sky130_fd_sc_hd__clkdlybuf4s25_1
*CAP
1 *3697:A1 0.000974781
2 *4367:X 0.000974781
3 *3697:A1 *3479:B 0.000219345
4 *3697:A1 *3697:A0 0.000671084
5 *3697:A1 *4318:A 3.09233e-05
6 *3697:A1 *908:73 1.32907e-06
7 *3479:A *3697:A1 4.66108e-05
8 *3484:C1 *3697:A1 1.61831e-05
9 *3628:A0 *3697:A1 9.14049e-05
10 *3857:CLK *3697:A1 0.000143266
11 *3857:D *3697:A1 8.72476e-06
12 *4356:A *3697:A1 4.82863e-05
13 *620:6 *3697:A1 1.08758e-05
14 *620:21 *3697:A1 0.000365994
15 *620:32 *3697:A1 0.000201335
*RES
1 *4367:X *3697:A1 30.745 
*END

*D_NET *853 0.00465582
*CONN
*I *3699:A1 I *D sky130_fd_sc_hd__mux2_1
*I *4368:X O *D sky130_fd_sc_hd__clkdlybuf4s25_1
*CAP
1 *3699:A1 0.00172494
2 *4368:X 0.00172494
3 *3699:A1 *3472:B 4.65865e-05
4 *3699:A1 *3473:B 5.00903e-05
5 *3699:A1 *3644:S 0
6 *3699:A1 *986:27 5.30673e-05
7 *3694:B2 *3699:A1 0.000291141
8 *3700:B2 *3699:A1 3.86623e-05
9 *3860:D *3699:A1 0.000177557
10 *3901:D *3699:A1 4.6075e-05
11 *3902:CLK *3699:A1 0
12 *4092:A *3699:A1 0.000400395
13 *4368:A *3699:A1 0.000102368
*RES
1 *4368:X *3699:A1 24.5879 
*END

*D_NET *854 0.00359183
*CONN
*I *3701:A1 I *D sky130_fd_sc_hd__mux2_1
*I *4369:X O *D sky130_fd_sc_hd__clkdlybuf4s25_1
*CAP
1 *3701:A1 0.000856053
2 *4369:X 0.000856053
3 *3701:A1 *3476:B 0
4 *3701:A1 *3629:S 4.82919e-05
5 *3701:A1 *3695:A0 0
6 *3701:A1 *3858:RESET_B 0.000237243
7 o_transmit_data_request *3701:A1 0
8 *3485:A *3701:A1 0
9 *3629:A0 *3701:A1 8.49205e-05
10 *3695:A1 *3701:A1 0.00039633
11 *3704:B2 *3701:A1 0.000122337
12 *3861:D *3701:A1 0
13 *4170:A *3701:A1 0
14 *4357:A *3701:A1 0.000156621
15 *4369:A *3701:A1 0.000248872
16 *427:43 *3701:A1 0.000428068
17 *427:55 *3701:A1 0
18 *842:10 *3701:A1 0.000157045
*RES
1 *4369:X *3701:A1 26.85 
*END

*D_NET *855 0.00165287
*CONN
*I *3703:A1 I *D sky130_fd_sc_hd__mux2_1
*I *4370:X O *D sky130_fd_sc_hd__clkdlybuf4s25_1
*CAP
1 *3703:A1 0.000519433
2 *4370:X 0.000519433
3 *3703:A1 *987:10 4.19967e-05
4 *3485:C *3703:A1 5.83121e-06
5 *3704:B2 *3703:A1 8.65961e-05
6 *4170:A *3703:A1 0
7 *4369:A *3703:A1 7.07032e-05
8 *427:29 *3703:A1 0.000271308
9 *845:10 *3703:A1 0.000137573
*RES
1 *4370:X *3703:A1 17.01 
*END

*D_NET *856 0.00175037
*CONN
*I *4383:A I *D sky130_fd_sc_hd__clkdlybuf4s25_1
*I *4065:X O *D sky130_fd_sc_hd__buf_2
*CAP
1 *4383:A 0.00060034
2 *4065:X 0.00060034
3 *4383:A *4196:A 6.71882e-05
4 *4383:A *4389:A 4.49498e-05
5 *4383:A *1010:12 0.000124895
6 o_cmd_status_reg[7] *4383:A 7.3664e-05
7 *3634:B *4383:A 8.93911e-05
8 *3634:C_N *4383:A 0
9 *3863:RESET_B *4383:A 0
10 *4174:A *4383:A 0.000149604
11 *4343:A *4383:A 0
12 *4346:A *4383:A 0
*RES
1 *4065:X *4383:A 17.865 
*END

*D_NET *857 0.00210255
*CONN
*I *4384:A I *D sky130_fd_sc_hd__clkdlybuf4s25_1
*I *4066:X O *D sky130_fd_sc_hd__buf_2
*CAP
1 *4384:A 0.000740204
2 *4066:X 0.000740204
3 *4384:A *3660:S 4.82863e-05
4 *4384:A *4066:A 3.00381e-05
5 *4384:A *4168:A 0
6 *4384:A *910:60 2.8185e-05
7 *4384:A *1018:23 5.89823e-05
8 *4384:A *1025:8 0.000124895
9 *3660:A1 *4384:A 9.46725e-05
10 *3882:D *4384:A 4.82919e-05
11 *543:25 *4384:A 0.000121659
12 *605:56 *4384:A 6.71349e-05
13 *614:10 *4384:A 0
14 *614:12 *4384:A 0
15 *614:63 *4384:A 0
*RES
1 *4066:X *4384:A 20.325 
*END

*D_NET *858 0.00172414
*CONN
*I *4385:A I *D sky130_fd_sc_hd__clkdlybuf4s25_1
*I *4067:X O *D sky130_fd_sc_hd__buf_2
*CAP
1 *4385:A 0.000400276
2 *4067:X 0.000400276
3 *4385:A *3395:A 0
4 *4385:A *4168:A 0.000241483
5 *4385:A *4218:A 0.000116158
6 *4385:A *4221:A 0.000117832
7 *4385:A *4386:A 0.000106511
8 *4385:A *4387:A 0.000142661
9 *4385:A *910:10 0
10 o_cmd_status_reg[3] *4385:A 0
11 *3394:A3 *4385:A 6.01134e-05
12 *3659:A1 *4385:A 0
13 *3881:RESET_B *4385:A 2.13686e-05
14 *4379:A *4385:A 9.07429e-05
15 *647:28 *4385:A 2.67143e-05
*RES
1 *4067:X *4385:A 17.13 
*END

*D_NET *859 0.00509537
*CONN
*I *4386:A I *D sky130_fd_sc_hd__clkdlybuf4s25_1
*I *4068:X O *D sky130_fd_sc_hd__buf_2
*CAP
1 *4386:A 0.00176042
2 *4068:X 0.00176042
3 *4386:A *4068:A 3.34494e-05
4 *4386:A *4388:A 0.00130795
5 *4386:A *981:65 8.57752e-05
6 *3659:A1 *4386:A 4.08512e-05
7 *3960:D *4386:A 0
8 *4385:A *4386:A 0.000106511
*RES
1 *4068:X *4386:A 14.6469 
*END

*D_NET *860 0.00299566
*CONN
*I *4387:A I *D sky130_fd_sc_hd__clkdlybuf4s25_1
*I *4069:X O *D sky130_fd_sc_hd__buf_2
*CAP
1 *4387:A 0.000849509
2 *4069:X 0.000849509
3 *4387:A *4168:A 0.00012256
4 *4387:A *910:10 6.58423e-05
5 o_cmd_status_reg[4] *4387:A 1.17409e-05
6 o_cmd_status_reg[6] *4387:A 0.000224808
7 *3659:A0 *4387:A 0.000162311
8 *3659:A1 *4387:A 0.000232099
9 *4125:A *4387:A 0
10 *4341:A *4387:A 0.000261045
11 *4342:A *4387:A 7.35729e-05
12 *4385:A *4387:A 0.000142661
13 *654:10 *4387:A 0
*RES
1 *4069:X *4387:A 24.99 
*END

*D_NET *861 0.00713042
*CONN
*I *4388:A I *D sky130_fd_sc_hd__clkdlybuf4s25_1
*I *4070:X O *D sky130_fd_sc_hd__buf_2
*CAP
1 *4388:A 0.00198844
2 *4070:X 0.00198844
3 *4388:A *4067:A 0
4 *4388:A *4167:A 0
5 *4388:A *4389:A 1.00941e-05
6 *4388:A *4399:A 0
7 *4388:A *910:20 0
8 *4388:A *1025:12 0
9 *3652:A1 *4388:A 7.1624e-05
10 *3654:A1 *4388:A 0.000146232
11 *3878:RESET_B *4388:A 0.000229408
12 *3881:RESET_B *4388:A 0.00138824
13 *4386:A *4388:A 0.00130795
*RES
1 *4070:X *4388:A 20.213 
*END

*D_NET *862 0.00239289
*CONN
*I *3644:A1 I *D sky130_fd_sc_hd__mux2_1
*I *4371:X O *D sky130_fd_sc_hd__clkdlybuf4s25_1
*CAP
1 *3644:A1 0.000834422
2 *4371:X 0.000834422
3 *3644:A1 *3644:S 6.03767e-05
4 *3644:A1 *3646:A1 0
5 *3644:A1 *3646:S 0
6 *3644:A1 *4309:A 0
7 *3644:A1 *929:10 5.33607e-05
8 *3872:D *3644:A1 0.000496214
9 *3874:D *3644:A1 3.86607e-05
10 *608:33 *3644:A1 7.5431e-05
*RES
1 *4371:X *3644:A1 24.85 
*END

*D_NET *863 0.00274992
*CONN
*I *4389:A I *D sky130_fd_sc_hd__clkdlybuf4s25_1
*I *3326:Y O *D sky130_fd_sc_hd__inv_2
*CAP
1 *4389:A 0.00101705
2 *3326:Y 0.00101705
3 *4389:A *3326:A 0
4 *4389:A *1012:14 2.61299e-05
5 o_int_n *4389:A 3.64998e-06
6 *3863:RESET_B *4389:A 3.67779e-05
7 *3968:D *4389:A 0.000385327
8 *3968:RESET_B *4389:A 8.24372e-05
9 *4346:A *4389:A 0
10 *4383:A *4389:A 4.49498e-05
11 *4388:A *4389:A 1.00941e-05
12 *613:22 *4389:A 7.47275e-05
13 *613:35 *4389:A 5.1715e-05
*RES
1 *3326:Y *4389:A 21.33 
*END

*D_NET *864 0.00261917
*CONN
*I *4208:A I *D sky130_fd_sc_hd__dlygate4sd3_1
*I *4390:A I *D sky130_fd_sc_hd__clkdlybuf4s25_1
*I *3884:Q O *D sky130_fd_sc_hd__dfxtp_2
*CAP
1 *4208:A 5.31151e-05
2 *4390:A 0.000806758
3 *3884:Q 5.68799e-05
4 *864:6 0.000916753
5 *4390:A *3750:A1 6.2061e-05
6 *4390:A *3750:S 0.000119242
7 *4049:CLK *4208:A 5.72091e-05
8 *4095:A *4390:A 2.49909e-05
9 *4270:A *4390:A 0.000279787
10 *623:101 *4390:A 0.000185162
11 *641:37 *4208:A 5.72091e-05
*RES
1 *3884:Q *864:6 2.395 
2 *864:6 *4390:A 15.085 
3 *864:6 *4208:A 7.235 
*END

*D_NET *865 0.00330861
*CONN
*I *4391:A I *D sky130_fd_sc_hd__clkdlybuf4s25_1
*I *4206:A I *D sky130_fd_sc_hd__dlygate4sd3_1
*I *3885:Q O *D sky130_fd_sc_hd__dfxtp_2
*CAP
1 *4391:A 0.000317128
2 *4206:A 0
3 *3885:Q 0.000317022
4 *865:12 0.00063415
5 *4391:A *3327:A 0.000116165
6 *4391:A *4392:A 0.000108293
7 *4391:A *4394:A 0.000268891
8 *865:12 *3669:B 4.35541e-05
9 *865:12 *4392:A 0
10 *865:12 *4394:A 0.000187766
11 *865:12 *866:10 0
12 *865:12 *867:16 0.000272885
13 *865:12 *868:18 0.000170982
14 *3408:A2 *4391:A 9.04308e-05
15 *3670:S *865:12 0.000296081
16 *4336:A *4391:A 0.000239681
17 *4337:A *4391:A 6.5265e-05
18 *4375:A *4391:A 0.00011733
19 *642:14 *4391:A 6.29902e-05
*RES
1 *3885:Q *865:12 12.6 
2 *865:12 *4206:A 3.6 
3 *865:12 *4391:A 13.65 
*END

*D_NET *866 0.00279309
*CONN
*I *4392:A I *D sky130_fd_sc_hd__clkdlybuf4s25_1
*I *4207:A I *D sky130_fd_sc_hd__dlygate4sd3_1
*I *3886:Q O *D sky130_fd_sc_hd__dfxtp_2
*CAP
1 *4392:A 0.00025802
2 *4207:A 0.000518555
3 *3886:Q 0.000254074
4 *866:10 0.00103065
5 *4392:A *3405:A 7.16251e-05
6 *866:10 *868:18 7.44375e-05
7 *3666:A1 *4392:A 3.68769e-05
8 *3666:A1 *866:10 6.23375e-05
9 *3670:A0 *4207:A 3.69909e-05
10 *3670:A1 *4207:A 0.000123225
11 *3670:A1 *4392:A 0
12 *3670:S *4207:A 0.000130461
13 *4375:A *4392:A 8.75474e-05
14 *4391:A *4392:A 0.000108293
15 *624:91 *4392:A 0
16 *865:12 *4392:A 0
17 *865:12 *866:10 0
*RES
1 *3886:Q *866:10 7.32 
2 *866:10 *4207:A 11.655 
3 *866:10 *4392:A 9.57 
*END

*D_NET *867 0.00358282
*CONN
*I *4393:A I *D sky130_fd_sc_hd__clkdlybuf4s25_1
*I *4205:A I *D sky130_fd_sc_hd__dlygate4sd3_1
*I *3887:Q O *D sky130_fd_sc_hd__dfxtp_2
*CAP
1 *4393:A 0.000450744
2 *4205:A 2.20365e-05
3 *3887:Q 0.000254111
4 *867:16 0.000726892
5 *867:16 *3669:A 4.66108e-05
6 *867:16 *3669:B 5.33085e-05
7 *867:16 *4394:A 0.00034224
8 o_receive_data[2] *867:16 0.000705641
9 o_receive_data[3] *4205:A 4.66108e-05
10 o_receive_data[3] *4393:A 0.000496862
11 *3988:D *4393:A 0.000164874
12 *865:12 *867:16 0.000272885
*RES
1 *3887:Q *867:16 15.38 
2 *867:16 *4205:A 2.05 
3 *867:16 *4393:A 10.63 
*END

*D_NET *868 0.00375922
*CONN
*I *4203:A I *D sky130_fd_sc_hd__dlygate4sd3_1
*I *4394:A I *D sky130_fd_sc_hd__clkdlybuf4s25_1
*I *3888:Q O *D sky130_fd_sc_hd__dfxtp_2
*CAP
1 *4203:A 0
2 *4394:A 0.000369621
3 *3888:Q 0.000504534
4 *868:18 0.000874154
5 *4394:A *3327:A 0.000116165
6 *868:18 *3669:B 4.78859e-05
7 o_receive_data[1] *4394:A 5.83237e-05
8 o_receive_data[1] *868:18 0
9 o_receive_data[2] *4394:A 7.07946e-05
10 *3408:A2 *4394:A 0.000117089
11 *3666:A1 *868:18 0
12 *3670:S *868:18 0.000341025
13 *4335:A *4394:A 4.58651e-05
14 *4337:A *4394:A 0.000169447
15 *4391:A *4394:A 0.000268891
16 *865:12 *4394:A 0.000187766
17 *865:12 *868:18 0.000170982
18 *866:10 *868:18 7.44375e-05
19 *867:16 *4394:A 0.00034224
*RES
1 *3888:Q *868:18 15.845 
2 *868:18 *4394:A 16.7 
3 *868:18 *4203:A 1.6 
*END

*D_NET *869 0.00251577
*CONN
*I *4395:A I *D sky130_fd_sc_hd__clkdlybuf4s25_1
*I *4200:A I *D sky130_fd_sc_hd__dlygate4sd3_1
*I *3889:Q O *D sky130_fd_sc_hd__dfxtp_2
*CAP
1 *4395:A 0.000131487
2 *4200:A 5.75166e-05
3 *3889:Q 0.000751264
4 *869:10 0.000940268
5 *869:10 *3673:A 0
6 *869:10 *3673:B 0.000121485
7 *869:10 *945:12 0.000112284
8 *3647:A0 *869:10 1.39472e-05
9 *3668:A1 *4395:A 0.000110226
10 *3668:A1 *869:10 4.40812e-05
11 *3670:A0 *869:10 0
12 *3674:S *869:10 1.1392e-05
13 *4056:CLK *4395:A 1.42807e-05
14 *4056:CLK *869:10 8.65037e-05
15 *4056:D *4395:A 0
16 *4095:A *4395:A 0
17 *4277:A *4395:A 0
18 *359:87 *869:10 0
19 *624:44 *4200:A 3.68999e-05
20 *624:46 *4200:A 8.41307e-05
*RES
1 *3889:Q *869:10 15 
2 *869:10 *4200:A 4.74 
3 *869:10 *4395:A 6.555 
*END

*D_NET *870 0.00327435
*CONN
*I *4204:A I *D sky130_fd_sc_hd__dlygate4sd3_1
*I *4396:A I *D sky130_fd_sc_hd__clkdlybuf4s25_1
*I *3890:Q O *D sky130_fd_sc_hd__dfxtp_2
*CAP
1 *4204:A 3.25905e-05
2 *4396:A 0.000817695
3 *3890:Q 0.000289377
4 *870:8 0.00113966
5 *4204:A *4310:A 0
6 *4396:A *3711:A 0.000275369
7 *4396:A *3711:B 0.000208491
8 *4396:A *4298:A 0.000187071
9 *4396:A *4310:A 0
10 *4396:A *909:72 0
11 *4396:A *930:10 0.000106655
12 *3641:A1 *4396:A 9.5101e-05
13 *3645:A0 *4396:A 0
14 *3676:A1 *870:8 8.52901e-05
15 *3869:D *4396:A 0
16 *3873:RESET_B *4396:A 0
17 *4344:A *4396:A 3.70488e-05
18 *623:60 *4204:A 0
19 *623:60 *4396:A 0
20 *640:105 *4396:A 0
*RES
1 *3890:Q *870:8 6.81 
2 *870:8 *4396:A 18.945 
3 *870:8 *4204:A 4.215 
*END

*D_NET *871 0.00508808
*CONN
*I *4210:A I *D sky130_fd_sc_hd__dlygate4sd3_1
*I *4397:A I *D sky130_fd_sc_hd__clkdlybuf4s25_1
*I *3891:Q O *D sky130_fd_sc_hd__dfxtp_2
*CAP
1 *4210:A 0.000100056
2 *4397:A 0.00115464
3 *3891:Q 0.000430426
4 *871:10 0.00168512
5 *4397:A *3735:A 5.28586e-05
6 *4397:A *3735:C 0.000121023
7 *871:10 *3712:B 0
8 *871:10 *3715:B1 0
9 *871:10 *4285:A 5.39718e-05
10 *3678:A1 *4397:A 1.33293e-05
11 *3678:A1 *871:10 0
12 *3678:S *871:10 0
13 *3716:B *871:10 0
14 *3717:A2 *4397:A 0.000232116
15 *3717:B1 *4210:A 9.4087e-05
16 *3717:B1 *4397:A 7.35729e-05
17 *3735:D *4397:A 0.00015721
18 *3736:B *4397:A 6.90522e-05
19 *3736:C *4397:A 9.85031e-05
20 *3741:C *4397:A 0.000187526
21 *3745:A0 *871:10 7.4027e-05
22 *3905:D *871:10 0.00010004
23 *3911:D *4397:A 3.83194e-05
24 *582:10 *4397:A 2.96334e-05
25 *595:8 *4397:A 0.000194891
26 *595:63 *4397:A 0.000127664
*RES
1 *3891:Q *871:10 13.61 
2 *871:10 *4397:A 23.26 
3 *871:10 *4210:A 3.445 
*END

*D_NET *872 0.00448698
*CONN
*I *4398:A I *D sky130_fd_sc_hd__clkdlybuf4s25_1
*I *3977:Q O *D sky130_fd_sc_hd__dfrtp_2
*CAP
1 *4398:A 0.0017222
2 *3977:Q 0.0017222
3 *4398:A *4399:A 0.000159677
4 *4398:A *989:20 5.30673e-05
5 *4398:A *990:10 7.89611e-05
6 o_start_ack *4398:A 0
7 *3878:CLK *4398:A 0.000239807
8 *3965:D *4398:A 0.00011964
9 *3965:RESET_B *4398:A 0.000114491
10 *3971:D *4398:A 0
11 *3978:RESET_B *4398:A 2.30418e-05
12 *4125:A *4398:A 9.50342e-06
13 *4380:A *4398:A 0.000201508
14 *649:10 *4398:A 0
15 *650:10 *4398:A 4.28766e-05
*RES
1 *3977:Q *4398:A 35.275 
*END

*D_NET *873 0.00163354
*CONN
*I *3645:A1 I *D sky130_fd_sc_hd__mux2_1
*I *4372:X O *D sky130_fd_sc_hd__clkdlybuf4s25_1
*CAP
1 *3645:A1 0.000495687
2 *4372:X 0.000495687
3 *3645:A1 *3647:A1 0.000178512
4 *3645:A1 *909:63 0.000463657
5 *3870:CLK *3645:A1 0
6 *4372:A *3645:A1 0
7 *619:59 *3645:A1 0
*RES
1 *4372:X *3645:A1 18.225 
*END

*D_NET *874 0.00126601
*CONN
*I *4399:A I *D sky130_fd_sc_hd__clkdlybuf4s25_1
*I *3978:Q O *D sky130_fd_sc_hd__dfrtp_2
*CAP
1 *4399:A 0.000472661
2 *3978:Q 0.000472661
3 *3654:A1 *4399:A 0
4 *3877:D *4399:A 6.44134e-05
5 *3878:CLK *4399:A 0
6 *3878:D *4399:A 9.66021e-05
7 *4388:A *4399:A 0
8 *4398:A *4399:A 0.000159677
*RES
1 *3978:Q *4399:A 14.28 
*END

*D_NET *875 0.0146167
*CONN
*I *3718:B I *D sky130_fd_sc_hd__or2_2
*I *3725:A2 I *D sky130_fd_sc_hd__o2111a_2
*I *4400:A I *D sky130_fd_sc_hd__clkdlybuf4s25_1
*I *3524:A3 I *D sky130_fd_sc_hd__a31o_2
*I *3972:Q O *D sky130_fd_sc_hd__dfrtp_2
*CAP
1 *3718:B 0.000164001
2 *3725:A2 7.57003e-05
3 *4400:A 0.00239527
4 *3524:A3 0.000701053
5 *3972:Q 1.92371e-05
6 *875:58 0.00103358
7 *875:31 0.0043197
8 *875:8 0.00185084
9 *3524:A3 *4314:A 3.64998e-06
10 *3524:A3 *1004:12 4.38278e-05
11 *3718:B *3725:A1 0.000143266
12 *3718:B *3725:C1 0
13 *3718:B *4254:A 0
14 *3718:B *999:8 2.75229e-05
15 *4400:A *3620:A2 0.000112549
16 *4400:A *908:49 0.000429862
17 *4400:A *908:59 0.000791867
18 *875:58 *3720:A 0
19 *875:58 *3754:S 0
20 *875:58 *4271:A 0
21 *875:58 *961:26 0.000153139
22 *3453:A2 *3524:A3 9.54399e-05
23 *3485:D *4400:A 0.000764521
24 *3721:C *875:58 0
25 *3949:D *3524:A3 7.89178e-05
26 *3972:CLK *3524:A3 0.000270647
27 *3972:D *3524:A3 9.68787e-05
28 *4063:D *875:58 0
29 *4063:RESET_B *875:58 0.000150763
30 *4356:A *4400:A 0
31 *109:14 *3524:A3 0
32 *114:10 *3524:A3 0
33 *427:67 *4400:A 0.000320113
34 *604:12 *875:31 0.000568181
35 *604:12 *875:58 6.18378e-06
36 *774:10 *875:58 0
*RES
1 *3972:Q *875:8 3.8325 
2 *875:8 *3524:A3 17.8225 
3 *875:8 *875:31 3.28127 
4 *875:31 *4400:A 13.5034 
5 *875:31 *875:58 8.99443 
6 *875:58 *3725:A2 4.395 
7 *875:58 *3718:B 7.005 
*END

*D_NET *876 0.0130626
*CONN
*I *3766:A1 I *D sky130_fd_sc_hd__o21a_2
*I *3802:A1 I *D sky130_fd_sc_hd__o21a_2
*I *3803:A1 I *D sky130_fd_sc_hd__o21a_2
*I *3801:A1 I *D sky130_fd_sc_hd__o21a_2
*I *3800:A1 I *D sky130_fd_sc_hd__o21a_2
*I *3799:A1 I *D sky130_fd_sc_hd__o21a_2
*I *3798:A1 I *D sky130_fd_sc_hd__o21a_2
*I *3797:A1 I *D sky130_fd_sc_hd__o21a_2
*I *3796:A1 I *D sky130_fd_sc_hd__o21a_2
*I *3795:A1 I *D sky130_fd_sc_hd__o21a_2
*I *4137:X O *D sky130_fd_sc_hd__clkdlybuf4s25_1
*CAP
1 *3766:A1 0.000141769
2 *3802:A1 0.000220158
3 *3803:A1 5.62644e-05
4 *3801:A1 3.75529e-05
5 *3800:A1 0.000281418
6 *3799:A1 0.000334085
7 *3798:A1 8.55084e-05
8 *3797:A1 5.56898e-05
9 *3796:A1 0
10 *3795:A1 1.89181e-05
11 *4137:X 0.000210581
12 *876:102 9.38173e-05
13 *876:100 0.00035455
14 *876:87 0.000770378
15 *876:70 0.001037
16 *876:55 0.000579355
17 *876:30 0.000171957
18 *876:26 0.000472113
19 *876:20 0.00103858
20 *876:6 0.000982045
21 *3766:A1 *877:14 0
22 *3795:A1 *3795:A2 4.89295e-05
23 *3797:A1 *3667:A 4.18603e-06
24 *3797:A1 *3797:A2 0.000118513
25 *3799:A1 *890:79 0.000132586
26 *3799:A1 *890:92 9.09788e-06
27 *3799:A1 *1057:12 1.91597e-05
28 *3800:A1 *3800:A2 5.1341e-05
29 *3801:A1 *3803:A2 2.49909e-05
30 *3801:A1 *890:120 4.88478e-05
31 *3801:A1 *1059:10 6.21763e-05
32 *3802:A1 *3354:A 5.67399e-05
33 *3802:A1 *3802:A2 0.000302182
34 *3803:A1 *3803:A2 9.80943e-06
35 *3803:A1 *1059:10 0.000120655
36 *876:6 *3767:A2 8.43946e-05
37 *876:6 *891:49 0.000315311
38 *876:6 *1042:10 0.000190751
39 *876:20 *3365:D 4.47209e-05
40 *876:20 *3507:A 4.70919e-05
41 *876:20 *3767:A1 1.08758e-05
42 *876:20 *3767:A2 0.000106136
43 *876:20 *877:14 3.05295e-05
44 *876:20 *877:31 0.00010412
45 *876:20 *1042:25 0.000341885
46 *876:20 *1042:29 0.000158689
47 *876:26 *3507:B 9.43747e-05
48 *876:26 *3797:A2 0
49 *876:30 *3507:B 8.73389e-06
50 *876:30 *3795:A2 9.3988e-06
51 *876:70 *1057:12 0.000224523
52 *876:87 *3512:A2 0
53 *876:87 *3512:B1 4.40725e-05
54 *876:87 *890:79 9.61414e-05
55 *876:87 *890:92 0
56 *876:100 *3354:A 3.59531e-06
57 *876:100 *3512:B1 2.97004e-06
58 *876:100 *3802:A2 4.99345e-05
59 *876:100 *1059:10 9.64383e-05
60 *3387:B1 *876:20 0.000229541
61 *3388:A1 *3766:A1 0.000158965
62 *3510:B1 *876:70 0.000160651
63 *3510:B1 *876:87 0
64 *3510:C1 *876:26 4.39656e-05
65 *3510:C1 *876:55 0.000282505
66 *3510:C1 *876:70 6.90055e-05
67 *3795:B1 *876:30 1.60518e-05
68 *3796:B1 *876:30 7.83998e-05
69 *3799:B1 *3799:A1 0.000111038
70 *3802:B1 *3802:A1 0
71 *3803:B1 *3797:A1 0
72 *3803:B1 *876:26 9.84957e-05
73 *3803:B1 *876:55 0.000515787
74 *3803:B1 *876:70 0.000289698
75 *3918:CLK *876:20 0.000199734
76 *3918:D *876:6 5.83121e-06
77 *3918:D *876:20 2.75145e-05
78 *3991:D *3799:A1 0
79 *3995:CLK *3800:A1 4.53674e-05
80 *3995:D *3800:A1 3.57625e-05
81 *11:10 *3766:A1 0.000105648
82 *387:14 *3803:A1 5.54184e-05
83 *387:14 *876:87 0
84 *606:45 *3766:A1 0.000160635
85 *641:99 *3799:A1 0.000224193
86 *641:99 *876:87 2.84864e-05
87 *641:124 *3799:A1 0.00010427
88 *641:124 *876:87 0
89 *641:139 *876:100 0
*RES
1 *4137:X *876:6 7.915 
2 *876:6 *876:20 19.485 
3 *876:20 *876:26 5.99 
4 *876:26 *876:30 2.1 
5 *876:30 *3795:A1 2.05 
6 *876:30 *3796:A1 1.6 
7 *876:26 *3797:A1 6.98 
8 *876:20 *876:55 5.97 
9 *876:55 *3798:A1 4.74 
10 *876:55 *876:70 8.975 
11 *876:70 *3799:A1 11.465 
12 *876:70 *876:87 8.225 
13 *876:87 *3800:A1 7.08 
14 *876:87 *876:100 2.91 
15 *876:100 *876:102 2 
16 *876:102 *3801:A1 2.74 
17 *876:102 *3803:A1 3.46 
18 *876:100 *3802:A1 8.235 
19 *876:6 *3766:A1 9.23 
*END

*D_NET *877 0.00941328
*CONN
*I *3850:A1 I *D sky130_fd_sc_hd__o21a_2
*I *3765:A1 I *D sky130_fd_sc_hd__o21a_2
*I *3770:A1 I *D sky130_fd_sc_hd__o21a_2
*I *3769:A1 I *D sky130_fd_sc_hd__o21a_2
*I *4137:A I *D sky130_fd_sc_hd__clkdlybuf4s25_1
*I *3767:A1 I *D sky130_fd_sc_hd__o21a_2
*I *4138:X O *D sky130_fd_sc_hd__clkdlybuf4s25_1
*CAP
1 *3850:A1 0.000198664
2 *3765:A1 0
3 *3770:A1 0.000360234
4 *3769:A1 0
5 *4137:A 0.000256041
6 *3767:A1 2.74502e-05
7 *4138:X 0
8 *877:48 0.00103528
9 *877:31 0.00167241
10 *877:14 0.00127279
11 *877:8 0.000642146
12 *877:4 0.000336788
13 *3767:A1 *3365:D 8.49205e-05
14 *3767:A1 *3767:A2 1.61831e-05
15 *3770:A1 *3768:A1 8.80323e-05
16 *3770:A1 *3768:A2 9.80943e-06
17 *3770:A1 *3769:A2 4.82863e-05
18 *3770:A1 *3770:A2 0.000201503
19 *3850:A1 *3765:A2 3.66286e-05
20 *3850:A1 *3850:A2 8.78813e-05
21 *3850:A1 *4151:A 0
22 *3850:A1 *4175:A 9.50342e-06
23 *3850:A1 *891:10 1.52184e-05
24 *4137:A *3363:A1 6.55328e-05
25 *4137:A *891:49 0
26 *4137:A *891:62 0
27 *877:8 *3765:A2 0.000238919
28 *877:14 *4281:A 6.74079e-05
29 *877:14 *1041:10 0
30 *877:14 *1041:21 0
31 *877:31 *3363:A1 4.80285e-05
32 *877:31 *3365:B 0.00015356
33 *877:31 *3383:A1 5.4003e-05
34 *877:31 *890:27 0.000172007
35 *877:48 *3363:A1 2.42236e-05
36 *877:48 *3768:A1 2.05056e-05
37 *877:48 *3768:A2 2.75145e-05
38 *877:48 *891:62 0
39 *3372:A2 *877:48 0.000116151
40 *3387:B1 *877:31 0
41 *3765:B1 *3850:A1 4.21973e-05
42 *3766:A1 *877:14 0
43 *3767:B1 *877:14 0.00011852
44 *3770:B1 *3770:A1 0.000352156
45 *3771:B1 *3770:A1 2.07184e-05
46 *3917:D *877:14 9.30717e-05
47 *3917:RESET_B *877:8 4.99619e-05
48 *3917:RESET_B *877:14 0
49 *3918:CLK *877:31 4.24292e-06
50 *3919:CLK *877:31 0.0002437
51 *3919:D *877:31 3.00381e-05
52 *3919:RESET_B *877:31 3.09364e-05
53 *3921:RESET_B *3770:A1 3.68682e-05
54 *3997:RESET_B *877:48 0
55 *11:10 *3850:A1 3.94899e-06
56 *11:10 *877:14 0
57 *394:27 *877:48 4.31106e-05
58 *396:14 *877:48 0
59 *396:32 *877:31 0.000116853
60 *396:96 *877:48 0.000146881
61 *644:55 *4137:A 0
62 *644:55 *877:48 0
63 *644:66 *877:48 0
64 *644:77 *877:48 0
65 *644:83 *877:48 6.02202e-05
66 *644:103 *3770:A1 0.00046962
67 *644:103 *877:48 1.70935e-05
68 *785:10 *877:14 0
69 *876:20 *3767:A1 1.08758e-05
70 *876:20 *877:14 3.05295e-05
71 *876:20 *877:31 0.00010412
*RES
1 *4138:X *877:4 1.6 
2 *877:4 *877:8 2.88 
3 *877:8 *877:14 11.06 
4 *877:14 *3767:A1 4.395 
5 *877:14 *877:31 19.075 
6 *877:31 *4137:A 7.98 
7 *877:31 *877:48 15.05 
8 *877:48 *3769:A1 1.6 
9 *877:48 *3770:A1 15.68 
10 *877:8 *3765:A1 1.6 
11 *877:4 *3850:A1 9.395 
*END

*D_NET *878 0.014903
*CONN
*I *3793:A1 I *D sky130_fd_sc_hd__o21a_2
*I *3791:A1 I *D sky130_fd_sc_hd__o21a_2
*I *3790:A1 I *D sky130_fd_sc_hd__o21a_2
*I *3786:A1 I *D sky130_fd_sc_hd__o21a_2
*I *3849:A1 I *D sky130_fd_sc_hd__o21a_2
*I *3846:A1 I *D sky130_fd_sc_hd__o21a_2
*I *3764:A1 I *D sky130_fd_sc_hd__o21a_2
*I *3789:A1 I *D sky130_fd_sc_hd__o21a_2
*I *3848:A1 I *D sky130_fd_sc_hd__o21a_2
*I *3792:A1 I *D sky130_fd_sc_hd__o21a_2
*I *4139:X O *D sky130_fd_sc_hd__clkdlybuf4s25_1
*CAP
1 *3793:A1 7.80306e-05
2 *3791:A1 0.00013173
3 *3790:A1 1.71692e-05
4 *3786:A1 0.000310513
5 *3849:A1 0.000415816
6 *3846:A1 0.000111865
7 *3764:A1 2.08101e-05
8 *3789:A1 0.000275575
9 *3848:A1 0
10 *3792:A1 0.000459887
11 *4139:X 0.000278292
12 *878:92 0.0008984
13 *878:64 0.000320178
14 *878:62 0.000527946
15 *878:53 0.000287093
16 *878:47 0.000562658
17 *878:43 0.000285561
18 *878:33 0.000500984
19 *878:16 0.00108336
20 *878:6 0.000780445
21 *3786:A1 *3786:A2 0.00020857
22 *3789:A1 *3789:A2 0.000418412
23 *3789:A1 *4138:A 0.000278117
24 *3791:A1 *3791:A2 6.26047e-05
25 *3792:A1 *3440:A1 0
26 *3792:A1 *3792:A2 0.000288977
27 *3793:A1 *3793:A2 0.000298435
28 *3793:A1 *894:83 0.000167709
29 *3846:A1 *3324:A 0.000252289
30 *3849:A1 *3846:A2 6.55328e-05
31 *878:6 *4139:A 1.19928e-05
32 *878:16 *1035:12 0.000120881
33 *878:33 *1035:12 0
34 *878:43 *892:52 3.57349e-05
35 *878:47 *892:52 0.000460271
36 *878:53 *3440:A1 8.40269e-05
37 *878:53 *892:58 0.000198425
38 *878:62 *4138:A 0.000309607
39 *878:62 *892:58 2.01565e-05
40 *878:62 *892:62 2.17931e-05
41 *878:64 *4138:A 0.000124895
42 *878:92 *3324:A 6.21553e-05
43 *878:92 *3434:A 0
44 *3363:B1 *3786:A1 0
45 *3363:B1 *878:53 0
46 *3390:A1 *3846:A1 2.03578e-05
47 *3390:A1 *3849:A1 3.96653e-05
48 *3390:A1 *878:92 6.57653e-06
49 *3390:A2 *878:92 0
50 *3390:B1 *3849:A1 0.000273872
51 *3390:B1 *878:92 0.000100301
52 *3398:A *3846:A1 0
53 *3438:B1 *3786:A1 4.5783e-05
54 *3440:B1 *3792:A1 0.000157835
55 *3440:B1 *878:16 0.000184263
56 *3528:B1 *3786:A1 4.75576e-05
57 *3786:B1 *3786:A1 1.62913e-05
58 *3790:B1 *3790:A1 4.00541e-06
59 *3790:B1 *878:33 6.1271e-05
60 *3790:B1 *878:43 8.43857e-05
61 *3791:B1 *878:33 8.08153e-06
62 *3916:D *3849:A1 8.22234e-06
63 *3916:RESET_B *878:92 0.000283598
64 *3938:D *3786:A1 0.000383684
65 *3938:SET_B *3786:A1 3.68596e-05
66 *3942:SET_B *878:33 6.8472e-05
67 *3942:SET_B *878:43 4.66108e-05
68 *3943:RESET_B *3791:A1 4.82863e-05
69 *3943:RESET_B *878:33 0.000180533
70 *4038:D *878:53 1.46744e-05
71 *4038:SET_B *3846:A1 0
72 *4040:D *878:92 0
73 *360:33 *3786:A1 0.000152814
74 *360:33 *878:53 0.000134539
75 *367:20 *3786:A1 8.49205e-05
76 *603:55 *878:16 0
77 *603:105 *3791:A1 7.25441e-05
78 *603:105 *878:43 6.18964e-05
79 *603:105 *878:47 0.000259682
80 *606:35 *3789:A1 7.21296e-06
81 *627:40 *878:33 0.000137571
82 *643:67 *3849:A1 4.91189e-05
83 *643:76 *3849:A1 4.18603e-06
84 *643:98 *3789:A1 0.000168213
85 *643:98 *878:64 6.6564e-05
86 *643:107 *878:62 0.000159217
87 *643:107 *878:64 5.83121e-06
88 *644:10 *3789:A1 0
89 *644:14 *3789:A1 8.65905e-05
90 *644:27 *3789:A1 6.92319e-05
91 *645:78 *878:53 0.000267846
92 *645:101 *3786:A1 2.83678e-05
93 *678:12 *878:6 6.71882e-05
94 *678:12 *878:16 6.1357e-05
95 *723:10 *878:92 0
*RES
1 *4139:X *878:6 4.81 
2 *878:6 *878:16 10.075 
3 *878:16 *3792:A1 7.945 
4 *878:16 *878:33 9.205 
5 *878:33 *878:43 3.45 
6 *878:43 *878:47 6.245 
7 *878:47 *878:53 6.5 
8 *878:53 *3848:A1 1.6 
9 *878:53 *878:62 3.915 
10 *878:62 *878:64 1.14 
11 *878:64 *3789:A1 13.985 
12 *878:64 *3764:A1 1.96 
13 *878:62 *878:92 10.01 
14 *878:92 *3846:A1 6.51 
15 *878:92 *3849:A1 13.57 
16 *878:47 *3786:A1 13.02 
17 *878:43 *3790:A1 1.96 
18 *878:33 *3791:A1 4.135 
19 *878:6 *3793:A1 9.02 
*END

*D_NET *879 0.013673
*CONN
*I *3804:A1 I *D sky130_fd_sc_hd__o21a_2
*I *3772:A1 I *D sky130_fd_sc_hd__o21a_2
*I *3771:A1 I *D sky130_fd_sc_hd__o21a_2
*I *3768:A1 I *D sky130_fd_sc_hd__o21a_2
*I *3773:A1 I *D sky130_fd_sc_hd__o21a_2
*I *3794:A1 I *D sky130_fd_sc_hd__o21a_2
*I *3805:A1 I *D sky130_fd_sc_hd__o21a_2
*I *3774:A1 I *D sky130_fd_sc_hd__o21a_2
*I *3788:A1 I *D sky130_fd_sc_hd__o21a_2
*I *4140:X O *D sky130_fd_sc_hd__clkdlybuf4s25_1
*CAP
1 *3804:A1 0
2 *3772:A1 3.16532e-05
3 *3771:A1 0.000366751
4 *3768:A1 0.000944246
5 *3773:A1 0
6 *3794:A1 0
7 *3805:A1 0.000182779
8 *3774:A1 6.05281e-05
9 *3788:A1 0.000154172
10 *4140:X 0.00032885
11 *879:83 0.00138382
12 *879:74 0.00039168
13 *879:68 0.000509773
14 *879:59 0.000203309
15 *879:37 0.0012209
16 *879:29 0.00127165
17 *879:25 0.0005473
18 *879:8 0.000780306
19 *3768:A1 *3370:A 3.83194e-05
20 *3768:A1 *3768:A2 2.22589e-05
21 *3768:A1 *3769:A2 6.43122e-05
22 *3768:A1 *3770:A2 8.49205e-05
23 *3768:A1 *1047:14 0.000279787
24 *3768:A1 *1047:20 4.82919e-05
25 *3768:A1 *1048:69 0.000139815
26 *3771:A1 *3771:A2 0.000773897
27 *3774:A1 *3774:A2 0.000117832
28 *3788:A1 *3788:A2 0.000342021
29 *3805:A1 *3774:A2 0.000178248
30 *3805:A1 *3805:A2 1.83756e-05
31 *3805:A1 *893:31 1.56428e-05
32 *879:8 *4140:A 3.1835e-05
33 *879:25 *3788:A2 0.000360604
34 *879:25 *893:25 0.000378903
35 *879:29 *893:27 0.000292995
36 *879:29 *893:31 1.34594e-05
37 *879:37 *893:55 5.39961e-05
38 *879:37 *1051:20 0
39 *879:59 *4291:A 3.25831e-05
40 *879:59 *893:55 0.000164686
41 *879:59 *1052:8 9.71067e-05
42 *879:68 *4291:A 0.00017354
43 *879:68 *893:55 5.16348e-05
44 *879:68 *893:74 0.000264484
45 *879:74 *3771:A2 0
46 *879:74 *893:80 0
47 *879:83 *3768:A2 1.34503e-05
48 *3363:A3 *3774:A1 4.18603e-06
49 *3373:A3 *3768:A1 9.95949e-05
50 *3768:B1 *3768:A1 2.30292e-05
51 *3770:A1 *3768:A1 8.80323e-05
52 *3773:B1 *3768:A1 2.16917e-05
53 *3788:B1 *3788:A1 0
54 *3804:B1 *879:25 7.49327e-05
55 *3804:B1 *879:29 0.000124007
56 *3923:RESET_B *3771:A1 0
57 *3925:RESET_B *3771:A1 0.000144882
58 *3939:CLK *879:8 1.1392e-05
59 *3939:CLK *879:25 7.97165e-05
60 *3939:D *3788:A1 3.86607e-05
61 *3939:D *879:25 2.68721e-05
62 *3939:RESET_B *879:8 3.1562e-06
63 *3940:RESET_B *3788:A1 0
64 *3940:RESET_B *879:25 0
65 *3986:RESET_B *879:37 0
66 *3986:RESET_B *879:59 0
67 *3996:D *879:29 7.60965e-05
68 *4253:A *879:37 0.000111096
69 *394:27 *3768:A1 5.36372e-05
70 *394:85 *3768:A1 4.36241e-05
71 *626:21 *3774:A1 0
72 *626:21 *3805:A1 0
73 *628:42 *879:25 0.000197127
74 *644:66 *3805:A1 0
75 *644:77 *3805:A1 0
76 *877:48 *3768:A1 2.05056e-05
*RES
1 *4140:X *879:8 7.155 
2 *879:8 *3788:A1 7.47 
3 *879:8 *879:25 11.825 
4 *879:25 *879:29 7.97 
5 *879:29 *879:37 15.985 
6 *879:37 *3774:A1 4.98 
7 *879:37 *3805:A1 7.305 
8 *879:29 *879:59 1.89 
9 *879:59 *3794:A1 3.6 
10 *879:59 *879:68 4.185 
11 *879:68 *879:74 6.92 
12 *879:74 *3773:A1 1.6 
13 *879:74 *879:83 1.155 
14 *879:83 *3768:A1 15.07 
15 *879:83 *3771:A1 15.44 
16 *879:68 *3772:A1 4.05 
17 *879:25 *3804:A1 1.6 
*END

*D_NET *880 0.0183184
*CONN
*I *4140:A I *D sky130_fd_sc_hd__clkdlybuf4s25_1
*I *4139:A I *D sky130_fd_sc_hd__clkdlybuf4s25_1
*I *3784:A1 I *D sky130_fd_sc_hd__o21a_2
*I *4138:A I *D sky130_fd_sc_hd__clkdlybuf4s25_1
*I *3782:A1 I *D sky130_fd_sc_hd__o21a_2
*I *3824:A1 I *D sky130_fd_sc_hd__o21a_2
*I *3806:A1 I *D sky130_fd_sc_hd__o21a_2
*I *3775:A1 I *D sky130_fd_sc_hd__o21a_2
*I *4141:X O *D sky130_fd_sc_hd__clkdlybuf4s25_1
*CAP
1 *4140:A 0.00062124
2 *4139:A 4.68212e-05
3 *3784:A1 0
4 *4138:A 0.00120004
5 *3782:A1 1.88809e-05
6 *3824:A1 1.36534e-05
7 *3806:A1 0.000156835
8 *3775:A1 0
9 *4141:X 0.000477801
10 *880:102 0.00111622
11 *880:91 0.000898424
12 *880:61 0.00129623
13 *880:59 0.000792959
14 *880:38 0.000753067
15 *880:21 0.000722265
16 *880:12 0.000569201
17 *3782:A1 *911:62 5.4155e-06
18 *4138:A *3434:A 0.000343484
19 *4138:A *3662:A1 0.000294421
20 *4138:A *911:62 3.1562e-06
21 *4140:A *3777:A1 0
22 *4140:A *3777:A2 0
23 *4140:A *4153:A 0.000511446
24 *4140:A *894:83 8.22555e-05
25 *880:12 *3329:A 7.73272e-05
26 *880:12 *894:12 0.000104905
27 *880:38 *3470:A2 4.84472e-05
28 *880:59 *4192:A 0.000342657
29 *880:59 *894:72 3.50033e-05
30 *880:59 *911:62 0.000342942
31 *880:61 *894:72 0.000271308
32 *880:61 *911:62 1.90762e-05
33 *880:91 *4261:A 0.000115779
34 *880:91 *894:72 0.000287624
35 *880:102 *894:83 0.000326413
36 *3363:A2 *4138:A 0.000199106
37 *3363:B1 *880:91 0.000348699
38 *3389:B1 *4138:A 0.000117402
39 *3430:B1 *880:38 0
40 *3430:B2 *880:38 0
41 *3469:A1 *880:12 5.21289e-05
42 *3469:A1 *880:38 0
43 *3686:B1 *880:12 0
44 *3765:B1 *4138:A 9.23772e-05
45 *3775:B1 *3806:A1 0.000191232
46 *3775:B1 *880:21 0.000295605
47 *3782:B1 *880:59 0.000111316
48 *3784:B1 *880:91 6.90876e-05
49 *3784:B1 *880:102 0.000312964
50 *3789:A1 *4138:A 0.000278117
51 *3790:B1 *4138:A 1.88602e-05
52 *3793:B1 *880:102 6.81237e-05
53 *3824:B1 *3824:A1 4.66108e-05
54 *3883:SET_B *3824:A1 4.66108e-05
55 *3934:CLK *880:59 9.27495e-05
56 *3958:D *880:38 0.000114492
57 *3998:RESET_B *3806:A1 0.000118081
58 *3998:RESET_B *880:21 0.000237249
59 *4016:D *880:59 1.44259e-05
60 *4019:D *880:12 8.40213e-05
61 *4093:A *3806:A1 2.8694e-05
62 *4122:A *880:38 0.000114492
63 *4122:A *880:59 0.000174512
64 *4195:A *4140:A 0
65 *4236:A *880:61 0.000235573
66 *4236:A *880:91 0.000262114
67 *4241:A *880:12 6.28843e-05
68 *354:24 *4138:A 0.00105309
69 *362:25 *880:12 8.53113e-06
70 *621:91 *3806:A1 6.95479e-06
71 *621:97 *880:38 0.000140483
72 *636:109 *3806:A1 8.41307e-05
73 *643:98 *4138:A 9.01939e-05
74 *646:43 *880:38 0.000499778
75 *658:68 *880:102 0.000111324
76 *678:12 *4139:A 4.66108e-05
77 *678:12 *880:102 0.000116158
78 *878:6 *4139:A 1.19928e-05
79 *878:62 *4138:A 0.000309607
80 *878:64 *4138:A 0.000124895
81 *879:8 *4140:A 3.1835e-05
*RES
1 *4141:X *880:12 12.41 
2 *880:12 *3775:A1 1.6 
3 *880:12 *880:21 3.225 
4 *880:21 *3806:A1 4.825 
5 *880:21 *880:38 12.695 
6 *880:38 *3824:A1 4.05 
7 *880:38 *880:59 14.325 
8 *880:59 *880:61 2.865 
9 *880:61 *3782:A1 1.96 
10 *880:61 *4138:A 29.825 
11 *880:59 *880:91 10.47 
12 *880:91 *3784:A1 1.6 
13 *880:91 *880:102 13.13 
14 *880:102 *4139:A 4.395 
15 *880:102 *4140:A 16.74 
*END

*D_NET *881 0.0196298
*CONN
*I *3626:A1 I *D sky130_fd_sc_hd__o21a_2
*I *3819:A1 I *D sky130_fd_sc_hd__o21a_2
*I *3820:A1 I *D sky130_fd_sc_hd__o21a_2
*I *3814:A1 I *D sky130_fd_sc_hd__o21a_2
*I *3815:A1 I *D sky130_fd_sc_hd__o21a_2
*I *3816:A1 I *D sky130_fd_sc_hd__o21a_2
*I *3822:A1 I *D sky130_fd_sc_hd__o21a_2
*I *3818:A1 I *D sky130_fd_sc_hd__o21a_2
*I *3821:A1 I *D sky130_fd_sc_hd__o21a_2
*I *3817:A1 I *D sky130_fd_sc_hd__o21a_2
*I *4142:X O *D sky130_fd_sc_hd__clkdlybuf4s25_1
*CAP
1 *3626:A1 0.000896611
2 *3819:A1 0
3 *3820:A1 0.000397887
4 *3814:A1 0
5 *3815:A1 0.000164192
6 *3816:A1 2.0132e-05
7 *3822:A1 0.000336548
8 *3818:A1 1.46197e-05
9 *3821:A1 7.25274e-05
10 *3817:A1 0.000216052
11 *4142:X 6.05552e-05
12 *881:107 0.00057259
13 *881:103 0.00183408
14 *881:90 0.000981234
15 *881:65 0.000552501
16 *881:31 8.71471e-05
17 *881:29 0.000428267
18 *881:23 0.000566545
19 *881:10 0.000818367
20 *881:8 0.000378019
21 *3626:A1 *3543:C1 0.000221352
22 *3626:A1 *3626:A2 0
23 *3626:A1 *3808:A1 1.17114e-05
24 *3626:A1 *3809:A1 0
25 *3626:A1 *882:90 0
26 *3626:A1 *897:60 0
27 *3626:A1 *904:8 9.30787e-05
28 *3626:A1 *1079:10 2.54436e-05
29 *3626:A1 *1079:16 8.09021e-06
30 *3815:A1 *3815:A2 0.000119762
31 *3815:A1 *896:110 3.66286e-05
32 *3815:A1 *1085:19 7.47284e-05
33 *3817:A1 *910:20 0.000313775
34 *3818:A1 *3818:A2 5.83121e-06
35 *3818:A1 *896:45 1.91597e-05
36 *3820:A1 *3820:A2 3.64998e-06
37 *3820:A1 *4326:A 1.01661e-05
38 *3820:A1 *904:57 6.83006e-05
39 *3820:A1 *904:63 1.07797e-05
40 *3820:A1 *1074:14 0
41 *3821:A1 *896:45 1.91597e-05
42 *3822:A1 *3820:A2 0
43 *3822:A1 *896:45 0
44 *3822:A1 *896:56 0
45 *881:8 *4142:A 8.49205e-05
46 *881:10 *910:20 0.00024361
47 *881:23 *3554:A1 4.77807e-05
48 *881:23 *4184:A 2.21074e-05
49 *881:23 *896:31 8.28018e-06
50 *881:23 *896:39 1.07593e-05
51 *881:23 *1118:14 4.23008e-05
52 *881:29 *896:39 0.000107174
53 *881:65 *896:110 0.00034058
54 *881:65 *910:20 0.000107658
55 *881:90 *896:110 8.53113e-06
56 *881:90 *896:123 0.000249933
57 *881:90 *910:20 0.000568034
58 *881:103 *896:133 0.00100368
59 *3348:A *881:103 7.00889e-06
60 *3490:C *3626:A1 0.000312077
61 *3494:B *3626:A1 2.50049e-05
62 *3494:C *3626:A1 0.00010133
63 *3535:A1 *3626:A1 0.000118527
64 *3548:B1 *3626:A1 0.00025626
65 *3548:B1 *881:103 6.65725e-05
66 *3549:B1 *881:103 4.99619e-05
67 *3554:A2 *3822:A1 0
68 *3554:A2 *881:23 2.27628e-05
69 *3554:B1 *881:23 0.000233604
70 *3555:A2 *3815:A1 1.91597e-05
71 *3557:B *881:65 0.000118527
72 *3564:A *3820:A1 0
73 *3567:A1 *3820:A1 0.000176728
74 *3567:A1 *881:103 1.34503e-05
75 *3634:C_N *3817:A1 4.43871e-06
76 *3808:B1 *3626:A1 0
77 *3809:B1 *3626:A1 0.000201508
78 *3816:B1 *3822:A1 9.72118e-06
79 *3816:B1 *881:23 8.35157e-05
80 *3816:B1 *881:29 1.56261e-05
81 *4006:RESET_B *881:103 4.99619e-05
82 *4007:RESET_B *881:90 0.000140905
83 *4008:RESET_B *881:23 4.77807e-05
84 *4011:RESET_B *3820:A1 0.000163992
85 *4012:RESET_B *3820:A1 0.000326048
86 *4048:D *3817:A1 0.000161318
87 *4084:A *3626:A1 0.000365334
88 *4084:A *3820:A1 2.05056e-05
89 *4084:A *881:103 0.000158297
90 *4148:A *881:23 0.00033902
91 *4246:A *3821:A1 0.000421202
92 *4246:A *881:23 8.35118e-05
93 *4246:A *881:29 0.000172773
94 *457:12 *3626:A1 0.000200648
95 *457:12 *881:103 0.000159957
96 *493:18 *3822:A1 0
97 *501:12 *3820:A1 0.000162325
98 *613:103 *3822:A1 0.000124895
99 *655:18 *3818:A1 4.77807e-05
100 *655:18 *3821:A1 0.000409783
101 *655:20 *3821:A1 4.89395e-05
102 *655:84 *3817:A1 7.26629e-05
103 *656:47 *3817:A1 0.000351138
104 *656:54 *3817:A1 0.000243624
105 *656:54 *881:10 0.000124998
106 *656:69 *881:10 0.000214573
107 *656:69 *881:65 0.000225103
108 *656:69 *881:90 6.34101e-06
109 *657:23 *3815:A1 7.63883e-05
110 *657:53 *3820:A1 0.00012657
111 *657:53 *881:107 0.000414537
112 *657:59 *3820:A1 4.82919e-05
*RES
1 *4142:X *881:8 4.395 
2 *881:8 *881:10 5.205 
3 *881:10 *3817:A1 12.12 
4 *881:10 *881:23 10.73 
5 *881:23 *881:29 4.43 
6 *881:29 *881:31 2 
7 *881:31 *3821:A1 5.845 
8 *881:31 *3818:A1 2.05 
9 *881:29 *3822:A1 9.21 
10 *881:23 *3816:A1 1.96 
11 *881:8 *881:65 6.225 
12 *881:65 *3815:A1 10.3 
13 *881:65 *881:90 9.74 
14 *881:90 *3814:A1 1.6 
15 *881:90 *881:103 17.375 
16 *881:103 *881:107 5.9 
17 *881:107 *3820:A1 16.7 
18 *881:107 *3819:A1 1.6 
19 *881:103 *3626:A1 25.935 
*END

*D_NET *882 0.0122077
*CONN
*I *3808:A1 I *D sky130_fd_sc_hd__o21a_2
*I *3809:A1 I *D sky130_fd_sc_hd__o21a_2
*I *3807:A1 I *D sky130_fd_sc_hd__o21a_2
*I *3810:A1 I *D sky130_fd_sc_hd__o21a_2
*I *3762:A1 I *D sky130_fd_sc_hd__o21a_2
*I *3811:A1 I *D sky130_fd_sc_hd__o21a_2
*I *3812:A1 I *D sky130_fd_sc_hd__o21a_2
*I *3813:A1 I *D sky130_fd_sc_hd__o21a_2
*I *4143:X O *D sky130_fd_sc_hd__clkdlybuf4s25_1
*CAP
1 *3808:A1 6.88221e-05
2 *3809:A1 0.000275105
3 *3807:A1 0.00070322
4 *3810:A1 0.00018785
5 *3762:A1 2.08101e-05
6 *3811:A1 0
7 *3812:A1 0
8 *3813:A1 0.00013678
9 *4143:X 4.43379e-05
10 *882:90 0.000404804
11 *882:58 0.00127875
12 *882:52 0.00133123
13 *882:41 0.0013147
14 *882:28 0.000515873
15 *882:19 0.000142783
16 *882:8 0.000219234
17 *3807:A1 *4154:A 0
18 *3807:A1 *902:50 0.000610918
19 *3807:A1 *1071:21 0
20 *3809:A1 *3532:A 8.65905e-05
21 *3809:A1 *3809:A2 0.000179044
22 *3810:A1 *3490:D_N 0.000160536
23 *3810:A1 *904:44 0.000477464
24 *3810:A1 *1078:14 4.61256e-05
25 *3810:A1 *1078:16 4.40713e-05
26 *3813:A1 *3813:A2 0.000235585
27 *3813:A1 *897:17 0.000366987
28 *3813:A1 *910:20 0.000238979
29 *3813:A1 *910:22 0.00019786
30 *882:19 *897:17 0.000110683
31 *882:19 *897:26 3.25831e-05
32 *882:19 *910:22 7.89689e-05
33 *882:28 *897:26 0.00030514
34 *882:28 *897:39 5.56629e-05
35 *882:28 *910:22 0.000199864
36 *882:41 *3762:A2 5.07419e-05
37 *882:41 *4160:A 2.75538e-05
38 *882:41 *897:39 0.000448231
39 *882:41 *910:22 0.000216148
40 *882:52 *3344:A 8.95933e-05
41 *882:52 *3486:B 0.000160635
42 *882:58 *3344:A 7.00889e-06
43 *882:58 *4292:A 8.0005e-05
44 *882:58 *904:44 7.06865e-05
45 *882:58 *1078:10 0.000143501
46 *882:58 *1078:12 6.28765e-05
47 *882:58 *1078:14 5.84456e-05
48 *882:58 *1087:10 0.000120875
49 *882:90 *3809:A2 1.93834e-05
50 *882:90 *897:60 9.37731e-05
51 *3626:A1 *3808:A1 1.17114e-05
52 *3626:A1 *3809:A1 0
53 *3626:A1 *882:90 0
54 *3807:B1 *3807:A1 2.75229e-05
55 *3809:B1 *3809:A1 0.000275548
56 *4001:RESET_B *882:58 3.09164e-05
57 *4002:D *3807:A1 0
58 *4015:D *3807:A1 0.000116158
59 *142:12 *3807:A1 2.49909e-05
60 *479:10 *3810:A1 0
61 *479:21 *3807:A1 0
*RES
1 *4143:X *882:8 4.05 
2 *882:8 *3813:A1 10.335 
3 *882:8 *882:19 1.635 
4 *882:19 *3812:A1 3.6 
5 *882:19 *882:28 4.185 
6 *882:28 *3811:A1 3.6 
7 *882:28 *882:41 11.375 
8 *882:41 *3762:A1 1.96 
9 *882:41 *882:52 10.125 
10 *882:52 *882:58 9.635 
11 *882:58 *3810:A1 9.315 
12 *882:58 *3807:A1 17.2 
13 *882:52 *882:90 3.2525 
14 *882:90 *3809:A1 9.6825 
15 *882:90 *3808:A1 4.6275 
*END

*D_NET *883 0.0117868
*CONN
*I *3826:A1 I *D sky130_fd_sc_hd__o21a_2
*I *3780:A1 I *D sky130_fd_sc_hd__o21a_2
*I *3785:A1 I *D sky130_fd_sc_hd__o21a_2
*I *3781:A1 I *D sky130_fd_sc_hd__o21a_2
*I *3779:A1 I *D sky130_fd_sc_hd__o21a_2
*I *3783:A1 I *D sky130_fd_sc_hd__o21a_2
*I *3827:A1 I *D sky130_fd_sc_hd__o21a_2
*I *3825:A1 I *D sky130_fd_sc_hd__o21a_2
*I *3828:A1 I *D sky130_fd_sc_hd__o21a_2
*I *3823:A1 I *D sky130_fd_sc_hd__o21a_2
*I *4144:X O *D sky130_fd_sc_hd__clkdlybuf4s25_1
*CAP
1 *3826:A1 0
2 *3780:A1 0.000163948
3 *3785:A1 0.000156343
4 *3781:A1 0
5 *3779:A1 0.000424229
6 *3783:A1 5.74928e-05
7 *3827:A1 0.000108066
8 *3825:A1 0.000113267
9 *3828:A1 0
10 *3823:A1 8.69962e-05
11 *4144:X 4.43379e-05
12 *883:122 0.000397348
13 *883:103 0.000545614
14 *883:94 0.000272228
15 *883:58 0.000694818
16 *883:38 0.000350918
17 *883:36 0.00121782
18 *883:32 0.00138514
19 *883:10 0.00021498
20 *883:8 0.000565974
21 *3779:A1 *3779:A2 0.000320362
22 *3779:A1 *898:46 5.78805e-05
23 *3779:A1 *911:24 0
24 *3779:A1 *911:30 0
25 *3780:A1 *3780:A2 0.000454597
26 *3780:A1 *898:102 7.23602e-05
27 *3783:A1 *3431:B 2.30292e-05
28 *3785:A1 *3785:A2 2.0514e-05
29 *3823:A1 *3823:A2 8.97564e-05
30 *3825:A1 *3825:A2 0.000156621
31 *3825:A1 *898:18 5.23362e-05
32 *3827:A1 *3827:A2 0.000260306
33 *883:10 *3823:A2 2.4997e-05
34 *883:10 *4154:A 0
35 *883:10 *898:126 0.000116621
36 *883:32 *4154:A 0
37 *883:32 *898:126 9.05716e-05
38 *883:32 *902:50 0
39 *883:36 *4315:A 0.000188719
40 *883:38 *898:18 0.000195932
41 *883:38 *898:46 9.54469e-05
42 *883:58 *898:46 0.000555783
43 *883:94 *898:78 0.000231571
44 *883:103 *4215:A 0
45 *883:103 *898:91 0
46 *883:103 *898:102 0
47 *883:122 *3826:A2 1.91597e-05
48 *883:122 *4212:A 3.86607e-05
49 *883:122 *4215:A 0
50 *883:122 *898:102 0
51 *3427:A1 *883:36 2.0248e-05
52 *3431:A *3783:A1 1.85674e-05
53 *3520:A *883:58 0.000119521
54 *3521:B *3780:A1 1.44259e-05
55 *3522:A *883:38 6.55328e-05
56 *3783:B1 *3779:A1 0.000343596
57 *3783:B1 *3783:A1 4.82919e-05
58 *3784:B1 *3779:A1 1.37328e-05
59 *3785:B1 *3780:A1 1.22762e-05
60 *3785:B1 *3785:A1 0.000124895
61 *3933:RESET_B *883:103 0
62 *3937:CLK *883:122 3.54109e-05
63 *3937:RESET_B *3785:A1 3.00381e-05
64 *3937:RESET_B *883:122 0.000123573
65 *3975:CLK *3779:A1 6.11059e-05
66 *3975:D *3779:A1 5.83121e-06
67 *3975:D *3825:A1 0
68 *3980:CLK *883:36 2.75145e-05
69 *3980:D *883:36 5.83121e-06
70 *3999:D *3823:A1 0
71 *3999:RESET_B *3823:A1 0
72 *3999:RESET_B *883:10 0
73 *4018:D *3780:A1 0.000187071
74 *4020:CLK *883:38 0
75 *4020:D *3827:A1 8.40213e-05
76 *4216:A *883:103 0
77 *4233:A *3779:A1 0.00011852
78 *111:10 *3825:A1 0
79 *360:12 *3779:A1 5.08701e-05
80 *611:10 *883:58 0
81 *611:12 *883:58 0
82 *611:14 *883:38 0
83 *611:14 *883:58 0
84 *651:75 *3827:A1 0.000270409
85 *658:10 *3780:A1 8.98743e-05
86 *658:36 *3780:A1 5.09129e-05
*RES
1 *4144:X *883:8 4.05 
2 *883:8 *883:10 2.91 
3 *883:10 *3823:A1 5.49 
4 *883:10 *3828:A1 3.6 
5 *883:8 *883:32 7.43 
6 *883:32 *883:36 12.11 
7 *883:36 *883:38 3.42 
8 *883:38 *3825:A1 6 
9 *883:38 *3827:A1 7.155 
10 *883:36 *883:58 6.48 
11 *883:58 *3783:A1 4.755 
12 *883:58 *3779:A1 15.435 
13 *883:32 *883:94 4.655 
14 *883:94 *3781:A1 3.6 
15 *883:94 *883:103 2.4 
16 *883:103 *3785:A1 6.465 
17 *883:103 *883:122 5.93 
18 *883:122 *3780:A1 12.08 
19 *883:122 *3826:A1 1.6 
*END

*D_NET *884 0.00212489
*CONN
*I *3646:A1 I *D sky130_fd_sc_hd__mux2_1
*I *4373:X O *D sky130_fd_sc_hd__clkdlybuf4s25_1
*CAP
1 *3646:A1 0.000657755
2 *4373:X 0.000657755
3 *3646:A1 *3646:S 9.50342e-06
4 *3646:A1 *909:37 0.000358139
5 *3646:A1 *909:48 7.96996e-05
6 *3646:A1 *909:63 4.28396e-05
7 *3644:A1 *3646:A1 0
8 *3868:CLK *3646:A1 0
9 *3868:D *3646:A1 0.000245862
10 *3874:D *3646:A1 0
11 *4333:A *3646:A1 7.33378e-05
*RES
1 *4373:X *3646:A1 22.305 
*END

*D_NET *885 0.0118053
*CONN
*I *3829:A1 I *D sky130_fd_sc_hd__o21a_2
*I *3844:A1 I *D sky130_fd_sc_hd__o21a_2
*I *3843:A1 I *D sky130_fd_sc_hd__o21a_2
*I *3845:A1 I *D sky130_fd_sc_hd__o21a_2
*I *3763:A1 I *D sky130_fd_sc_hd__o21a_2
*I *3787:A1 I *D sky130_fd_sc_hd__o21a_2
*I *3777:A1 I *D sky130_fd_sc_hd__o21a_2
*I *3847:A1 I *D sky130_fd_sc_hd__o21a_2
*I *3778:A1 I *D sky130_fd_sc_hd__o21a_2
*I *3776:A1 I *D sky130_fd_sc_hd__o21a_2
*I *4145:X O *D sky130_fd_sc_hd__clkdlybuf4s25_1
*CAP
1 *3829:A1 6.28283e-05
2 *3844:A1 0.000342908
3 *3843:A1 0
4 *3845:A1 2.42899e-05
5 *3763:A1 3.55506e-05
6 *3787:A1 0.000109024
7 *3777:A1 0.000219672
8 *3847:A1 0
9 *3778:A1 0
10 *3776:A1 5.81042e-06
11 *4145:X 0.000593366
12 *885:104 0.000819166
13 *885:93 0.000621117
14 *885:64 0.000654887
15 *885:62 0.000999073
16 *885:54 0.000877404
17 *885:50 0.000296867
18 *885:39 0.000275039
19 *885:28 0.000748059
20 *3777:A1 *3777:A2 0.000478357
21 *3829:A1 *3829:A2 0.000352161
22 *3829:A1 *899:68 3.57349e-05
23 *3829:A1 *1113:16 0.000278117
24 *3844:A1 *3844:A2 4.60584e-05
25 *3845:A1 *887:67 8.65905e-05
26 *3845:A1 *899:72 0.000123225
27 *885:28 *3776:A2 9.03208e-05
28 *885:28 *899:28 0.000625775
29 *885:28 *899:47 2.8694e-05
30 *885:28 *1114:36 0
31 *885:39 *899:47 4.82919e-05
32 *885:39 *899:60 3.09233e-05
33 *885:50 *899:60 0.000339893
34 *885:50 *899:68 1.52184e-05
35 *885:50 *1113:16 7.21296e-06
36 *885:54 *899:68 8.49205e-05
37 *885:62 *899:82 3.13457e-05
38 *885:93 *901:59 1.7396e-05
39 *885:104 *887:67 0.000103192
40 *885:104 *887:82 0.000191932
41 *885:104 *899:116 0
42 *885:104 *901:59 5.12017e-06
43 *3422:B2 *885:28 1.19928e-05
44 *3422:B2 *885:39 8.30523e-05
45 *3426:C1 *885:28 0
46 *3616:B *885:104 1.65192e-05
47 *3778:B1 *885:28 9.72742e-06
48 *3842:B1 *3829:A1 6.52265e-05
49 *3842:B1 *885:54 6.1357e-05
50 *3844:B1 *3844:A1 0.000253201
51 *3844:B1 *885:104 1.22762e-05
52 *3928:CLK *885:28 0.000121876
53 *3930:RESET_B *885:28 3.68769e-05
54 *4021:CLK *885:62 8.92676e-05
55 *4035:D *885:104 0
56 *4036:D *885:104 0.00016506
57 *4037:RESET_B *885:62 0
58 *4037:RESET_B *885:93 0
59 *4039:D *885:62 4.82919e-05
60 *4039:RESET_B *885:62 1.43521e-05
61 *4043:RESET_B *885:93 0
62 *4100:A *3845:A1 2.0514e-05
63 *4133:A *885:54 0.000113247
64 *4140:A *3777:A1 0
65 *607:27 *3776:A1 4.99619e-05
66 *607:27 *885:28 3.00381e-05
67 *607:78 *885:62 0
68 *607:78 *885:93 0
69 *628:127 *885:62 3.45588e-05
70 *658:50 *3776:A1 4.99619e-05
71 *659:6 *885:54 1.83847e-05
72 *659:16 *885:62 6.96579e-05
73 *659:16 *885:64 4.7101e-05
74 *659:20 *3787:A1 0.000203178
75 *659:20 *885:64 0.000137277
76 *662:41 *885:39 0.000206137
77 *662:52 *885:50 0.000130621
*RES
1 *4145:X *3776:A1 3.65 
2 *4145:X *885:28 18.53 
3 *885:28 *3778:A1 1.6 
4 *885:28 *885:39 5.885 
5 *885:39 *3847:A1 3.6 
6 *885:39 *885:50 6.185 
7 *885:50 *885:54 4.865 
8 *885:54 *885:62 10.985 
9 *885:62 *885:64 4.245 
10 *885:64 *3777:A1 11.06 
11 *885:64 *3787:A1 4.045 
12 *885:62 *3763:A1 2.215 
13 *885:54 *885:93 1.89 
14 *885:93 *3845:A1 4.74 
15 *885:93 *885:104 10.56 
16 *885:104 *3843:A1 3.6 
17 *885:104 *3844:A1 9.495 
18 *885:50 *3829:A1 5.155 
*END

*D_NET *886 0.0105034
*CONN
*I *3839:A1 I *D sky130_fd_sc_hd__o21a_2
*I *3838:A1 I *D sky130_fd_sc_hd__o21a_2
*I *3837:A1 I *D sky130_fd_sc_hd__o21a_2
*I *3836:A1 I *D sky130_fd_sc_hd__o21a_2
*I *3835:A1 I *D sky130_fd_sc_hd__o21a_2
*I *3834:A1 I *D sky130_fd_sc_hd__o21a_2
*I *3833:A1 I *D sky130_fd_sc_hd__o21a_2
*I *3832:A1 I *D sky130_fd_sc_hd__o21a_2
*I *3831:A1 I *D sky130_fd_sc_hd__o21a_2
*I *3830:A1 I *D sky130_fd_sc_hd__o21a_2
*I *4146:X O *D sky130_fd_sc_hd__clkdlybuf4s25_1
*CAP
1 *3839:A1 0.000333175
2 *3838:A1 0
3 *3837:A1 3.37585e-05
4 *3836:A1 2.43002e-05
5 *3835:A1 6.26211e-05
6 *3834:A1 1.95905e-05
7 *3833:A1 1.63287e-05
8 *3832:A1 0
9 *3831:A1 1.41866e-05
10 *3830:A1 4.55527e-05
11 *4146:X 0.000873686
12 *886:111 0.000522329
13 *886:100 0.000463195
14 *886:87 0.000393128
15 *886:74 0.000341107
16 *886:63 0.000435059
17 *886:33 9.49606e-05
18 *886:18 0.000621371
19 *886:16 0.00111953
20 *3831:A1 *3831:A2 8.65905e-05
21 *3834:A1 *3834:A2 5.83121e-06
22 *3834:A1 *900:68 4.82919e-05
23 *3836:A1 *3836:A2 2.75145e-05
24 *3839:A1 *3839:A2 0.000267251
25 *3839:A1 *900:101 2.23407e-05
26 *886:16 *3495:A_N 8.40269e-05
27 *886:18 *900:20 0.000351104
28 *886:33 *900:33 0.00013521
29 *886:74 *900:68 0.000473648
30 *886:87 *900:68 5.4003e-05
31 *886:87 *900:81 0.000309664
32 *886:100 *3836:A2 5.83121e-06
33 *886:100 *900:81 4.7853e-05
34 *886:100 *900:92 0.00018116
35 *886:111 *900:92 2.68721e-05
36 *886:111 *900:101 0.000175066
37 *3355:A *3833:A1 1.90686e-05
38 *3355:A *886:16 0.000399899
39 *3355:A *886:18 3.00381e-05
40 *3497:B1 *886:16 4.82919e-05
41 *3516:B *886:16 0.000409663
42 *3516:B *886:63 0.000268734
43 *3636:A1 *886:63 0.000191226
44 *3637:A1 *886:63 3.57846e-05
45 *3637:A1 *886:74 2.23485e-05
46 *3830:B1 *3830:A1 3.00381e-05
47 *3830:B1 *886:18 6.27029e-05
48 *3835:B1 *886:74 0.000285935
49 *3840:B1 *3839:A1 0
50 *4026:CLK *886:16 0
51 *4027:RESET_B *886:87 8.68387e-05
52 *4030:RESET_B *886:111 0
53 *4082:A *3831:A1 8.65905e-05
54 *4132:A *886:33 0
55 *4135:A *886:63 0.000209179
56 *610:47 *886:33 0
57 *610:98 *886:16 0.000137571
58 *660:27 *886:16 5.83589e-05
59 *660:104 *886:63 0.000337524
60 *661:30 *886:87 0
61 *661:94 *3839:A1 0
62 *662:10 *3834:A1 3.64998e-06
63 *662:10 *886:63 6.38291e-05
*RES
1 *4146:X *886:16 16.67 
2 *886:16 *886:18 9.075 
3 *886:18 *3830:A1 2.41 
4 *886:18 *886:33 5.635 
5 *886:33 *3831:A1 2.395 
6 *886:33 *3832:A1 1.6 
7 *886:16 *3833:A1 1.96 
8 *4146:X *886:63 11.085 
9 *886:63 *3834:A1 4.05 
10 *886:63 *886:74 5.97 
11 *886:74 *3835:A1 4.395 
12 *886:74 *886:87 6.185 
13 *886:87 *3836:A1 2.05 
14 *886:87 *886:100 6.98 
15 *886:100 *3837:A1 4.05 
16 *886:100 *886:111 4.185 
17 *886:111 *3838:A1 3.6 
18 *886:111 *3839:A1 10.53 
*END

*D_NET *887 0.0220723
*CONN
*I *3840:A1 I *D sky130_fd_sc_hd__o21a_2
*I *3842:A1 I *D sky130_fd_sc_hd__o21a_2
*I *3852:A1 I *D sky130_fd_sc_hd__o21a_2
*I *3853:A1 I *D sky130_fd_sc_hd__o21a_2
*I *3851:A1 I *D sky130_fd_sc_hd__o21a_2
*I *3841:A1 I *D sky130_fd_sc_hd__o21a_2
*I *4146:A I *D sky130_fd_sc_hd__clkdlybuf4s25_1
*I *4145:A I *D sky130_fd_sc_hd__clkdlybuf4s25_1
*I *4147:X O *D sky130_fd_sc_hd__clkdlybuf4s25_1
*CAP
1 *3840:A1 0.000625449
2 *3842:A1 0
3 *3852:A1 0
4 *3853:A1 0.00032536
5 *3851:A1 0
6 *3841:A1 0
7 *4146:A 0
8 *4145:A 0.00121073
9 *4147:X 4.78064e-05
10 *887:106 0.00092804
11 *887:82 0.000726324
12 *887:67 0.000757682
13 *887:54 0.000356717
14 *887:52 0.00319334
15 *887:14 0.00144358
16 *887:8 0.00317141
17 *3840:A1 *3840:A2 0.000496278
18 *3853:A1 *3853:A2 0.000319167
19 *4145:A *3831:A2 0.000164874
20 *4145:A *1068:19 6.73751e-05
21 *887:14 *4159:A 1.01661e-05
22 *887:14 *900:18 0
23 *887:52 *901:96 1.92979e-05
24 *887:67 *899:72 0.000107415
25 *887:67 *901:59 0.000540345
26 *887:82 *901:69 0.000163199
27 *887:106 *3840:A2 4.82919e-05
28 *887:106 *901:96 2.95708e-05
29 *887:106 *901:107 0.000854599
30 *3521:A *4145:A 3.94592e-05
31 *3608:C *887:67 2.75145e-05
32 *3610:A *887:52 0
33 *3636:A1 *887:14 0
34 *3842:B1 *887:52 2.10433e-05
35 *3842:B1 *887:106 0.000876012
36 *3845:A1 *887:67 8.65905e-05
37 *4024:RESET_B *4145:A 4.99619e-05
38 *4025:CLK *887:14 0.000162396
39 *4025:CLK *887:52 2.09673e-05
40 *4026:CLK *4145:A 0.000163019
41 *4026:CLK *887:14 0.00046962
42 *4026:CLK *887:52 3.16237e-05
43 *4032:D *3840:A1 5.30673e-05
44 *4032:RESET_B *3840:A1 0
45 *4035:D *887:82 6.36578e-05
46 *4036:CLK *3853:A1 0
47 *4036:CLK *887:82 8.8266e-05
48 *4081:A *887:67 0.0011746
49 *4082:A *4145:A 0.000722501
50 *4100:A *887:67 0.000235573
51 *4103:A *4145:A 8.43946e-05
52 *4248:A *3840:A1 8.65961e-05
53 *390:6 *887:67 4.92062e-05
54 *390:19 *887:67 2.75145e-05
55 *511:50 *887:52 0
56 *526:27 *887:52 0
57 *610:81 *4145:A 0.000270415
58 *659:75 *887:82 4.00541e-06
59 *659:99 *3853:A1 0.000354719
60 *660:64 *4145:A 0.00100422
61 *661:53 *887:67 3.21081e-06
62 *885:104 *887:67 0.000103192
63 *885:104 *887:82 0.000191932
*RES
1 *4147:X *887:8 4.05 
2 *887:8 *887:14 8.255 
3 *887:14 *4145:A 30.635 
4 *887:14 *4146:A 1.6 
5 *887:8 *887:52 7.23187 
6 *887:52 *887:54 2 
7 *887:54 *3841:A1 1.6 
8 *887:54 *887:67 17.375 
9 *887:67 *3851:A1 3.6 
10 *887:67 *887:82 10.535 
11 *887:82 *3853:A1 12.995 
12 *887:82 *3852:A1 1.6 
13 *887:52 *887:106 13.355 
14 *887:106 *3842:A1 1.6 
15 *887:106 *3840:A1 17.48 
*END

*D_NET *888 0.0219903
*CONN
*I *4143:A I *D sky130_fd_sc_hd__clkdlybuf4s25_1
*I *4147:A I *D sky130_fd_sc_hd__clkdlybuf4s25_1
*I *4144:A I *D sky130_fd_sc_hd__clkdlybuf4s25_1
*I *4141:A I *D sky130_fd_sc_hd__clkdlybuf4s25_1
*I *4142:A I *D sky130_fd_sc_hd__clkdlybuf4s25_1
*I *4148:X O *D sky130_fd_sc_hd__clkdlybuf4s25_1
*CAP
1 *4143:A 0
2 *4147:A 0.000957012
3 *4144:A 0
4 *4141:A 0.00208401
5 *4142:A 0.000462174
6 *4148:X 0.000274843
7 *888:43 0.00544305
8 *888:35 0.00455849
9 *888:25 0.00111438
10 *888:10 0.00160896
11 *4142:A *902:10 8.05985e-05
12 *4147:A *3636:S 0.00072115
13 *4147:A *4160:A 9.95272e-05
14 *4147:A *900:68 8.08153e-06
15 *4147:A *902:30 2.09665e-05
16 *4147:A *910:22 0.000854733
17 *888:35 *902:30 0.00030243
18 *888:35 *910:22 0.000326381
19 *888:43 *898:126 0
20 *888:43 *902:50 0.000119831
21 *3468:B2 *4141:A 0
22 *3637:A1 *4147:A 0.000276249
23 *3781:B1 *888:43 0
24 *3896:D *4141:A 0
25 *4015:RESET_B *4141:A 8.75474e-05
26 *4015:RESET_B *888:43 0.000131408
27 *4020:RESET_B *4141:A 8.75474e-05
28 *4020:RESET_B *888:43 3.09164e-05
29 *4351:A *4147:A 0.000399843
30 *828:42 *4147:A 0.000574303
31 *828:42 *888:10 0.000250987
32 *828:42 *888:25 0.00102997
33 *881:8 *4142:A 8.49205e-05
*RES
1 *4148:X *888:10 9.255 
2 *888:10 *4142:A 10.275 
3 *888:10 *888:25 22.76 
4 *888:25 *888:35 8.6075 
5 *888:35 *888:43 8.32143 
6 *888:43 *4141:A 10.5225 
7 *888:43 *4144:A 3.6 
8 *888:35 *4147:A 32.4975 
9 *888:25 *4143:A 1.6 
*END

*D_NET *889 0.0208399
*CONN
*I *3663:A I *D sky130_fd_sc_hd__nand2_2
*I *3665:A I *D sky130_fd_sc_hd__nand2_2
*I *3667:A I *D sky130_fd_sc_hd__nand2_2
*I *3671:A I *D sky130_fd_sc_hd__nand2_2
*I *3669:A I *D sky130_fd_sc_hd__nand2_2
*I *3673:A I *D sky130_fd_sc_hd__nand2_2
*I *3675:A I *D sky130_fd_sc_hd__nand2_2
*I *3677:A I *D sky130_fd_sc_hd__nand2_2
*I *3397:A I *D sky130_fd_sc_hd__and2_2
*I *3662:A1 I *D sky130_fd_sc_hd__a21o_2
*I *4149:X O *D sky130_fd_sc_hd__clkdlybuf4s25_1
*CAP
1 *3663:A 0
2 *3665:A 2.08101e-05
3 *3667:A 0.0004524
4 *3671:A 0
5 *3669:A 0.000622011
6 *3673:A 0.000110911
7 *3675:A 0.000456135
8 *3677:A 0
9 *3397:A 0
10 *3662:A1 0.00233909
11 *4149:X 0.000450226
12 *889:109 0.000763473
13 *889:105 0.000443423
14 *889:97 0.00108829
15 *889:91 0.000627554
16 *889:81 0.000499914
17 *889:66 0.0010653
18 *889:57 0.000911355
19 *889:16 0.00237094
20 *3662:A1 *3434:A 0.000296088
21 *3662:A1 *911:24 0.000205881
22 *3662:A1 *911:66 2.75229e-05
23 *3667:A *3746:S 0.000104309
24 *3667:A *4276:A 0
25 *3673:A *4310:A 0
26 *3675:A *947:28 0.000209626
27 *889:16 *3423:A 5.09216e-05
28 *889:16 *911:10 0.000424347
29 *889:16 *911:24 1.82476e-05
30 *889:66 *947:28 0.000171816
31 *889:81 *907:18 0.000470994
32 *889:105 *3671:B 8.65905e-05
33 *889:105 *3746:S 3.47837e-05
34 *889:105 *3747:S 1.83756e-05
35 *889:105 *907:104 6.69341e-05
36 *889:105 *945:12 4.66108e-05
37 o_receive_data[5] *3669:A 0.000484857
38 o_receive_data[5] *3673:A 0.000168499
39 *3397:B *889:16 0.000122331
40 *3424:B2 *889:16 0.000100544
41 *3666:S *889:105 0.000100491
42 *3666:S *889:109 3.23663e-05
43 *3668:S *3667:A 0.000196333
44 *3670:A0 *3669:A 7.07722e-05
45 *3670:S *3669:A 3.75937e-05
46 *3672:S *889:109 2.75229e-05
47 *3674:A1 *3669:A 8.23457e-05
48 *3674:A1 *3673:A 1.82759e-05
49 *3747:A0 *889:105 0.000198516
50 *3752:A0 *3667:A 0.000231564
51 *3777:B1 *889:16 4.66108e-05
52 *3793:B1 *3662:A1 0.000347922
53 *3797:A1 *3667:A 4.18603e-06
54 *3803:B1 *3667:A 0
55 *3887:D *3669:A 0.000127754
56 *3929:D *889:16 0
57 *3929:RESET_B *889:16 6.4526e-05
58 *3942:CLK *3662:A1 7.66083e-05
59 *3942:D *3662:A1 4.82919e-05
60 *3985:RESET_B *3662:A1 0.000392136
61 *4038:CLK *3662:A1 0.000162311
62 *4050:D *3667:A 6.28687e-05
63 *4050:RESET_B *3667:A 4.5783e-05
64 *4051:CLK *889:97 1.83847e-05
65 *4051:D *3667:A 1.34361e-05
66 *4051:D *889:105 0.000425068
67 *4055:D *889:91 9.30717e-05
68 *4073:A *889:57 9.76238e-06
69 *4073:TE_B *889:57 0.00022972
70 *4118:A *889:57 0.000459377
71 *4118:A *889:66 4.00796e-05
72 *4138:A *3662:A1 0.000294421
73 *4195:A *889:16 0
74 *4282:A *889:91 0.000202534
75 *51:12 *889:57 3.00381e-05
76 *359:87 *3669:A 0.00019194
77 *359:87 *889:109 8.65961e-05
78 *624:46 *3669:A 2.49909e-05
79 *624:59 *3669:A 2.84434e-05
80 *639:8 *889:57 0.000158681
81 *641:37 *889:81 0.000470994
82 *641:37 *889:91 8.77898e-05
83 *646:61 *889:91 0
84 *688:12 *889:16 9.47454e-05
85 *779:10 *3667:A 0.000127373
86 *867:16 *3669:A 4.66108e-05
87 *869:10 *3673:A 0
*RES
1 *4149:X *889:16 15.74 
2 *889:16 *3662:A1 41.28 
3 *889:16 *3397:A 1.6 
4 *3662:A1 *889:57 11.74 
5 *889:57 *3677:A 1.6 
6 *889:57 *889:66 6.24 
7 *889:66 *3675:A 7.495 
8 *889:66 *889:81 9.46 
9 *889:81 *889:91 11.245 
10 *889:91 *889:97 4.535 
11 *889:97 *889:105 11.525 
12 *889:105 *889:109 3.14 
13 *889:109 *3673:A 6 
14 *889:109 *3669:A 16.68 
15 *889:105 *3671:A 1.6 
16 *889:97 *3667:A 14.67 
17 *889:91 *3665:A 1.96 
18 *889:81 *3663:A 1.6 
*END

*D_NET *890 0.0116612
*CONN
*I *3803:A2 I *D sky130_fd_sc_hd__o21a_2
*I *3802:A2 I *D sky130_fd_sc_hd__o21a_2
*I *3801:A2 I *D sky130_fd_sc_hd__o21a_2
*I *3800:A2 I *D sky130_fd_sc_hd__o21a_2
*I *3799:A2 I *D sky130_fd_sc_hd__o21a_2
*I *3798:A2 I *D sky130_fd_sc_hd__o21a_2
*I *3797:A2 I *D sky130_fd_sc_hd__o21a_2
*I *3796:A2 I *D sky130_fd_sc_hd__o21a_2
*I *3795:A2 I *D sky130_fd_sc_hd__o21a_2
*I *3766:A2 I *D sky130_fd_sc_hd__o21a_2
*I *4150:X O *D sky130_fd_sc_hd__clkdlybuf4s25_1
*CAP
1 *3803:A2 0.000102386
2 *3802:A2 0.000228126
3 *3801:A2 0
4 *3800:A2 4.30841e-05
5 *3799:A2 0
6 *3798:A2 9.63052e-05
7 *3797:A2 8.2633e-05
8 *3796:A2 0
9 *3795:A2 3.08267e-05
10 *3766:A2 0.000262206
11 *4150:X 0.00015849
12 *890:120 0.000391176
13 *890:113 0.000304961
14 *890:92 0.000529161
15 *890:79 0.000574877
16 *890:60 0.000609256
17 *890:37 7.52403e-05
18 *890:29 0.000212733
19 *890:27 0.00172467
20 *890:8 0.00187983
21 *3766:A2 *4219:A 0
22 *3766:A2 *891:34 2.16389e-05
23 *3766:A2 *1042:10 2.67022e-05
24 *3766:A2 *1042:25 2.66935e-05
25 *3795:A2 *3507:B 0.000122797
26 *890:8 *1050:8 0.000142669
27 *890:27 *3508:A 7.35729e-05
28 *890:27 *3508:B 7.47457e-05
29 *890:27 *1043:8 8.0356e-06
30 *890:37 *3507:B 4.66108e-05
31 *890:79 *1057:12 0.000197853
32 *890:113 *1059:10 6.91408e-06
33 *890:120 *1059:10 1.16854e-05
34 *3388:A1 *3766:A2 8.57024e-05
35 *3510:B1 *890:79 0
36 *3510:C1 *3797:A2 0
37 *3510:C1 *890:29 0
38 *3510:C1 *890:60 0
39 *3510:C1 *890:79 0
40 *3767:B1 *3766:A2 7.75359e-05
41 *3795:A1 *3795:A2 4.89295e-05
42 *3795:B1 *3795:A2 1.14169e-05
43 *3796:B1 *3795:A2 1.08758e-05
44 *3796:B1 *890:37 3.74161e-05
45 *3797:A1 *3797:A2 0.000118513
46 *3798:B1 *3798:A2 0.0001249
47 *3799:A1 *890:79 0.000132586
48 *3799:A1 *890:92 9.09788e-06
49 *3799:B1 *890:79 9.65405e-05
50 *3799:B1 *890:92 1.07997e-05
51 *3800:A1 *3800:A2 5.1341e-05
52 *3801:A1 *3803:A2 2.49909e-05
53 *3801:A1 *890:120 4.88478e-05
54 *3801:B1 *890:113 5.83121e-06
55 *3802:A1 *3802:A2 0.000302182
56 *3802:B1 *3802:A2 0
57 *3803:A1 *3803:A2 9.80943e-06
58 *3918:RESET_B *3766:A2 0.00016163
59 *3919:CLK *890:27 7.47284e-05
60 *3919:D *890:27 5.84749e-05
61 *3919:RESET_B *890:27 4.51129e-05
62 *3988:RESET_B *890:27 2.40185e-05
63 *3988:RESET_B *890:29 8.08439e-05
64 *3990:RESET_B *890:79 9.71067e-05
65 *11:10 *3766:A2 0
66 *11:10 *890:27 0
67 *387:14 *3803:A2 0.000124007
68 *625:8 *890:79 0.000417208
69 *625:21 *890:92 0
70 *641:58 *3797:A2 7.32259e-05
71 *641:84 *3797:A2 2.1939e-05
72 *641:84 *890:29 0.000112579
73 *641:84 *890:37 1.83975e-05
74 *641:84 *890:60 0.000149297
75 *641:99 *890:60 1.5996e-05
76 *641:99 *890:79 0.000147737
77 *641:124 *890:92 0.000218378
78 *641:139 *3800:A2 3.37774e-05
79 *641:139 *3802:A2 0
80 *641:139 *890:113 0.000186047
81 *876:26 *3797:A2 0
82 *876:30 *3795:A2 9.3988e-06
83 *876:87 *890:79 9.61414e-05
84 *876:87 *890:92 0
85 *876:100 *3802:A2 4.99345e-05
86 *877:31 *890:27 0.000172007
*RES
1 *4150:X *890:8 5.775 
2 *890:8 *3766:A2 8.835 
3 *890:8 *890:27 21.775 
4 *890:27 *890:29 2.5275 
5 *890:29 *890:37 3.1325 
6 *890:37 *3795:A2 2.74 
7 *890:37 *3796:A2 1.6 
8 *890:29 *3797:A2 5.8725 
9 *890:27 *890:60 3.675 
10 *890:60 *3798:A2 5.43 
11 *890:60 *890:79 13.975 
12 *890:79 *3799:A2 3.6 
13 *890:79 *890:92 4.575 
14 *890:92 *3800:A2 4.665 
15 *890:92 *890:113 6.095 
16 *890:113 *3801:A2 1.6 
17 *890:113 *890:120 1.14 
18 *890:120 *3802:A2 10.235 
19 *890:120 *3803:A2 3.43 
*END

*D_NET *891 0.00836969
*CONN
*I *3769:A2 I *D sky130_fd_sc_hd__o21a_2
*I *3770:A2 I *D sky130_fd_sc_hd__o21a_2
*I *4150:A I *D sky130_fd_sc_hd__clkdlybuf4s25_1
*I *3767:A2 I *D sky130_fd_sc_hd__o21a_2
*I *3765:A2 I *D sky130_fd_sc_hd__o21a_2
*I *3850:A2 I *D sky130_fd_sc_hd__o21a_2
*I *4151:X O *D sky130_fd_sc_hd__clkdlybuf4s25_1
*CAP
1 *3769:A2 2.40139e-05
2 *3770:A2 0.000490545
3 *4150:A 2.22788e-05
4 *3767:A2 0.000263279
5 *3765:A2 5.99698e-05
6 *3850:A2 8.08315e-05
7 *4151:X 3.37585e-05
8 *891:62 0.00117731
9 *891:49 0.00126515
10 *891:34 0.00105735
11 *891:10 0.000231429
12 *891:8 0.000338342
13 *3769:A2 *3768:A2 2.05056e-05
14 *4150:A *1050:6 4.82863e-05
15 *891:10 *4151:A 0
16 *891:62 *3363:A1 6.65066e-05
17 *891:62 *4237:A 4.11112e-05
18 *3765:B1 *3765:A2 0.000198939
19 *3766:A2 *891:34 2.16389e-05
20 *3767:A1 *3767:A2 1.61831e-05
21 *3767:B1 *891:34 3.9442e-05
22 *3768:A1 *3769:A2 6.43122e-05
23 *3768:A1 *3770:A2 8.49205e-05
24 *3768:B1 *3769:A2 3.74161e-05
25 *3768:B1 *3770:A2 8.65905e-05
26 *3770:A1 *3769:A2 4.82863e-05
27 *3770:A1 *3770:A2 0.000201503
28 *3770:B1 *3770:A2 2.30292e-05
29 *3850:A1 *3765:A2 3.66286e-05
30 *3850:A1 *3850:A2 8.78813e-05
31 *3850:A1 *891:10 1.52184e-05
32 *3850:B1 *3850:A2 4.99619e-05
33 *3920:RESET_B *891:62 0
34 *3921:RESET_B *3770:A2 9.30717e-05
35 *3922:D *3770:A2 0
36 *4097:A *891:62 0.000122885
37 *4137:A *891:49 0
38 *4137:A *891:62 0
39 *11:10 *3850:A2 9.83935e-05
40 *11:10 *891:10 0.000108139
41 *11:10 *891:34 0.000275488
42 *606:67 *891:49 0.000132721
43 *606:67 *891:62 0.000414998
44 *644:27 *891:34 4.83241e-05
45 *644:55 *891:49 0
46 *644:83 *891:62 4.11194e-05
47 *644:89 *3769:A2 4.99619e-05
48 *644:103 *891:62 7.21296e-06
49 *876:6 *3767:A2 8.43946e-05
50 *876:6 *891:49 0.000315311
51 *876:20 *3767:A2 0.000106136
52 *877:8 *3765:A2 0.000238919
53 *877:48 *891:62 0
*RES
1 *4151:X *891:8 4.05 
2 *891:8 *891:10 2.145 
3 *891:10 *3850:A2 5.94 
4 *891:10 *3765:A2 6.12 
5 *891:8 *891:34 7.46 
6 *891:34 *3767:A2 5.17 
7 *891:34 *891:49 10.625 
8 *891:49 *4150:A 4.05 
9 *891:49 *891:62 16.64 
10 *891:62 *3770:A2 14.795 
11 *891:62 *3769:A2 2.74 
*END

*D_NET *892 0.0139429
*CONN
*I *3793:A2 I *D sky130_fd_sc_hd__o21a_2
*I *3790:A2 I *D sky130_fd_sc_hd__o21a_2
*I *3786:A2 I *D sky130_fd_sc_hd__o21a_2
*I *3848:A2 I *D sky130_fd_sc_hd__o21a_2
*I *3764:A2 I *D sky130_fd_sc_hd__o21a_2
*I *3789:A2 I *D sky130_fd_sc_hd__o21a_2
*I *3849:A2 I *D sky130_fd_sc_hd__o21a_2
*I *3846:A2 I *D sky130_fd_sc_hd__o21a_2
*I *3791:A2 I *D sky130_fd_sc_hd__o21a_2
*I *3792:A2 I *D sky130_fd_sc_hd__o21a_2
*I *4152:X O *D sky130_fd_sc_hd__clkdlybuf4s25_1
*CAP
1 *3793:A2 0.000222765
2 *3790:A2 1.41437e-05
3 *3786:A2 0.000359905
4 *3848:A2 0
5 *3764:A2 0
6 *3789:A2 0.000238772
7 *3849:A2 8.8351e-05
8 *3846:A2 0.000529751
9 *3791:A2 0.000368521
10 *3792:A2 0.000128681
11 *4152:X 0
12 *892:68 0.000919866
13 *892:66 0.000701106
14 *892:62 0.00036639
15 *892:58 0.000349477
16 *892:52 0.000931029
17 *892:46 0.0004661
18 *892:23 0.000547927
19 *892:8 0.000707008
20 *892:4 0.000646174
21 *3786:A2 *993:58 0.000157886
22 *3786:A2 *1065:10 3.18137e-05
23 *3790:A2 *3442:A1 5.16418e-05
24 *3791:A2 *1035:12 2.30292e-05
25 *3792:A2 *993:46 4.75576e-05
26 *3793:A2 *894:83 2.25079e-05
27 *3846:A2 *3396:B 0
28 *892:23 *3442:A1 4.76303e-05
29 *892:23 *993:46 6.63219e-05
30 *892:23 *1030:28 1.01851e-05
31 *892:46 *3442:A1 7.06865e-05
32 *892:58 *3440:A1 8.53113e-06
33 *892:58 *993:46 4.70621e-05
34 *3390:A2 *3846:A2 3.77199e-05
35 *3390:A2 *892:68 7.66727e-05
36 *3438:A1 *3786:A2 0.000262817
37 *3438:A1 *892:58 8.53113e-06
38 *3440:A2 *892:23 1.88656e-05
39 *3440:B1 *3792:A2 0.000265892
40 *3442:A2 *3790:A2 4.31106e-05
41 *3442:A2 *892:23 0.000111376
42 *3442:A2 *892:46 6.28498e-05
43 *3528:B1 *3786:A2 0.000137571
44 *3786:A1 *3786:A2 0.00020857
45 *3789:A1 *3789:A2 0.000418412
46 *3790:B1 *3791:A2 0
47 *3791:A1 *3791:A2 6.26047e-05
48 *3791:B1 *3791:A2 0.000453805
49 *3792:A1 *3792:A2 0.000288977
50 *3793:A1 *3793:A2 0.000298435
51 *3849:A1 *3846:A2 6.55328e-05
52 *3916:CLK *3849:A2 8.8266e-05
53 *3916:D *3846:A2 0.000116629
54 *3942:D *3792:A2 0
55 *3942:D *892:23 0
56 *3942:SET_B *892:23 3.1009e-05
57 *3985:CLK *3793:A2 0.000118513
58 *4038:D *892:58 0.000122331
59 *4040:D *892:68 2.76346e-05
60 *4040:RESET_B *892:62 8.65961e-05
61 *4094:A *3789:A2 0
62 *360:33 *3786:A2 9.60047e-05
63 *360:33 *892:58 6.32598e-05
64 *367:20 *3786:A2 1.19928e-05
65 *603:55 *3793:A2 0.000264587
66 *603:105 *3791:A2 2.66864e-05
67 *603:105 *892:52 4.42423e-05
68 *606:8 *3789:A2 0
69 *606:35 *3789:A2 5.02217e-05
70 *627:42 *892:8 7.20129e-05
71 *627:98 *3793:A2 4.65607e-05
72 *627:98 *892:8 0.000152011
73 *643:67 *3846:A2 0
74 *643:76 *3846:A2 0
75 *643:76 *892:68 0
76 *643:89 *3789:A2 0
77 *643:89 *892:68 0
78 *643:98 *892:62 8.65905e-05
79 *643:98 *892:66 0.000354725
80 *643:107 *892:62 0.000270093
81 *645:101 *3786:A2 8.40269e-05
82 *878:43 *892:52 3.57349e-05
83 *878:47 *892:52 0.000460271
84 *878:53 *892:58 0.000198425
85 *878:62 *892:58 2.01565e-05
86 *878:62 *892:62 2.17931e-05
*RES
1 *4152:X *892:4 1.6 
2 *892:4 *892:8 7.28 
3 *892:8 *3792:A2 7.605 
4 *892:8 *892:23 3.42 
5 *892:23 *3791:A2 13.24 
6 *892:23 *892:46 0.87 
7 *892:46 *892:52 9.625 
8 *892:52 *892:58 5.81 
9 *892:58 *892:62 4.26 
10 *892:62 *892:66 5.21 
11 *892:66 *892:68 5.205 
12 *892:68 *3846:A2 12.285 
13 *892:68 *3849:A2 5.1 
14 *892:66 *3789:A2 8.925 
15 *892:62 *3764:A2 1.6 
16 *892:58 *3848:A2 1.6 
17 *892:52 *3786:A2 13.425 
18 *892:46 *3790:A2 4.215 
19 *892:4 *3793:A2 12.2 
*END

*D_NET *893 0.0138922
*CONN
*I *3804:A2 I *D sky130_fd_sc_hd__o21a_2
*I *3772:A2 I *D sky130_fd_sc_hd__o21a_2
*I *3771:A2 I *D sky130_fd_sc_hd__o21a_2
*I *3773:A2 I *D sky130_fd_sc_hd__o21a_2
*I *3768:A2 I *D sky130_fd_sc_hd__o21a_2
*I *3794:A2 I *D sky130_fd_sc_hd__o21a_2
*I *3774:A2 I *D sky130_fd_sc_hd__o21a_2
*I *3805:A2 I *D sky130_fd_sc_hd__o21a_2
*I *3788:A2 I *D sky130_fd_sc_hd__o21a_2
*I *4153:X O *D sky130_fd_sc_hd__clkdlybuf4s25_1
*CAP
1 *3804:A2 0
2 *3772:A2 0
3 *3771:A2 0.000498644
4 *3773:A2 0
5 *3768:A2 0.000582058
6 *3794:A2 5.12312e-05
7 *3774:A2 0.000149239
8 *3805:A2 8.93952e-05
9 *3788:A2 0.000278603
10 *4153:X 0.000227437
11 *893:82 0.000582058
12 *893:80 0.000695413
13 *893:74 0.000407266
14 *893:55 0.000383176
15 *893:31 0.00115272
16 *893:27 0.00131424
17 *893:25 0.000522014
18 *893:8 0.000749348
19 *3788:A2 *4153:A 0.000269061
20 *893:8 *1030:16 0.000352161
21 *893:25 *4153:A 4.13171e-05
22 *3373:A3 *3768:A2 0.00014898
23 *3373:A3 *3771:A2 1.44259e-05
24 *3373:A3 *893:80 6.4422e-05
25 *3768:A1 *3768:A2 2.22589e-05
26 *3768:B1 *3768:A2 0.000200615
27 *3769:A2 *3768:A2 2.05056e-05
28 *3770:A1 *3768:A2 9.80943e-06
29 *3771:A1 *3771:A2 0.000773897
30 *3772:B1 *893:80 0.000142669
31 *3773:B1 *3768:A2 8.40269e-05
32 *3774:A1 *3774:A2 0.000117832
33 *3788:A1 *3788:A2 0.000342021
34 *3804:B1 *893:25 0.00015896
35 *3804:B1 *893:27 8.65905e-05
36 *3805:A1 *3774:A2 0.000178248
37 *3805:A1 *3805:A2 1.83756e-05
38 *3805:A1 *893:31 1.56428e-05
39 *3924:RESET_B *893:80 0.000164874
40 *3939:RESET_B *3788:A2 0.000181369
41 *3986:D *893:31 2.75145e-05
42 *3996:CLK *3794:A2 8.23457e-05
43 *3996:D *893:55 0
44 *4253:A *893:55 3.09233e-05
45 *394:12 *3768:A2 0.000385327
46 *394:27 *3768:A2 0.000196376
47 *394:44 *3768:A2 0.000150653
48 *394:85 *3768:A2 0.000268129
49 *644:66 *3774:A2 0
50 *644:89 *3768:A2 3.83041e-05
51 *877:48 *3768:A2 2.75145e-05
52 *879:25 *3788:A2 0.000360604
53 *879:25 *893:25 0.000378903
54 *879:29 *893:27 0.000292995
55 *879:29 *893:31 1.34594e-05
56 *879:37 *893:55 5.39961e-05
57 *879:59 *893:55 0.000164686
58 *879:68 *893:55 5.16348e-05
59 *879:68 *893:74 0.000264484
60 *879:74 *3771:A2 0
61 *879:74 *893:80 0
62 *879:83 *3768:A2 1.34503e-05
*RES
1 *4153:X *893:8 6.81 
2 *893:8 *3788:A2 12.495 
3 *893:8 *893:25 7.925 
4 *893:25 *893:27 5.28 
5 *893:27 *893:31 10.125 
6 *893:31 *3805:A2 2.755 
7 *893:31 *3774:A2 9.02 
8 *893:27 *893:55 4.91 
9 *893:55 *3794:A2 4.395 
10 *893:55 *893:74 6.335 
11 *893:74 *893:80 6.755 
12 *893:80 *893:82 2 
13 *893:82 *3768:A2 14.47 
14 *893:82 *3773:A2 1.6 
15 *893:80 *3771:A2 14.385 
16 *893:74 *3772:A2 1.6 
17 *893:25 *3804:A2 1.6 
*END

*D_NET *894 0.0168583
*CONN
*I *3775:A2 I *D sky130_fd_sc_hd__o21a_2
*I *3806:A2 I *D sky130_fd_sc_hd__o21a_2
*I *4151:A I *D sky130_fd_sc_hd__clkdlybuf4s25_1
*I *4153:A I *D sky130_fd_sc_hd__clkdlybuf4s25_1
*I *4152:A I *D sky130_fd_sc_hd__clkdlybuf4s25_1
*I *3784:A2 I *D sky130_fd_sc_hd__o21a_2
*I *3782:A2 I *D sky130_fd_sc_hd__o21a_2
*I *3824:A2 I *D sky130_fd_sc_hd__o21a_2
*I *4154:X O *D sky130_fd_sc_hd__clkdlybuf4s25_1
*CAP
1 *3775:A2 0
2 *3806:A2 0
3 *4151:A 0.00142627
4 *4153:A 0.000595619
5 *4152:A 2.2266e-05
6 *3784:A2 0
7 *3782:A2 0
8 *3824:A2 2.89988e-05
9 *4154:X 0.000107021
10 *894:83 0.00113714
11 *894:72 0.00125788
12 *894:60 0.00217997
13 *894:51 0.000219861
14 *894:32 0.000906232
15 *894:22 0.0010183
16 *894:12 0.000452877
17 *4151:A *4175:A 2.03321e-05
18 *4153:A *4234:A 0
19 *894:12 *3329:A 3.64998e-06
20 *894:32 *3470:B1 3.98952e-05
21 *894:32 *3661:A1 0
22 *894:32 *3661:A2 0
23 *894:32 *3998:D 9.42224e-05
24 *894:32 *4323:A 8.69212e-05
25 *894:32 *936:41 0
26 *894:51 *3396:A 0.000114492
27 *894:72 *4261:A 0.000198945
28 *894:72 *911:62 8.53113e-06
29 *3363:A2 *4151:A 0.000104095
30 *3428:A1 *4151:A 4.76581e-05
31 *3625:C *894:72 0.000120655
32 *3686:B1 *894:12 3.47837e-05
33 *3775:B1 *894:22 0.00049348
34 *3784:B1 *894:72 8.8266e-05
35 *3784:B1 *894:83 0.000275548
36 *3788:A2 *4153:A 0.000269061
37 *3790:B1 *4151:A 0
38 *3793:A1 *894:83 0.000167709
39 *3793:A2 *894:83 2.25079e-05
40 *3824:B1 *3824:A2 4.66108e-05
41 *3850:A1 *4151:A 0
42 *3915:D *4153:A 0
43 *3929:CLK *4152:A 4.82919e-05
44 *3931:SET_B *894:83 4.82919e-05
45 *3934:CLK *894:32 0.000191897
46 *3934:CLK *894:51 9.54469e-05
47 *3934:RESET_B *894:51 5.35407e-05
48 *3936:RESET_B *894:72 8.65961e-05
49 *3939:RESET_B *4153:A 0.000183731
50 *3985:CLK *4153:A 1.08723e-05
51 *3985:CLK *894:83 9.02455e-05
52 *4016:D *894:51 0
53 *4038:D *4151:A 0.000257199
54 *4041:D *4151:A 1.88904e-05
55 *4093:A *894:22 4.66108e-05
56 *4093:A *894:32 4.66108e-05
57 *4094:A *4151:A 0.000260999
58 *4122:A *894:51 0.000210871
59 *4140:A *4153:A 0.000511446
60 *4140:A *894:83 8.22555e-05
61 *4236:A *4151:A 9.37731e-05
62 *4236:A *894:51 9.50342e-06
63 *4236:A *894:60 5.16348e-05
64 *4236:A *894:72 0.000115779
65 *354:24 *4151:A 0.000753649
66 *354:24 *894:32 8.53113e-06
67 *354:24 *894:51 0.000354775
68 *354:24 *894:60 4.21314e-05
69 *360:33 *4151:A 0
70 *603:55 *894:83 0
71 *603:105 *4153:A 0
72 *606:8 *4151:A 0.000131401
73 *621:91 *894:32 0.000137571
74 *621:103 *894:32 3.25831e-05
75 *636:109 *894:22 2.42043e-05
76 *636:109 *894:32 5.16418e-05
77 *645:42 *894:72 3.47837e-05
78 *646:43 *894:32 0
79 *678:12 *894:83 0.000116158
80 *880:12 *894:12 0.000104905
81 *880:59 *894:72 3.50033e-05
82 *880:61 *894:72 0.000271308
83 *880:91 *894:72 0.000287624
84 *880:102 *894:83 0.000326413
85 *891:10 *4151:A 0
86 *893:25 *4153:A 4.13171e-05
*RES
1 *4154:X *894:12 7.52 
2 *894:12 *894:22 6.555 
3 *894:22 *894:32 14.765 
4 *894:32 *3824:A2 4.05 
5 *894:32 *894:51 7.08 
6 *894:51 *3782:A2 3.6 
7 *894:51 *894:60 0.615 
8 *894:60 *894:72 19.41 
9 *894:72 *3784:A2 1.6 
10 *894:72 *894:83 15.08 
11 *894:83 *4152:A 4.05 
12 *894:83 *4153:A 18.24 
13 *894:60 *4151:A 20.2275 
14 *894:22 *3806:A2 1.6 
15 *894:12 *3775:A2 1.6 
*END

*D_NET *895 0.0023391
*CONN
*I *3647:A1 I *D sky130_fd_sc_hd__mux2_1
*I *4374:X O *D sky130_fd_sc_hd__clkdlybuf4s25_1
*CAP
1 *3647:A1 0.000686428
2 *4374:X 0.000686428
3 *3647:A1 *3647:S 0
4 *3647:A1 *909:72 0
5 *3647:A1 *909:89 0
6 o_receive_data[6] *3647:A1 0
7 o_receive_data[7] *3647:A1 0.000595717
8 *3643:A1 *3647:A1 5.20968e-05
9 *3645:A1 *3647:A1 0.000178512
10 *3647:A0 *3647:A1 4.82863e-05
11 *3871:D *3647:A1 9.16315e-05
12 *3875:D *3647:A1 0
13 *4366:A *3647:A1 0
14 *4372:A *3647:A1 0
*RES
1 *4374:X *3647:A1 22.41 
*END

*D_NET *896 0.0190113
*CONN
*I *3814:A2 I *D sky130_fd_sc_hd__o21a_2
*I *3626:A2 I *D sky130_fd_sc_hd__o21a_2
*I *3819:A2 I *D sky130_fd_sc_hd__o21a_2
*I *3815:A2 I *D sky130_fd_sc_hd__o21a_2
*I *3816:A2 I *D sky130_fd_sc_hd__o21a_2
*I *3818:A2 I *D sky130_fd_sc_hd__o21a_2
*I *3820:A2 I *D sky130_fd_sc_hd__o21a_2
*I *3822:A2 I *D sky130_fd_sc_hd__o21a_2
*I *3821:A2 I *D sky130_fd_sc_hd__o21a_2
*I *3817:A2 I *D sky130_fd_sc_hd__o21a_2
*I *4155:X O *D sky130_fd_sc_hd__clkdlybuf4s25_1
*CAP
1 *3814:A2 0
2 *3626:A2 0.000966591
3 *3819:A2 0.000339243
4 *3815:A2 4.3227e-05
5 *3816:A2 0
6 *3818:A2 6.41627e-05
7 *3820:A2 0.000887866
8 *3822:A2 0
9 *3821:A2 6.62196e-05
10 *3817:A2 0.000275715
11 *4155:X 0
12 *896:133 0.00176112
13 *896:123 0.000595427
14 *896:110 0.000396262
15 *896:56 0.000945614
16 *896:45 0.000481058
17 *896:39 0.000539498
18 *896:31 0.000612084
19 *896:10 0.00105944
20 *896:4 0.000502785
21 *3626:A2 *3488:A 0.000139245
22 *3626:A2 *3489:A_N 0
23 *3626:A2 *1069:18 0
24 *3820:A2 *3568:B1 4.07357e-05
25 *3820:A2 *904:63 5.38986e-06
26 *3820:A2 *1076:12 0
27 *3820:A2 *1077:27 6.52265e-05
28 *896:10 *4239:A 4.82919e-05
29 *896:31 *4184:A 0.000220388
30 *896:31 *1118:14 6.43186e-05
31 *896:110 *910:20 0.000342254
32 *3487:B1 *3626:A2 0.000162261
33 *3490:B *3626:A2 0.000185405
34 *3548:A2 *896:133 0.000124895
35 *3548:B1 *3626:A2 0.000351146
36 *3548:B1 *896:133 0.000410651
37 *3549:A1 *3626:A2 0
38 *3549:A2 *3626:A2 0
39 *3549:B1 *896:133 0
40 *3554:A2 *896:31 0.000345546
41 *3555:A2 *3815:A2 4.66108e-05
42 *3557:B *896:10 4.21973e-05
43 *3557:B *896:110 7.00889e-06
44 *3572:B *3820:A2 0.000382758
45 *3626:A1 *3626:A2 0
46 *3634:C_N *3817:A2 1.71013e-05
47 *3650:A1 *896:45 0
48 *3808:B1 *3626:A2 7.89767e-05
49 *3815:A1 *3815:A2 0.000119762
50 *3815:A1 *896:110 3.66286e-05
51 *3815:B1 *3815:A2 1.91597e-05
52 *3816:B1 *896:31 2.747e-05
53 *3816:B1 *896:39 6.4723e-05
54 *3817:B1 *3817:A2 4.82863e-05
55 *3818:A1 *3818:A2 5.83121e-06
56 *3818:A1 *896:45 1.91597e-05
57 *3820:A1 *3820:A2 3.64998e-06
58 *3820:B1 *3820:A2 3.64998e-06
59 *3821:A1 *896:45 1.91597e-05
60 *3822:A1 *3820:A2 0
61 *3822:A1 *896:45 0
62 *3822:A1 *896:56 0
63 *3822:B1 *3820:A2 2.14129e-05
64 *3822:B1 *896:45 2.92496e-05
65 *3822:B1 *896:56 0.000109995
66 *4007:CLK *3626:A2 0
67 *4007:CLK *896:133 0
68 *4007:RESET_B *896:123 0.000140905
69 *4009:RESET_B *3817:A2 0.000658556
70 *4009:RESET_B *896:10 0.000410579
71 *4012:RESET_B *3820:A2 6.07575e-06
72 *4014:CLK *3820:A2 0
73 *4014:RESET_B *3820:A2 0
74 *4046:D *896:31 4.77807e-05
75 *4123:A *3817:A2 1.88602e-05
76 *4128:A *3820:A2 0.000188767
77 *4246:A *896:39 1.64132e-05
78 *4246:A *896:45 0.000346781
79 *4293:A *3626:A2 0
80 *483:86 *3626:A2 0
81 *487:12 *3626:A2 0
82 *503:16 *3820:A2 8.13313e-06
83 *613:103 *3820:A2 0
84 *655:18 *3818:A2 1.42674e-05
85 *655:18 *3821:A2 4.66108e-05
86 *655:20 *3821:A2 8.65905e-05
87 *655:84 *3817:A2 0.000351401
88 *655:84 *896:10 0.000115931
89 *656:69 *896:10 0.000267467
90 *656:69 *896:123 0.000564308
91 *657:23 *896:10 0.00016141
92 *657:53 *3819:A2 0.000686627
93 *881:23 *896:31 8.28018e-06
94 *881:23 *896:39 1.07593e-05
95 *881:29 *896:39 0.000107174
96 *881:65 *896:110 0.00034058
97 *881:90 *896:110 8.53113e-06
98 *881:90 *896:123 0.000249933
99 *881:103 *896:133 0.00100368
*RES
1 *4155:X *896:4 1.6 
2 *896:4 *896:10 11.405 
3 *896:10 *3817:A2 12.75 
4 *896:10 *896:31 9.83 
5 *896:31 *896:39 6.685 
6 *896:39 *896:45 7.025 
7 *896:45 *3821:A2 4.74 
8 *896:45 *896:56 1.38 
9 *896:56 *3822:A2 3.6 
10 *896:56 *3820:A2 22.84 
11 *896:39 *3818:A2 2.665 
12 *896:31 *3816:A2 1.6 
13 *896:4 *896:110 9.88 
14 *896:110 *3815:A2 2.74 
15 *896:110 *896:123 10.48 
16 *896:123 *896:133 14.555 
17 *896:133 *3819:A2 9.915 
18 *896:133 *3626:A2 24.105 
19 *896:123 *3814:A2 1.6 
*END

*D_NET *897 0.011633
*CONN
*I *3808:A2 I *D sky130_fd_sc_hd__o21a_2
*I *3809:A2 I *D sky130_fd_sc_hd__o21a_2
*I *3807:A2 I *D sky130_fd_sc_hd__o21a_2
*I *3810:A2 I *D sky130_fd_sc_hd__o21a_2
*I *3762:A2 I *D sky130_fd_sc_hd__o21a_2
*I *3811:A2 I *D sky130_fd_sc_hd__o21a_2
*I *3812:A2 I *D sky130_fd_sc_hd__o21a_2
*I *3813:A2 I *D sky130_fd_sc_hd__o21a_2
*I *4156:X O *D sky130_fd_sc_hd__clkdlybuf4s25_1
*CAP
1 *3808:A2 2.51513e-05
2 *3809:A2 0.000213694
3 *3807:A2 0.000665333
4 *3810:A2 0.000158648
5 *3762:A2 6.42818e-05
6 *3811:A2 0
7 *3812:A2 0
8 *3813:A2 5.49718e-05
9 *4156:X 0
10 *897:60 0.00116132
11 *897:58 0.000602971
12 *897:54 0.000827067
13 *897:39 0.00111066
14 *897:26 0.000397089
15 *897:17 0.000222498
16 *897:6 0.000176782
17 *3809:A2 *3532:A 4.82863e-05
18 *3809:A2 *1087:10 7.24866e-05
19 *3810:A2 *3490:A 0.000121296
20 *3810:A2 *3490:D_N 0.000121437
21 *897:39 *4160:A 0.000149749
22 *897:54 *4160:A 0
23 *897:60 *3490:A 0.000195244
24 *897:60 *4292:A 9.3062e-06
25 *897:60 *1071:64 0.000345455
26 *897:60 *1079:10 0.000166096
27 *897:60 *1079:12 1.1561e-05
28 *897:60 *1087:10 0.0001369
29 *3530:A1 *3810:A2 9.37731e-05
30 *3530:A1 *897:60 5.23362e-05
31 *3530:A2 *3810:A2 2.26018e-05
32 *3539:B *897:54 6.97202e-05
33 *3626:A1 *897:60 0
34 *3762:B1 *897:54 0.000162769
35 *3807:B1 *3807:A2 4.39911e-06
36 *3808:B1 *897:54 0.000252608
37 *3808:B1 *897:58 4.66826e-05
38 *3809:A1 *3809:A2 0.000179044
39 *3809:B1 *3809:A2 0.000237243
40 *3813:A1 *3813:A2 0.000235585
41 *3813:A1 *897:17 0.000366987
42 *3855:SET_B *897:54 9.30717e-05
43 *4134:A *897:54 0.000201503
44 *142:12 *3807:A2 0.000524898
45 *451:10 *897:60 0.000316213
46 *485:10 *897:54 0
47 *656:69 *3813:A2 5.53249e-06
48 *656:78 *3813:A2 0.000132713
49 *656:78 *897:17 0.000262805
50 *656:78 *897:26 1.34361e-05
51 *656:89 *897:26 0.000172992
52 *656:89 *897:39 1.1561e-05
53 *882:19 *897:17 0.000110683
54 *882:19 *897:26 3.25831e-05
55 *882:28 *897:26 0.00030514
56 *882:28 *897:39 5.56629e-05
57 *882:41 *3762:A2 5.07419e-05
58 *882:41 *897:39 0.000448231
59 *882:90 *3809:A2 1.93834e-05
60 *882:90 *897:60 9.37731e-05
*RES
1 *4156:X *897:6 3.6 
2 *897:6 *3813:A2 6.255 
3 *897:6 *897:17 5.46 
4 *897:17 *3812:A2 3.6 
5 *897:17 *897:26 3.93 
6 *897:26 *3811:A2 3.6 
7 *897:26 *897:39 9.395 
8 *897:39 *3762:A2 2.74 
9 *897:39 *897:54 16.945 
10 *897:54 *897:58 2.795 
11 *897:58 *897:60 10.56 
12 *897:60 *3810:A2 6.9 
13 *897:60 *3807:A2 12.255 
14 *897:58 *3809:A2 8.61 
15 *897:54 *3808:A2 1.96 
*END

*D_NET *898 0.0123472
*CONN
*I *3828:A2 I *D sky130_fd_sc_hd__o21a_2
*I *3823:A2 I *D sky130_fd_sc_hd__o21a_2
*I *3780:A2 I *D sky130_fd_sc_hd__o21a_2
*I *3826:A2 I *D sky130_fd_sc_hd__o21a_2
*I *3785:A2 I *D sky130_fd_sc_hd__o21a_2
*I *3781:A2 I *D sky130_fd_sc_hd__o21a_2
*I *3779:A2 I *D sky130_fd_sc_hd__o21a_2
*I *3783:A2 I *D sky130_fd_sc_hd__o21a_2
*I *3827:A2 I *D sky130_fd_sc_hd__o21a_2
*I *3825:A2 I *D sky130_fd_sc_hd__o21a_2
*I *4157:X O *D sky130_fd_sc_hd__clkdlybuf4s25_1
*CAP
1 *3828:A2 2.04052e-05
2 *3823:A2 0.00013244
3 *3780:A2 0.000141078
4 *3826:A2 7.76538e-05
5 *3785:A2 6.10068e-05
6 *3781:A2 0
7 *3779:A2 0.000411214
8 *3783:A2 5.61575e-05
9 *3827:A2 0.000224146
10 *3825:A2 6.38901e-05
11 *4157:X 0.000114351
12 *898:126 0.000328721
13 *898:102 0.000432671
14 *898:91 0.00048343
15 *898:78 0.00031562
16 *898:46 0.000766926
17 *898:18 0.000355092
18 *898:16 0.000969556
19 *898:8 0.000873014
20 *898:6 0.00045316
21 *3779:A2 *911:30 4.70256e-05
22 *3780:A2 *4212:A 0
23 *3783:A2 *3431:B 0.000119756
24 *3828:A2 *4154:A 4.82919e-05
25 *898:16 *3522:B 2.49909e-05
26 *898:16 *1070:10 4.99619e-05
27 *898:18 *3522:B 5.4003e-05
28 *898:46 *3431:B 9.78543e-06
29 *898:46 *3433:A1 0
30 *898:46 *3522:B 0.000251803
31 *898:46 *911:30 0
32 *898:46 *1067:70 6.28008e-05
33 *898:91 *3335:A 5.20981e-05
34 *898:102 *4212:A 0
35 *3432:A2 *898:91 0.000124007
36 *3521:B *3780:A2 0.00020086
37 *3779:A1 *3779:A2 0.000320362
38 *3779:A1 *898:46 5.78805e-05
39 *3780:A1 *3780:A2 0.000454597
40 *3780:A1 *898:102 7.23602e-05
41 *3781:B1 *898:78 0.000162412
42 *3781:B1 *898:126 0
43 *3785:A1 *3785:A2 2.0514e-05
44 *3785:B1 *3785:A2 8.8266e-05
45 *3785:B1 *898:102 0
46 *3823:A1 *3823:A2 8.97564e-05
47 *3823:B1 *3823:A2 0
48 *3825:A1 *3825:A2 0.000156621
49 *3825:A1 *898:18 5.23362e-05
50 *3827:A1 *3827:A2 0.000260306
51 *3935:RESET_B *3779:A2 0.000288244
52 *3935:RESET_B *898:46 9.50342e-06
53 *3937:CLK *3826:A2 1.08758e-05
54 *3937:D *3780:A2 0
55 *3937:RESET_B *898:102 4.75576e-05
56 *3951:CLK *3823:A2 4.82919e-05
57 *3951:RESET_B *3823:A2 0
58 *3975:CLK *3779:A2 5.83121e-06
59 *3980:RESET_B *898:18 2.13396e-05
60 *4015:CLK *898:6 6.3889e-05
61 *4015:CLK *898:8 0.000131791
62 *4015:CLK *898:16 0.000846488
63 *4015:D *898:6 1.33293e-05
64 *4015:RESET_B *3823:A2 0
65 *4015:RESET_B *898:126 0
66 *4020:D *898:18 9.54469e-05
67 *4020:RESET_B *898:126 6.73665e-05
68 *4233:A *3779:A2 0.00011852
69 *4233:A *3783:A2 4.66108e-05
70 *651:25 *3825:A2 1.70935e-05
71 *651:69 *3825:A2 7.00132e-05
72 *651:69 *898:18 3.05646e-05
73 *651:75 *3827:A2 2.30292e-05
74 *883:10 *3823:A2 2.4997e-05
75 *883:10 *898:126 0.000116621
76 *883:32 *898:126 9.05716e-05
77 *883:38 *898:18 0.000195932
78 *883:38 *898:46 9.54469e-05
79 *883:58 *898:46 0.000555783
80 *883:94 *898:78 0.000231571
81 *883:103 *898:91 0
82 *883:103 *898:102 0
83 *883:122 *3826:A2 1.91597e-05
84 *883:122 *898:102 0
85 *888:43 *898:126 0
*RES
1 *4157:X *898:6 3.085 
2 *898:6 *898:8 2.175 
3 *898:8 *898:16 12.575 
4 *898:16 *898:18 2.91 
5 *898:18 *3825:A2 5.49 
6 *898:18 *3827:A2 7.62 
7 *898:16 *898:46 8.82 
8 *898:46 *3783:A2 4.74 
9 *898:46 *3779:A2 12.585 
10 *898:8 *898:78 7.42 
11 *898:78 *3781:A2 1.6 
12 *898:78 *898:91 5.825 
13 *898:91 *3785:A2 4.74 
14 *898:91 *898:102 3.165 
15 *898:102 *3826:A2 4.755 
16 *898:102 *3780:A2 8.805 
17 *898:6 *898:126 6.44 
18 *898:126 *3823:A2 6.45 
19 *898:126 *3828:A2 4.05 
*END

*D_NET *899 0.0127613
*CONN
*I *3829:A2 I *D sky130_fd_sc_hd__o21a_2
*I *3844:A2 I *D sky130_fd_sc_hd__o21a_2
*I *3843:A2 I *D sky130_fd_sc_hd__o21a_2
*I *3845:A2 I *D sky130_fd_sc_hd__o21a_2
*I *3763:A2 I *D sky130_fd_sc_hd__o21a_2
*I *3777:A2 I *D sky130_fd_sc_hd__o21a_2
*I *3787:A2 I *D sky130_fd_sc_hd__o21a_2
*I *3847:A2 I *D sky130_fd_sc_hd__o21a_2
*I *3778:A2 I *D sky130_fd_sc_hd__o21a_2
*I *3776:A2 I *D sky130_fd_sc_hd__o21a_2
*I *4158:X O *D sky130_fd_sc_hd__clkdlybuf4s25_1
*CAP
1 *3829:A2 0.000151752
2 *3844:A2 0.000165664
3 *3843:A2 4.4019e-05
4 *3845:A2 2.08101e-05
5 *3763:A2 0
6 *3777:A2 0.00027124
7 *3787:A2 0.000126813
8 *3847:A2 0
9 *3778:A2 0
10 *3776:A2 0.000259538
11 *4158:X 0.000466724
12 *899:116 0.000770815
13 *899:84 0.000580843
14 *899:82 0.000545265
15 *899:72 0.000461008
16 *899:68 0.000819694
17 *899:60 0.000540039
18 *899:47 0.000355577
19 *899:28 0.000355315
20 *3777:A2 *911:10 0
21 *3829:A2 *1113:16 2.30292e-05
22 *899:60 *1113:16 6.55328e-05
23 *899:68 *1113:16 0
24 *899:72 *901:59 0.000311294
25 *3422:B2 *899:47 8.40213e-05
26 *3426:C1 *3776:A2 0.000136182
27 *3612:A2 *899:116 0
28 *3616:A *3843:A2 0.000160635
29 *3777:A1 *3777:A2 0.000478357
30 *3777:B1 *3777:A2 8.08439e-05
31 *3778:B1 *899:47 5.4155e-06
32 *3829:A1 *3829:A2 0.000352161
33 *3829:A1 *899:68 3.57349e-05
34 *3844:A1 *3844:A2 4.60584e-05
35 *3844:B1 *3844:A2 0.000205686
36 *3844:B1 *899:116 1.52184e-05
37 *3845:A1 *899:72 0.000123225
38 *3845:B1 *899:82 0.000122337
39 *3928:CLK *899:28 0.000120186
40 *4021:D *899:60 0
41 *4022:D *899:28 0
42 *4035:RESET_B *3843:A2 3.64998e-06
43 *4036:RESET_B *3844:A2 0.000116165
44 *4036:RESET_B *899:116 0.000339879
45 *4037:D *899:47 6.0078e-05
46 *4037:D *899:60 4.91952e-05
47 *4037:RESET_B *899:82 0.000270653
48 *4043:RESET_B *899:82 1.1561e-05
49 *4100:A *899:72 1.47256e-05
50 *4100:A *899:82 3.23663e-05
51 *4140:A *3777:A2 0
52 *531:38 *899:116 0
53 *607:78 *899:28 0.000406778
54 *607:78 *899:47 0.000139245
55 *607:78 *899:68 3.86802e-05
56 *607:78 *899:116 7.30547e-05
57 *611:132 *3776:A2 5.38497e-05
58 *628:91 *899:82 0.000140912
59 *628:93 *899:82 0.000162325
60 *628:127 *899:82 4.82919e-05
61 *659:16 *899:82 0.000189845
62 *659:16 *899:84 8.65961e-05
63 *659:20 *3787:A2 0.000278111
64 *659:20 *899:84 0.000303869
65 *659:99 *3843:A2 8.65905e-05
66 *662:41 *899:28 0
67 *662:41 *899:47 7.63204e-05
68 *662:52 *899:68 7.47215e-05
69 *885:28 *3776:A2 9.03208e-05
70 *885:28 *899:28 0.000625775
71 *885:28 *899:47 2.8694e-05
72 *885:39 *899:47 4.82919e-05
73 *885:39 *899:60 3.09233e-05
74 *885:50 *899:60 0.000339893
75 *885:50 *899:68 1.52184e-05
76 *885:54 *899:68 8.49205e-05
77 *885:62 *899:82 3.13457e-05
78 *885:104 *899:116 0
79 *887:67 *899:72 0.000107415
*RES
1 *4158:X *3776:A2 11.85 
2 *4158:X *899:28 13.1 
3 *899:28 *3778:A2 1.6 
4 *899:28 *899:47 7.945 
5 *899:47 *3847:A2 1.6 
6 *899:47 *899:60 8.98 
7 *899:60 *899:68 5.48 
8 *899:68 *899:72 5.21 
9 *899:72 *899:82 12.46 
10 *899:82 *899:84 3.555 
11 *899:84 *3787:A2 4.12 
12 *899:84 *3777:A2 12.08 
13 *899:82 *3763:A2 1.6 
14 *899:72 *3845:A2 1.96 
15 *899:68 *899:116 10.815 
16 *899:116 *3843:A2 5.085 
17 *899:116 *3844:A2 7.575 
18 *899:60 *3829:A2 5.155 
*END

*D_NET *900 0.0110464
*CONN
*I *3834:A2 I *D sky130_fd_sc_hd__o21a_2
*I *3839:A2 I *D sky130_fd_sc_hd__o21a_2
*I *3838:A2 I *D sky130_fd_sc_hd__o21a_2
*I *3837:A2 I *D sky130_fd_sc_hd__o21a_2
*I *3836:A2 I *D sky130_fd_sc_hd__o21a_2
*I *3835:A2 I *D sky130_fd_sc_hd__o21a_2
*I *3833:A2 I *D sky130_fd_sc_hd__o21a_2
*I *3831:A2 I *D sky130_fd_sc_hd__o21a_2
*I *3832:A2 I *D sky130_fd_sc_hd__o21a_2
*I *3830:A2 I *D sky130_fd_sc_hd__o21a_2
*I *4159:X O *D sky130_fd_sc_hd__clkdlybuf4s25_1
*CAP
1 *3834:A2 2.36557e-05
2 *3839:A2 0.000141202
3 *3838:A2 6.46035e-05
4 *3837:A2 0
5 *3836:A2 5.46402e-05
6 *3835:A2 0
7 *3833:A2 0
8 *3831:A2 4.80512e-05
9 *3832:A2 0
10 *3830:A2 5.77506e-05
11 *4159:X 0
12 *900:101 0.000332389
13 *900:92 0.000290597
14 *900:81 0.000415806
15 *900:68 0.000543272
16 *900:58 0.000511279
17 *900:33 0.000148955
18 *900:20 0.000616773
19 *900:18 0.00139107
20 *900:6 0.00107446
21 *900:18 *3495:B 0.000119756
22 *900:58 *4160:A 4.41506e-05
23 *3355:A *900:18 2.59835e-05
24 *3355:A *900:20 8.8266e-05
25 *3516:B *900:18 0
26 *3598:B1 *900:92 0
27 *3636:A1 *900:18 0.000164679
28 *3636:A1 *900:58 0.000108322
29 *3637:A1 *900:68 7.4027e-05
30 *3830:B1 *3830:A2 0.000124895
31 *3830:B1 *900:20 8.65961e-05
32 *3830:B1 *900:33 7.44453e-05
33 *3831:A1 *3831:A2 8.65905e-05
34 *3834:A1 *3834:A2 5.83121e-06
35 *3834:A1 *900:68 4.82919e-05
36 *3836:A1 *3836:A2 2.75145e-05
37 *3838:B1 *3838:A2 0.000122337
38 *3839:A1 *3839:A2 0.000267251
39 *3839:A1 *900:101 2.23407e-05
40 *3854:D *900:20 4.82863e-05
41 *3864:D *900:18 6.23119e-05
42 *3865:D *900:18 0.000135771
43 *4082:A *3831:A2 4.21889e-05
44 *4132:A *900:33 0
45 *4145:A *3831:A2 0.000164874
46 *4147:A *900:68 8.08153e-06
47 *4188:A *900:18 4.82863e-05
48 *660:27 *900:18 0.000403502
49 *660:68 *900:33 2.34423e-05
50 *661:19 *900:18 4.79251e-05
51 *661:26 *900:18 5.36866e-05
52 *661:30 *900:18 0.000431503
53 *661:30 *900:58 0.000116158
54 *661:30 *900:81 0
55 *661:41 *900:81 0
56 *661:41 *900:92 0
57 *661:83 *900:92 3.24046e-05
58 *661:83 *900:101 0.000181095
59 *661:94 *3839:A2 0.000263586
60 *661:94 *900:101 1.71013e-05
61 *886:18 *900:20 0.000351104
62 *886:33 *900:33 0.00013521
63 *886:74 *900:68 0.000473648
64 *886:87 *900:68 5.4003e-05
65 *886:87 *900:81 0.000309664
66 *886:100 *3836:A2 5.83121e-06
67 *886:100 *900:81 4.7853e-05
68 *886:100 *900:92 0.00018116
69 *886:111 *900:92 2.68721e-05
70 *886:111 *900:101 0.000175066
71 *887:14 *900:18 0
*RES
1 *4159:X *900:6 3.6 
2 *900:6 *900:18 18.89 
3 *900:18 *900:20 9.075 
4 *900:20 *3830:A2 2.74 
5 *900:20 *900:33 6.4 
6 *900:33 *3832:A2 1.6 
7 *900:33 *3831:A2 3.445 
8 *900:18 *3833:A2 1.6 
9 *900:6 *900:58 4.865 
10 *900:58 *900:68 9.995 
11 *900:68 *3835:A2 3.6 
12 *900:68 *900:81 4.74 
13 *900:81 *3836:A2 4.395 
14 *900:81 *900:92 4.185 
15 *900:92 *3837:A2 3.6 
16 *900:92 *900:101 4.185 
17 *900:101 *3838:A2 4.74 
18 *900:101 *3839:A2 9.06 
19 *900:58 *3834:A2 2.05 
*END

*D_NET *901 0.0183788
*CONN
*I *3840:A2 I *D sky130_fd_sc_hd__o21a_2
*I *3842:A2 I *D sky130_fd_sc_hd__o21a_2
*I *3841:A2 I *D sky130_fd_sc_hd__o21a_2
*I *3851:A2 I *D sky130_fd_sc_hd__o21a_2
*I *3852:A2 I *D sky130_fd_sc_hd__o21a_2
*I *3853:A2 I *D sky130_fd_sc_hd__o21a_2
*I *4158:A I *D sky130_fd_sc_hd__clkdlybuf4s25_1
*I *4159:A I *D sky130_fd_sc_hd__clkdlybuf4s25_1
*I *4160:X O *D sky130_fd_sc_hd__clkdlybuf4s25_1
*CAP
1 *3840:A2 0.000707088
2 *3842:A2 0
3 *3841:A2 0
4 *3851:A2 0
5 *3852:A2 0
6 *3853:A2 0.00030232
7 *4158:A 0.000948134
8 *4159:A 0.000260073
9 *4160:X 0.00102583
10 *901:107 0.00109273
11 *901:96 0.000418448
12 *901:69 0.000678346
13 *901:59 0.00151293
14 *901:51 0.00175713
15 *901:32 0.00230131
16 *3853:A2 *4190:A 5.39961e-05
17 *3853:A2 *1028:8 0.000118527
18 *4158:A *3349:A 6.97034e-05
19 *4158:A *1105:6 1.03423e-05
20 *901:32 *3350:A 4.82919e-05
21 *901:32 *3351:A 4.82863e-05
22 *901:32 *3499:A_N 8.57237e-05
23 *901:32 *3499:B 0.000157261
24 *901:51 *3578:A3 0.000204463
25 *901:51 *3578:B1 0
26 *901:51 *3580:B 1.07797e-05
27 *901:51 *1104:10 0
28 *901:51 *1105:21 2.97204e-05
29 *901:69 *4190:A 0
30 *901:107 *3501:A 0.000180675
31 *901:107 *1101:10 0
32 *3504:A *901:51 8.7974e-05
33 *3504:B *901:51 0.000185405
34 *3574:A3 *901:51 8.08153e-06
35 *3579:A1 *4158:A 3.76337e-05
36 *3587:A1 *901:32 0.000162311
37 *3608:C *901:59 4.99619e-05
38 *3610:B *901:107 0
39 *3636:A1 *4159:A 0
40 *3829:B1 *901:51 0.000160658
41 *3829:B1 *901:96 2.65028e-05
42 *3840:A1 *3840:A2 0.000496278
43 *3842:B1 *901:96 1.82868e-05
44 *3851:B1 *901:69 0.000198939
45 *3853:A1 *3853:A2 0.000319167
46 *4023:CLK *4158:A 0.000171845
47 *4024:RESET_B *4158:A 0.00020613
48 *4024:RESET_B *901:51 6.92392e-05
49 *4025:CLK *4159:A 0.000116151
50 *4032:D *3840:A2 3.89528e-05
51 *4033:RESET_B *901:107 0
52 *4035:D *901:69 0
53 *4043:RESET_B *901:59 0
54 *4044:RESET_B *3853:A2 0
55 *4081:A *901:51 2.20732e-05
56 *4081:A *901:59 1.03323e-05
57 *4100:A *901:59 0
58 *4100:A *901:69 5.16418e-05
59 *390:6 *901:59 8.57024e-05
60 *390:19 *901:59 3.66286e-05
61 *460:10 *4158:A 0.000116636
62 *460:10 *901:51 0.000418044
63 *463:8 *901:51 0.000296088
64 *466:12 *901:51 0
65 *466:12 *901:96 0
66 *466:12 *901:107 0
67 *507:16 *901:51 1.23331e-05
68 *659:58 *901:69 3.09164e-05
69 *659:75 *901:69 0.000478338
70 *659:90 *3853:A2 0
71 *659:99 *3853:A2 0.000354719
72 *661:53 *901:51 4.66108e-05
73 *662:33 *901:32 4.38278e-05
74 *885:93 *901:59 1.7396e-05
75 *885:104 *901:59 5.12017e-06
76 *887:14 *4159:A 1.01661e-05
77 *887:52 *901:96 1.92979e-05
78 *887:67 *901:59 0.000540345
79 *887:82 *901:69 0.000163199
80 *887:106 *3840:A2 4.82919e-05
81 *887:106 *901:96 2.95708e-05
82 *887:106 *901:107 0.000854599
83 *899:72 *901:59 0.000311294
*RES
1 *4160:X *4159:A 10.665 
2 *4160:X *901:32 16.515 
3 *901:32 *4158:A 16.725 
4 *901:32 *901:51 17.27 
5 *901:51 *901:59 19.96 
6 *901:59 *901:69 12.535 
7 *901:69 *3853:A2 12.995 
8 *901:69 *3852:A2 1.6 
9 *901:59 *3851:A2 1.6 
10 *901:51 *901:96 2.87 
11 *901:96 *3841:A2 3.6 
12 *901:96 *901:107 12.05 
13 *901:107 *3842:A2 1.6 
14 *901:107 *3840:A2 18.02 
*END

*D_NET *902 0.0228438
*CONN
*I *4160:A I *D sky130_fd_sc_hd__clkdlybuf4s25_1
*I *4157:A I *D sky130_fd_sc_hd__clkdlybuf4s25_1
*I *4154:A I *D sky130_fd_sc_hd__clkdlybuf4s25_1
*I *4156:A I *D sky130_fd_sc_hd__clkdlybuf4s25_1
*I *4155:A I *D sky130_fd_sc_hd__clkdlybuf4s25_1
*I *4161:X O *D sky130_fd_sc_hd__clkdlybuf4s25_1
*CAP
1 *4160:A 0.00111482
2 *4157:A 0
3 *4154:A 0.00211236
4 *4156:A 3.76639e-05
5 *4155:A 0
6 *4161:X 0.000257118
7 *902:50 0.00410912
8 *902:30 0.00332276
9 *902:19 0.000771375
10 *902:10 0.000779656
11 *4154:A *4209:A 0.000121437
12 *4160:A *910:22 0
13 *902:10 *1072:10 5.72004e-05
14 *902:19 *910:20 0
15 *902:19 *1072:10 6.23206e-05
16 *902:30 *910:20 0
17 *902:30 *910:22 0.000118869
18 *902:50 *3346:A 7.06865e-05
19 *902:50 *3489:B 4.82863e-05
20 *902:50 *3534:A2 1.03423e-05
21 *902:50 *3534:A3 0.000291516
22 *902:50 *1082:14 3.7002e-05
23 *3487:B1 *902:50 3.23663e-05
24 *3529:A2 *4154:A 3.68682e-05
25 *3541:A *902:50 7.06865e-05
26 *3543:A1 *902:50 1.90051e-05
27 *3546:A *902:50 8.53113e-06
28 *3807:A1 *4154:A 0
29 *3807:A1 *902:50 0.000610918
30 *3828:A2 *4154:A 4.82919e-05
31 *3828:B1 *4154:A 0.000260278
32 *3835:B1 *4160:A 8.53113e-06
33 *3855:SET_B *4160:A 0
34 *3999:CLK *4154:A 0.000164352
35 *3999:RESET_B *4154:A 0.000116853
36 *4003:RESET_B *4160:A 9.30787e-05
37 *4004:CLK *902:50 4.66108e-05
38 *4004:D *902:50 5.78145e-05
39 *4015:D *4154:A 7.03934e-05
40 *4017:RESET_B *4154:A 8.40269e-05
41 *4019:CLK *4154:A 0.000157968
42 *4019:D *4154:A 0.000107796
43 *4026:RESET_B *4160:A 2.75145e-05
44 *4142:A *902:10 8.05985e-05
45 *4147:A *4160:A 9.95272e-05
46 *4147:A *902:30 2.09665e-05
47 *365:16 *4154:A 9.65492e-05
48 *451:10 *902:50 0.000495112
49 *651:34 *4154:A 0.00110887
50 *656:109 *4160:A 3.64998e-06
51 *656:109 *902:50 0.000197322
52 *660:23 *4160:A 0.000582679
53 *660:104 *4160:A 0.000431518
54 *661:19 *4160:A 0.000584352
55 *661:26 *4160:A 0.000117825
56 *661:30 *4160:A 0.0005583
57 *680:10 *4160:A 0.000113797
58 *828:42 *4160:A 0.000186092
59 *828:42 *902:10 0.000141599
60 *828:42 *902:19 0.00124421
61 *828:42 *902:30 0.00079275
62 *882:41 *4160:A 2.75538e-05
63 *883:10 *4154:A 0
64 *883:32 *4154:A 0
65 *883:32 *902:50 0
66 *888:35 *902:30 0.00030243
67 *888:43 *902:50 0.000119831
68 *897:39 *4160:A 0.000149749
69 *897:54 *4160:A 0
70 *900:58 *4160:A 4.41506e-05
*RES
1 *4161:X *902:10 7.755 
2 *902:10 *4155:A 3.6 
3 *902:10 *902:19 14.13 
4 *902:19 *4156:A 4.05 
5 *902:19 *902:30 9.03 
6 *902:30 *902:50 36.62 
7 *902:50 *4154:A 36.87 
8 *902:50 *4157:A 3.6 
9 *902:30 *4160:A 35.68 
*END

*D_NET *903 0.0119559
*CONN
*I *3601:A I *D sky130_fd_sc_hd__nor3_2
*I *3596:A I *D sky130_fd_sc_hd__nor3_2
*I *3597:B1 I *D sky130_fd_sc_hd__a21oi_2
*I *3592:B1 I *D sky130_fd_sc_hd__a21o_2
*I *3587:C1 I *D sky130_fd_sc_hd__a211oi_2
*I *3578:B1 I *D sky130_fd_sc_hd__a31o_2
*I *3611:C1 I *D sky130_fd_sc_hd__a211oi_2
*I *3615:B1 I *D sky130_fd_sc_hd__a31o_2
*I *3612:B1 I *D sky130_fd_sc_hd__a21oi_2
*I *3358:A I *D sky130_fd_sc_hd__inv_2
*I *4162:X O *D sky130_fd_sc_hd__clkdlybuf4s25_1
*CAP
1 *3601:A 0.000484982
2 *3596:A 0
3 *3597:B1 0.000227759
4 *3592:B1 3.37517e-05
5 *3587:C1 0.00031113
6 *3578:B1 0.000360591
7 *3611:C1 0
8 *3615:B1 4.27538e-05
9 *3612:B1 0.000236202
10 *3358:A 0
11 *4162:X 0.000879661
12 *903:125 0.00063616
13 *903:110 0.000482201
14 *903:80 0.000438758
15 *903:78 0.000826055
16 *903:29 0.0003405
17 *903:25 0.000561526
18 *903:12 0.000750202
19 *903:6 0.000861557
20 *3578:B1 *1097:10 0.000112971
21 *3578:B1 *1097:14 7.44375e-05
22 *3578:B1 *1097:51 4.99619e-05
23 *3578:B1 *1104:51 4.82919e-05
24 *3587:C1 *3498:C 0.0001249
25 *3587:C1 *3586:A 4.18603e-06
26 *3587:C1 *3588:A 0.000181376
27 *3587:C1 *1110:14 5.43481e-05
28 *3587:C1 *1110:33 5.00612e-05
29 *3601:A *3602:B 0
30 *3612:B1 *3501:C 0.000126872
31 *3612:B1 *3501:D 4.85494e-05
32 *3615:B1 *3501:C 2.4997e-05
33 *3615:B1 *4299:A 1.89685e-05
34 *3615:B1 *1103:21 3.86607e-05
35 *903:6 *3604:A 4.43682e-05
36 *903:12 *4283:A 4.9968e-05
37 *903:25 *3501:B 0
38 *903:25 *1100:10 0
39 *903:78 *3604:A 0.000253946
40 *3503:B *3601:A 0
41 *3504:B *3578:B1 0
42 *3573:A1 *903:12 0
43 *3574:A3 *3578:B1 0
44 *3585:A *3587:C1 0
45 *3589:B *3587:C1 8.49205e-05
46 *3590:C *3587:C1 3.26111e-05
47 *3590:C *903:78 2.47313e-05
48 *3590:C *903:80 8.68724e-05
49 *3593:B1 *3587:C1 7.53115e-05
50 *3594:A1 *3597:B1 3.67871e-05
51 *3596:B *3597:B1 4.82919e-05
52 *3596:B *3601:A 0
53 *3596:B *903:125 0
54 *3600:C *3601:A 8.25609e-05
55 *3601:B *3601:A 0
56 *3601:C *3601:A 0
57 *3604:B *3601:A 0
58 *3604:B *903:125 0
59 *3605:A1 *3601:A 0.000273872
60 *3605:B1 *3601:A 0
61 *3608:B *903:25 0
62 *3608:C *903:12 0
63 *3608:C *903:25 0
64 *3611:A2 *903:25 0
65 *3829:B1 *903:6 0.000278117
66 *3829:B1 *903:12 0.000118081
67 *3842:B1 *903:25 0
68 *4021:RESET_B *903:12 0
69 *4026:D *3587:C1 4.82863e-05
70 *4031:D *3601:A 3.64998e-06
71 *4034:CLK *3612:B1 0.00013521
72 *4034:CLK *3615:B1 0.000141606
73 *4034:CLK *903:25 0
74 *390:19 *3578:B1 0.000292059
75 *390:19 *903:12 7.81221e-05
76 *463:8 *3578:B1 0
77 *507:10 *3578:B1 0
78 *507:16 *3578:B1 0
79 *515:8 *3587:C1 8.52112e-05
80 *518:27 *3597:B1 9.11561e-05
81 *518:35 *3597:B1 5.83121e-06
82 *518:35 *903:110 2.24423e-05
83 *518:35 *903:125 0.0001043
84 *524:12 *3601:A 6.02202e-05
85 *526:27 *903:125 0
86 *531:14 *903:25 0.00022653
87 *531:28 *903:25 3.90495e-05
88 *531:28 *903:29 6.97118e-05
89 *609:43 *3587:C1 0.000330194
90 *609:43 *903:80 0.000141633
91 *609:43 *903:110 9.4229e-05
92 *609:43 *903:125 6.36578e-05
93 *609:95 *3601:A 0
94 *901:51 *3578:B1 0
*RES
1 *4162:X *903:6 5.155 
2 *903:6 *903:12 5.795 
3 *903:12 *3358:A 3.6 
4 *903:12 *903:25 10.31 
5 *903:25 *903:29 3.14 
6 *903:29 *3612:B1 7.68 
7 *903:29 *3615:B1 5.235 
8 *903:25 *3611:C1 1.6 
9 *903:6 *3578:B1 13.295 
10 *4162:X *903:78 11.295 
11 *903:78 *903:80 2.91 
12 *903:80 *3587:C1 12.855 
13 *903:80 *3592:B1 4.05 
14 *903:78 *903:110 2.145 
15 *903:110 *3597:B1 6.84 
16 *903:110 *903:125 3.42 
17 *903:125 *3596:A 3.6 
18 *903:125 *3601:A 11.775 
*END

*D_NET *904 0.0138022
*CONN
*I *3567:C1 I *D sky130_fd_sc_hd__a211oi_2
*I *3560:A I *D sky130_fd_sc_hd__nor2_2
*I *3557:A I *D sky130_fd_sc_hd__nor3_2
*I *3553:B1 I *D sky130_fd_sc_hd__a21oi_2
*I *3571:B1 I *D sky130_fd_sc_hd__a31o_2
*I *3552:A I *D sky130_fd_sc_hd__nor3_2
*I *3568:B1 I *D sky130_fd_sc_hd__a21oi_2
*I *3357:A I *D sky130_fd_sc_hd__inv_2
*I *3534:B1 I *D sky130_fd_sc_hd__a31o_2
*I *3543:C1 I *D sky130_fd_sc_hd__a211oi_2
*I *4163:X O *D sky130_fd_sc_hd__clkdlybuf4s25_1
*CAP
1 *3567:C1 0.000160256
2 *3560:A 0
3 *3557:A 0
4 *3553:B1 6.91019e-05
5 *3571:B1 0.000649791
6 *3552:A 0
7 *3568:B1 9.71623e-05
8 *3357:A 8.40507e-05
9 *3534:B1 1.43769e-05
10 *3543:C1 0.000230981
11 *4163:X 3.47939e-05
12 *904:111 0.000939996
13 *904:105 0.000465488
14 *904:94 0.000467007
15 *904:86 0.000645386
16 *904:63 0.000651415
17 *904:57 0.00059385
18 *904:44 0.00105549
19 *904:25 0.000775283
20 *904:8 0.000357348
21 *3534:B1 *3534:A3 4.66108e-05
22 *3543:C1 *3488:A 0.000308719
23 *3543:C1 *3489:A_N 4.99619e-05
24 *3543:C1 *3489:B 6.90876e-05
25 *3543:C1 *1079:10 2.86623e-05
26 *3543:C1 *1079:12 7.87234e-05
27 *3543:C1 *1079:16 1.56477e-05
28 *3568:B1 *1076:31 3.79555e-05
29 *3571:B1 *3571:A1 1.85674e-05
30 *904:8 *1079:10 4.50017e-05
31 *904:25 *3534:A3 3.51884e-05
32 *904:25 *4292:A 0.000158072
33 *904:44 *3490:A 9.41342e-05
34 *904:44 *4292:A 8.53113e-06
35 *904:44 *1071:64 5.7672e-05
36 *904:44 *1080:21 6.28765e-05
37 *904:86 *3491:D 4.1977e-05
38 *904:86 *3563:A 8.23457e-05
39 *904:105 *1073:22 0.000154447
40 *904:111 *1073:22 5.33085e-05
41 *3493:A *904:86 0.00016569
42 *3493:B *904:105 8.09021e-06
43 *3529:B1 *3357:A 2.11084e-05
44 *3529:B1 *904:57 0
45 *3530:A1 *3357:A 0
46 *3530:A1 *904:44 6.29692e-05
47 *3530:A2 *904:44 0
48 *3530:A2 *904:57 0
49 *3530:A3 *904:44 0.00012657
50 *3552:B *904:105 2.97004e-06
51 *3561:B1 *904:94 7.82218e-05
52 *3563:B *904:86 0
53 *3564:A *904:57 0
54 *3567:A1 *3567:C1 5.61451e-05
55 *3570:B1 *3568:B1 4.82863e-05
56 *3572:B *3568:B1 8.40213e-05
57 *3626:A1 *3543:C1 0.000221352
58 *3626:A1 *904:8 9.30787e-05
59 *3810:A1 *904:44 0.000477464
60 *3820:A1 *904:57 6.83006e-05
61 *3820:A1 *904:63 1.07797e-05
62 *3820:A2 *3568:B1 4.07357e-05
63 *3820:A2 *904:63 5.38986e-06
64 *4009:D *3553:B1 0
65 *4009:D *904:111 0.000113752
66 *4010:D *3571:B1 0.00012657
67 *4010:RESET_B *3553:B1 7.36562e-05
68 *4010:RESET_B *904:111 0
69 *4011:RESET_B *904:57 9.16315e-05
70 *4012:D *3567:C1 4.99619e-05
71 *4012:RESET_B *904:57 0.000185411
72 *4012:RESET_B *904:63 0.000181369
73 *4128:A *3568:B1 6.79508e-05
74 *4128:A *904:63 5.26594e-05
75 *389:21 *3357:A 1.83756e-05
76 *389:21 *904:44 5.83589e-05
77 *451:10 *904:25 2.8185e-05
78 *479:10 *904:44 4.99619e-05
79 *479:42 *3543:C1 0.000114189
80 *493:12 *904:105 0
81 *493:18 *904:111 0
82 *493:55 *904:94 0.000158965
83 *493:55 *904:105 3.57349e-05
84 *496:10 *904:105 0
85 *496:10 *904:111 0
86 *497:12 *904:105 0.000139238
87 *498:21 *904:86 0.00069825
88 *498:21 *904:94 6.10082e-05
89 *501:12 *904:63 3.12378e-05
90 *501:12 *904:86 4.43871e-06
91 *613:97 *3553:B1 5.16348e-05
92 *656:109 *3534:B1 2.42043e-05
93 *656:109 *904:25 0.000315689
94 *657:23 *904:105 0
95 *657:59 *904:57 0.000486544
96 *657:59 *904:63 0.000202088
97 *882:58 *904:44 7.06865e-05
*RES
1 *4163:X *904:8 4.725 
2 *904:8 *3543:C1 10.5 
3 *904:8 *904:25 5.225 
4 *904:25 *3534:B1 2.05 
5 *904:25 *904:44 17.47 
6 *904:44 *3357:A 3.01 
7 *904:44 *904:57 10.265 
8 *904:57 *904:63 4.1925 
9 *904:63 *3568:B1 5.9025 
10 *904:63 *904:86 12.0425 
11 *904:86 *904:94 4.725 
12 *904:94 *3552:A 1.6 
13 *904:94 *904:105 6.635 
14 *904:105 *904:111 6.05 
15 *904:111 *3571:B1 8.965 
16 *904:111 *3553:B1 7.235 
17 *904:105 *3557:A 3.6 
18 *904:86 *3560:A 1.6 
19 *904:57 *3567:C1 6.24 
*END

*D_NET *905 0.0160365
*CONN
*I *3329:A I *D sky130_fd_sc_hd__inv_2
*I *3462:B2 I *D sky130_fd_sc_hd__a22o_2
*I *3401:B I *D sky130_fd_sc_hd__and2_2
*I *3757:S I *D sky130_fd_sc_hd__mux2_1
*I *3759:S I *D sky130_fd_sc_hd__mux2_1
*I *3754:S I *D sky130_fd_sc_hd__mux2_1
*I *3760:S I *D sky130_fd_sc_hd__mux2_1
*I *3755:S I *D sky130_fd_sc_hd__mux2_1
*I *3758:S I *D sky130_fd_sc_hd__mux2_1
*I *3753:S I *D sky130_fd_sc_hd__mux2_1
*I *4164:X O *D sky130_fd_sc_hd__clkdlybuf4s25_1
*CAP
1 *3329:A 0.000126922
2 *3462:B2 0.000731473
3 *3401:B 8.83308e-05
4 *3757:S 3.59374e-05
5 *3759:S 2.08101e-05
6 *3754:S 0.00014036
7 *3760:S 0
8 *3755:S 0
9 *3758:S 8.83258e-05
10 *3753:S 4.2366e-05
11 *4164:X 0.000290644
12 *905:54 0.000192588
13 *905:50 0.000295738
14 *905:42 0.000598981
15 *905:34 0.000634331
16 *905:30 0.000357608
17 *905:28 0.000984619
18 *905:20 0.00151815
19 *905:16 0.00184751
20 *905:8 0.000844499
21 *3329:A *4164:A 5.574e-05
22 *3401:B *936:41 4.62478e-05
23 *3462:B2 *3525:A1 0.0001249
24 *3462:B2 *3679:B1 0
25 *3462:B2 *948:10 2.66443e-05
26 *3753:S *3753:A1 8.40213e-05
27 *3753:S *964:37 2.16833e-05
28 *3754:S *961:26 0
29 *3754:S *962:10 5.11148e-06
30 *3758:S *4057:RESET_B 0.000181376
31 *905:16 *3468:A2 0.000152445
32 *905:16 *4164:A 8.15676e-05
33 *905:20 *4249:A 3.64025e-05
34 *905:20 *948:10 1.54061e-06
35 *905:28 *936:41 0.000122474
36 *905:42 *4058:RESET_B 1.73877e-05
37 *905:42 *962:10 8.82848e-05
38 *905:42 *962:16 1.22762e-05
39 *905:50 *3760:A1 5.68717e-05
40 *905:50 *967:16 9.4087e-05
41 *905:50 *967:22 0
42 *905:50 *969:10 0.000115139
43 *905:54 *3753:A1 0.000223804
44 *905:54 *964:37 3.25635e-05
45 *3462:A2 *3462:B2 0.000439453
46 *3462:B1 *3462:B2 5.05437e-05
47 *3525:A0 *3462:B2 0
48 *3525:S *3462:B2 0
49 *3619:A *905:42 0.000205372
50 *3619:B *3754:S 0.000154288
51 *3619:B *905:42 0.00011003
52 *3679:A2 *3462:B2 0.00013659
53 *3686:B1 *3329:A 3.6889e-05
54 *3698:A1 *3758:S 0.000161796
55 *3698:B2 *3758:S 6.23541e-06
56 *3755:A0 *905:50 8.97564e-05
57 *3755:A1 *3753:S 4.66108e-05
58 *3755:A1 *905:54 0.000196376
59 *3757:A0 *3757:S 5.5201e-05
60 *3757:A0 *905:28 0.000231643
61 *3757:A0 *905:30 9.80032e-06
62 *3757:A1 *905:30 4.82919e-05
63 *3758:A0 *3758:S 0.000281789
64 *3759:A0 *3757:S 0
65 *3759:A0 *905:30 0.000165642
66 *3759:A0 *905:34 4.36954e-05
67 *3759:A1 *905:34 0.00015639
68 *3760:A0 *905:42 4.47209e-05
69 *3760:A0 *905:50 0.000124895
70 *3974:D *905:16 8.60357e-05
71 *3983:CLK *905:20 7.10578e-05
72 *3983:D *905:20 2.75145e-05
73 *3983:RESET_B *905:16 8.71001e-05
74 *3983:RESET_B *905:20 1.23607e-05
75 *4061:D *905:30 8.65961e-05
76 *4063:D *3754:S 0.000321522
77 *4076:A *905:28 8.57024e-05
78 *4115:A *905:28 0
79 *4116:A *3462:B2 0.000208974
80 *4202:A *905:8 0.000491649
81 *4260:A *3753:S 0
82 *4302:A *3462:B2 3.09164e-05
83 *114:10 *3401:B 0.000125005
84 *114:10 *905:28 0.000362972
85 *362:25 *3329:A 8.38251e-05
86 *362:25 *905:16 7.63204e-05
87 *604:70 *905:28 2.37694e-05
88 *617:18 *905:16 6.36578e-05
89 *637:10 *905:16 0
90 *637:12 *905:16 0.000192572
91 *638:37 *3462:B2 0.000181152
92 *749:12 *3401:B 4.66108e-05
93 *749:12 *905:16 6.10014e-05
94 *760:6 *3758:S 1.34503e-05
95 *875:58 *3754:S 0
96 *880:12 *3329:A 7.73272e-05
97 *894:12 *3329:A 3.64998e-06
*RES
1 *4164:X *905:8 8.535 
2 *905:8 *905:16 12.53 
3 *905:16 *905:20 9.695 
4 *905:20 *905:28 14.24 
5 *905:28 *905:30 4.245 
6 *905:30 *905:34 4.175 
7 *905:34 *905:42 9.515 
8 *905:42 *905:50 9.445 
9 *905:50 *905:54 2.535 
10 *905:54 *3753:S 2.755 
11 *905:54 *3758:S 9.23 
12 *905:50 *3755:S 1.6 
13 *905:42 *3760:S 1.6 
14 *905:34 *3754:S 7.98 
15 *905:30 *3759:S 1.96 
16 *905:28 *3757:S 2.755 
17 *905:20 *3401:B 5.685 
18 *905:16 *3462:B2 21.23 
19 *905:8 *3329:A 6.795 
*END

*D_NET *906 0.00415837
*CONN
*I *3327:A I *D sky130_fd_sc_hd__inv_2
*I *3406:A1 I *D sky130_fd_sc_hd__a21o_2
*I *3410:A1 I *D sky130_fd_sc_hd__a2111o_2
*I *3405:A I *D sky130_fd_sc_hd__xor2_2
*I *4375:X O *D sky130_fd_sc_hd__clkdlybuf4s25_1
*CAP
1 *3327:A 0.000108653
2 *3406:A1 0.000534259
3 *3410:A1 0.00027504
4 *3405:A 0.000152293
5 *4375:X 0
6 *906:12 0.00045876
7 *906:4 0.000674338
8 *3405:B *3405:A 0
9 *3406:B1 *3406:A1 8.65961e-05
10 *3407:B *3410:A1 6.20248e-05
11 *3408:A1 *3405:A 0.000114492
12 *3408:A1 *3410:A1 2.24968e-05
13 *3408:A1 *906:12 0.000204938
14 *3408:A2 *3406:A1 0
15 *3408:B1 *3406:A1 0
16 *3408:B1 *906:12 4.43682e-05
17 *3410:C1 *3410:A1 2.55587e-05
18 *3410:D1 *3410:A1 4.82863e-05
19 *3410:D1 *906:12 2.30292e-05
20 *3414:A *3406:A1 5.7932e-05
21 *3799:B1 *3406:A1 0
22 *3989:D *906:12 2.75229e-05
23 *3991:D *3406:A1 0
24 *3991:RESET_B *3406:A1 0
25 *4375:A *3405:A 0
26 *4375:A *3410:A1 5.25737e-05
27 *4375:A *906:12 8.40269e-05
28 *4391:A *3327:A 0.000116165
29 *4392:A *3405:A 7.16251e-05
30 *4394:A *3327:A 0.000116165
31 *162:6 *3327:A 0.00015896
32 *412:12 *3406:A1 0.000312778
33 *412:22 *3406:A1 1.56135e-05
34 *624:91 *3405:A 0.000116158
35 *631:27 *3410:A1 3.03144e-05
36 *631:27 *906:12 0.00015896
37 *642:14 *3410:A1 4.43871e-06
*RES
1 *4375:X *906:4 1.6 
2 *906:4 *906:12 6.185 
3 *906:12 *3405:A 7.275 
4 *906:12 *3410:A1 6.81 
5 *906:4 *3406:A1 14.675 
6 *3410:A1 *3327:A 10.065 
*END

*D_NET *907 0.020637
*CONN
*I *3749:S I *D sky130_fd_sc_hd__mux2_1
*I *3746:S I *D sky130_fd_sc_hd__mux2_1
*I *3750:S I *D sky130_fd_sc_hd__mux2_1
*I *3747:S I *D sky130_fd_sc_hd__mux2_1
*I *3745:S I *D sky130_fd_sc_hd__mux2_1
*I *3748:S I *D sky130_fd_sc_hd__mux2_1
*I *3402:A I *D sky130_fd_sc_hd__and2_2
*I *3756:S I *D sky130_fd_sc_hd__mux2_1
*I *4164:A I *D sky130_fd_sc_hd__clkdlybuf4s25_1
*I *3525:A1 I *D sky130_fd_sc_hd__mux2_1
*I *4165:X O *D sky130_fd_sc_hd__clkdlybuf4s25_1
*CAP
1 *3749:S 4.78438e-05
2 *3746:S 0.000348206
3 *3750:S 0.000287058
4 *3747:S 3.39011e-05
5 *3745:S 0
6 *3748:S 0.000110879
7 *3402:A 0
8 *3756:S 0
9 *4164:A 0.00047941
10 *3525:A1 0.000121561
11 *4165:X 0.000294242
12 *907:104 0.000390083
13 *907:102 0.000797992
14 *907:46 0.00155598
15 *907:40 0.00189769
16 *907:32 0.00149606
17 *907:26 0.00152115
18 *907:18 0.00103716
19 *907:16 0.000688276
20 *907:12 0.000469432
21 *3525:A1 *3679:B1 0
22 *3746:S *4276:A 0.000139305
23 *3749:S *3663:B 8.43626e-05
24 *4164:A *3468:A2 0.00046962
25 *4164:A *3679:B1 4.41468e-05
26 *4164:A *4301:A 0.000423454
27 *907:12 *4165:A 4.82919e-05
28 *907:12 *934:28 0.000162325
29 *907:16 *3663:B 0.000241483
30 *907:40 *939:16 0
31 *907:46 *3468:A2 7.55945e-06
32 *907:46 *961:22 0.00060578
33 *3329:A *4164:A 5.574e-05
34 *3402:B *907:32 0
35 *3402:B *907:40 8.53113e-06
36 *3462:B2 *3525:A1 0.0001249
37 *3664:A1 *907:26 1.34361e-05
38 *3664:S *907:12 0
39 *3664:S *907:18 0.000712391
40 *3664:S *907:26 9.50342e-06
41 *3664:S *907:102 3.09233e-05
42 *3666:S *3746:S 0.000185405
43 *3666:S *3747:S 4.82863e-05
44 *3666:S *907:102 3.66286e-05
45 *3666:S *907:104 0.000267241
46 *3667:A *3746:S 0.000104309
47 *3678:A0 *907:26 2.46089e-05
48 *3686:A1 *4164:A 4.66108e-05
49 *3686:B1 *4164:A 5.30242e-05
50 *3749:A1 *907:12 0.000242801
51 *3750:A0 *3750:S 0.000405997
52 *3752:A0 *3746:S 0.000196001
53 *3756:A0 *907:40 8.40213e-05
54 *3756:A0 *907:46 4.07182e-05
55 *3905:D *907:26 8.60035e-05
56 *3905:RESET_B *907:40 0.00016313
57 *3909:CLK *907:32 2.97004e-06
58 *3974:D *3525:A1 3.86529e-05
59 *3974:D *4164:A 6.0093e-05
60 *3979:CLK *907:40 0.000205376
61 *3979:RESET_B *907:40 0.000197407
62 *3982:CLK *907:32 0
63 *3982:D *907:32 0.000202102
64 *3982:D *907:40 0
65 *3982:SET_B *907:32 0
66 *3984:D *907:40 0
67 *4042:D *3749:S 0.000106216
68 *4042:D *907:12 5.7344e-05
69 *4042:D *907:16 5.05437e-05
70 *4042:D *907:102 0
71 *4050:RESET_B *3746:S 9.54469e-05
72 *4052:CLK *907:26 0.000234674
73 *4054:D *3750:S 0
74 *4060:D *907:40 7.00889e-06
75 *4202:A *4164:A 5.36281e-05
76 *4270:A *3750:S 0
77 *4282:A *907:102 9.2741e-05
78 *4390:A *3750:S 0.000119242
79 *11:10 *907:32 0
80 *11:14 *907:32 0.000196702
81 *72:10 *907:40 0
82 *617:36 *907:40 0
83 *621:10 *907:40 8.7974e-05
84 *622:78 *3748:S 0
85 *622:80 *3748:S 0
86 *622:82 *907:32 0
87 *623:101 *3750:S 7.15674e-05
88 *636:57 *907:40 0.000110115
89 *636:64 *907:40 4.70343e-05
90 *636:74 *907:40 0.000147083
91 *640:14 *907:26 0.000275548
92 *640:35 *3750:S 4.21773e-05
93 *641:10 *907:18 0.000106655
94 *641:10 *907:26 0.000138544
95 *641:37 *907:18 0.000112771
96 *641:37 *907:102 7.34364e-05
97 *643:58 *907:32 0
98 *643:67 *3748:S 0
99 *643:67 *907:32 0
100 *646:61 *3746:S 0
101 *749:12 *3525:A1 1.73877e-05
102 *749:12 *907:46 0.000260906
103 *779:10 *3746:S 9.50342e-06
104 *889:81 *907:18 0.000470994
105 *889:105 *3746:S 3.47837e-05
106 *889:105 *3747:S 1.83756e-05
107 *889:105 *907:104 6.69341e-05
108 *905:16 *4164:A 8.15676e-05
*RES
1 *4165:X *907:12 12.14 
2 *907:12 *907:16 4.865 
3 *907:16 *907:18 8.265 
4 *907:18 *907:26 15.4 
5 *907:26 *907:32 11.855 
6 *907:32 *907:40 24.64 
7 *907:40 *907:46 14.45 
8 *907:46 *3525:A1 6.12 
9 *907:46 *4164:A 15.585 
10 *907:40 *3756:S 1.6 
11 *907:32 *3402:A 1.6 
12 *907:26 *3748:S 5.235 
13 *907:18 *3745:S 3.6 
14 *907:16 *907:102 8.225 
15 *907:102 *907:104 2.52 
16 *907:104 *3747:S 2.41 
17 *907:104 *3750:S 12.455 
18 *907:102 *3746:S 14.675 
19 *907:12 *3749:S 3.565 
*END

*D_NET *908 0.0207373
*CONN
*I *3638:S I *D sky130_fd_sc_hd__mux2_1
*I *3633:S I *D sky130_fd_sc_hd__mux2_1
*I *3632:S I *D sky130_fd_sc_hd__mux2_1
*I *3631:S I *D sky130_fd_sc_hd__mux2_1
*I *3628:S I *D sky130_fd_sc_hd__mux2_1
*I *3627:S I *D sky130_fd_sc_hd__mux2_1
*I *3630:S I *D sky130_fd_sc_hd__mux2_1
*I *3646:S I *D sky130_fd_sc_hd__mux2_1
*I *3644:S I *D sky130_fd_sc_hd__mux2_1
*I *3629:S I *D sky130_fd_sc_hd__mux2_1
*I *4166:X O *D sky130_fd_sc_hd__clkdlybuf4s25_1
*CAP
1 *3638:S 0
2 *3633:S 0
3 *3632:S 0
4 *3631:S 6.05357e-05
5 *3628:S 0
6 *3627:S 0.000275575
7 *3630:S 0
8 *3646:S 0.000378839
9 *3644:S 0.00233016
10 *3629:S 7.42201e-05
11 *4166:X 0.000255239
12 *908:77 0.00300038
13 *908:73 0.00056011
14 *908:63 0.000657636
15 *908:59 0.00104841
16 *908:49 0.00140778
17 *908:32 0.00132705
18 *908:18 0.0010649
19 *908:16 0.000616751
20 *908:10 0.000647772
21 *3627:S *3857:RESET_B 0.000116151
22 *3627:S *913:44 0.000182773
23 *3627:S *983:14 0
24 *3644:S *929:10 0
25 *3646:S *909:37 0.000396742
26 *908:10 *3638:A0 0.000162176
27 *908:16 *3638:A0 1.89685e-05
28 *908:16 *4296:A 0.000138175
29 *908:49 *4381:A 0.000205708
30 *908:59 *3691:A0 4.41506e-05
31 *908:59 *983:14 3.9848e-05
32 *908:73 *3479:B 8.2825e-05
33 *908:77 *909:37 9.9836e-05
34 o_transmit_data_request *908:32 0.000208371
35 *3484:B1 *3627:S 1.01661e-05
36 *3484:B2 *908:73 0.000121039
37 *3484:C1 *3627:S 8.83106e-05
38 *3484:C1 *908:63 8.49205e-05
39 *3484:C1 *908:73 0.000119756
40 *3485:D *908:32 0
41 *3485:D *908:59 7.74045e-05
42 *3627:A0 *3627:S 0
43 *3627:A0 *908:73 0.000202533
44 *3628:A1 *908:59 4.6368e-06
45 *3628:A1 *908:63 9.77048e-06
46 *3629:A1 *3629:S 0.000144588
47 *3629:A1 *908:49 1.03592e-05
48 *3630:A0 *908:73 0.000119873
49 *3631:A1 *3631:S 0.000103983
50 *3632:A1 *908:32 4.82919e-05
51 *3633:A0 *908:16 0.000164874
52 *3633:A0 *908:18 8.57024e-05
53 *3638:A1 *908:16 0.000141606
54 *3639:A1 *908:16 0.000164686
55 *3644:A1 *3644:S 6.03767e-05
56 *3644:A1 *3646:S 0
57 *3646:A1 *3646:S 9.50342e-06
58 *3691:A1 *908:59 0.0002432
59 *3692:B2 *3631:S 9.28481e-05
60 *3693:A1 *3627:S 4.82863e-05
61 *3695:A1 *3629:S 5.10096e-05
62 *3695:A1 *908:49 0.000101043
63 *3697:A1 *908:73 1.32907e-06
64 *3699:A1 *3644:S 0
65 *3701:A1 *3629:S 4.82919e-05
66 *3857:D *908:73 0.000198939
67 *3862:D *908:18 3.09179e-05
68 *3862:RESET_B *908:10 0
69 *3862:RESET_B *908:16 0
70 *3962:D *908:16 7.00889e-06
71 *3965:D *908:10 3.04982e-05
72 *4091:A *3644:S 4.26222e-05
73 *4354:A *3644:S 0
74 *4357:A *3629:S 1.44259e-05
75 *4360:A *908:18 0.000163199
76 *4360:A *908:32 1.60203e-05
77 *4363:A *908:73 0.000206874
78 *4363:A *908:77 0.00037261
79 *4364:A *3627:S 3.00381e-05
80 *4369:A *3629:S 3.00381e-05
81 *4400:A *908:49 0.000429862
82 *4400:A *908:59 0.000791867
83 *427:55 *908:49 0
84 *608:33 *3646:S 0
85 *618:105 *908:10 7.23533e-05
86 *618:109 *908:16 0
87 *620:58 *3631:S 1.52776e-05
88 *632:12 *3631:S 1.71013e-05
89 *646:18 *908:10 0.000196376
90 *842:10 *908:49 0.000311797
*RES
1 *4166:X *908:10 8.85 
2 *908:10 *908:16 10.37 
3 *908:16 *908:18 4.245 
4 *908:18 *908:32 6.11523 
5 *908:32 *3629:S 5.8125 
6 *908:32 *908:49 5.87393 
7 *908:49 *908:59 6.4333 
8 *908:59 *908:63 1.845 
9 *908:63 *908:73 12.1 
10 *908:73 *908:77 8.6075 
11 *908:77 *3644:S 10.6035 
12 *908:77 *3646:S 11.7375 
13 *908:73 *3630:S 1.6 
14 *908:63 *3627:S 11.765 
15 *908:59 *3628:S 1.6 
16 *908:49 *3631:S 6.1175 
17 *908:18 *3632:S 1.6 
18 *908:16 *3633:S 1.6 
19 *908:10 *3638:S 3.6 
*END

*D_NET *909 0.0195057
*CONN
*I *4166:A I *D sky130_fd_sc_hd__clkdlybuf4s25_1
*I *3647:S I *D sky130_fd_sc_hd__mux2_1
*I *3643:S I *D sky130_fd_sc_hd__mux2_1
*I *3641:S I *D sky130_fd_sc_hd__mux2_1
*I *3645:S I *D sky130_fd_sc_hd__mux2_1
*I *3640:S I *D sky130_fd_sc_hd__mux2_1
*I *3642:S I *D sky130_fd_sc_hd__mux2_1
*I *3639:S I *D sky130_fd_sc_hd__mux2_1
*I *4167:X O *D sky130_fd_sc_hd__clkdlybuf4s25_1
*CAP
1 *4166:A 3.55506e-05
2 *3647:S 8.38766e-05
3 *3643:S 0
4 *3641:S 0.000647286
5 *3645:S 0
6 *3640:S 2.61242e-05
7 *3642:S 3.21377e-05
8 *3639:S 0.000269874
9 *4167:X 5.31404e-05
10 *909:89 0.000159293
11 *909:72 0.00104614
12 *909:63 0.000910397
13 *909:48 0.000718817
14 *909:37 0.00117639
15 *909:33 0.00364157
16 *909:23 0.00280575
17 *909:8 0.000490169
18 *3639:S *981:27 0.000379656
19 *3641:S *3707:A 6.15576e-06
20 *909:8 *981:27 9.27736e-05
21 *909:33 *3473:B 2.21697e-05
22 *909:33 *3478:B 0.00039465
23 *909:33 *987:23 2.96426e-05
24 *909:37 *3872:RESET_B 0
25 *909:37 *4309:A 0
26 *909:37 *916:77 0
27 *909:37 *916:79 0
28 *909:37 *916:81 0
29 *909:48 *916:77 0
30 *909:63 *3711:B 0
31 *909:63 *3740:B1 0.000125501
32 *909:63 *3913:RESET_B 6.74079e-05
33 *909:63 *916:77 0
34 *909:63 *977:25 0
35 *909:72 *3711:A 0
36 o_receive_data[0] *3641:S 0
37 *3473:A *909:33 0.000380699
38 *3484:A2 *909:33 0.000113363
39 *3627:A0 *909:37 2.41307e-05
40 *3639:A1 *3639:S 4.66742e-05
41 *3640:A0 *3640:S 4.66108e-05
42 *3640:A1 *909:48 4.9968e-05
43 *3640:A1 *909:63 0.000118527
44 *3642:A1 *3642:S 3.64998e-06
45 *3643:A1 *3647:S 7.19946e-05
46 *3645:A0 *909:63 4.91189e-05
47 *3645:A0 *909:72 1.22676e-05
48 *3645:A1 *909:63 0.000463657
49 *3646:A1 *909:37 0.000358139
50 *3646:A1 *909:48 7.96996e-05
51 *3646:A1 *909:63 4.28396e-05
52 *3646:S *909:37 0.000396742
53 *3647:A1 *3647:S 0
54 *3647:A1 *909:72 0
55 *3647:A1 *909:89 0
56 *3698:B2 *909:33 0.00019898
57 *3702:A2 *909:33 4.35575e-05
58 *3862:RESET_B *3639:S 0
59 *3862:RESET_B *909:8 0
60 *3870:CLK *909:63 0
61 *3873:RESET_B *909:72 9.57632e-05
62 *3903:D *909:33 8.33066e-06
63 *4113:A *909:33 0.00102624
64 *4170:A *909:33 4.41506e-05
65 *4333:A *909:63 0
66 *4354:A *909:37 4.23658e-05
67 *4363:A *909:37 0.000311408
68 *4376:A *909:23 5.83121e-06
69 *4396:A *909:72 0
70 *618:109 *3639:S 0
71 *620:6 *909:33 0.000109947
72 *620:21 *909:33 0.000237009
73 *620:54 *909:33 0.000284534
74 *623:60 *3647:S 0.000114186
75 *623:60 *909:72 8.41703e-06
76 *623:60 *909:89 8.42096e-05
77 *632:6 *909:33 2.49909e-05
78 *632:12 *909:33 0.000629282
79 *634:8 *909:23 0.000239813
80 *640:105 *909:72 6.74079e-05
81 *646:18 *909:23 0.000179452
82 *646:18 *909:33 0.000177473
83 *908:77 *909:37 9.9836e-05
*RES
1 *4167:X *909:8 4.725 
2 *909:8 *3639:S 9.18 
3 *909:8 *909:23 6.245 
4 *909:23 *909:33 48.7 
5 *909:33 *909:37 25.82 
6 *909:37 *3642:S 4.05 
7 *909:37 *909:48 2.4 
8 *909:48 *3640:S 4.05 
9 *909:48 *909:63 14.685 
10 *909:63 *3645:S 3.6 
11 *909:63 *909:72 6.6075 
12 *909:72 *3641:S 5.97757 
13 *909:72 *909:89 1.7625 
14 *909:89 *3643:S 3.6 
15 *909:89 *3647:S 6 
16 *909:23 *4166:A 2.215 
*END

*D_NET *910 0.0228852
*CONN
*I *3659:S I *D sky130_fd_sc_hd__mux2_1
*I *3660:S I *D sky130_fd_sc_hd__mux2_1
*I *4167:A I *D sky130_fd_sc_hd__clkdlybuf4s25_1
*I *3636:S I *D sky130_fd_sc_hd__mux2_1
*I *3637:S I *D sky130_fd_sc_hd__mux2_1
*I *4168:X O *D sky130_fd_sc_hd__clkdlybuf4s25_1
*CAP
1 *3659:S 0
2 *3660:S 1.16927e-05
3 *4167:A 0.00202862
4 *3636:S 0.000229737
5 *3637:S 5.24135e-05
6 *4168:X 0.000260845
7 *910:60 0.00234135
8 *910:50 0.000628375
9 *910:22 0.000751974
10 *910:20 0.00346964
11 *910:10 0.003588
12 *3660:S *1018:23 4.66108e-05
13 *4167:A *3651:A_N 9.34083e-06
14 *4167:A *4067:A 1.7635e-05
15 *4167:A *4070:A 0.00015856
16 *4167:A *4258:A 0.000164686
17 *910:10 *3395:A 8.56947e-05
18 *910:10 *4221:A 0
19 *910:10 *1013:10 8.16788e-05
20 *910:20 *4161:A 0
21 *910:20 *1072:10 0.000472961
22 *910:50 *3395:A 1.8279e-05
23 *910:50 *4218:A 0.000122331
24 *910:60 *4067:A 4.90071e-05
25 *910:60 *4258:A 3.09233e-05
26 *910:60 *1018:23 0.00015639
27 o_cmd_status_reg[5] *910:10 0.00030485
28 *3634:B *910:20 0.000925686
29 *3634:C_N *910:20 0
30 *3637:A1 *3636:S 0.000651904
31 *3637:A1 *3637:S 1.83847e-05
32 *3652:A1 *4167:A 0.000112408
33 *3652:B1 *4167:A 5.59597e-05
34 *3658:A1 *4167:A 6.86208e-05
35 *3659:A1 *910:10 3.61525e-05
36 *3659:A1 *910:50 0.000145127
37 *3659:A1 *910:60 8.40213e-05
38 *3660:A0 *910:60 0.000363467
39 *3660:A1 *910:60 1.91597e-05
40 *3813:A1 *910:20 0.000238979
41 *3813:A1 *910:22 0.00019786
42 *3817:A1 *910:20 0.000313775
43 *3877:D *4167:A 7.5687e-06
44 *3880:D *4167:A 8.35363e-05
45 *3881:D *910:60 4.48382e-05
46 *3882:D *910:60 1.33293e-05
47 *3966:CLK *4167:A 1.79174e-05
48 *4048:D *910:20 0.000159658
49 *4123:A *910:20 0
50 *4135:A *3636:S 3.32209e-05
51 *4135:A *910:22 0.000103974
52 *4147:A *3636:S 0.00072115
53 *4147:A *910:22 0.000854733
54 *4160:A *910:22 0
55 *4341:A *910:10 9.02561e-05
56 *4341:A *910:50 2.04591e-05
57 *4353:A *910:20 0
58 *4384:A *3660:S 4.82863e-05
59 *4384:A *910:60 2.8185e-05
60 *4385:A *910:10 0
61 *4387:A *910:10 6.58423e-05
62 *4388:A *4167:A 0
63 *4388:A *910:20 0
64 *543:31 *4167:A 2.22478e-05
65 *615:20 *4167:A 5.51055e-05
66 *656:69 *910:20 0
67 *660:23 *910:22 0
68 *828:10 *910:20 0
69 *881:10 *910:20 0.00024361
70 *881:65 *910:20 0.000107658
71 *881:90 *910:20 0.000568034
72 *882:19 *910:22 7.89689e-05
73 *882:28 *910:22 0.000199864
74 *882:41 *910:22 0.000216148
75 *888:35 *910:22 0.000326381
76 *896:110 *910:20 0.000342254
77 *902:19 *910:20 0
78 *902:30 *910:20 0
79 *902:30 *910:22 0.000118869
*RES
1 *4168:X *910:10 10.3275 
2 *910:10 *910:20 36.8377 
3 *910:20 *910:22 17.6625 
4 *910:22 *3637:S 4.395 
5 *910:22 *3636:S 12.66 
6 *910:10 *910:50 7.4375 
7 *910:50 *910:60 9.305 
8 *910:60 *4167:A 29.61 
9 *910:60 *3660:S 4.05 
10 *910:50 *3659:S 1.6 
*END

*D_NET *911 0.0177164
*CONN
*I *3392:A1 I *D sky130_fd_sc_hd__o21a_2
*I *3391:A1 I *D sky130_fd_sc_hd__a21o_2
*I *3424:A1 I *D sky130_fd_sc_hd__a32o_2
*I *3325:A I *D sky130_fd_sc_hd__inv_2
*I *3429:A1 I *D sky130_fd_sc_hd__a22o_2
*I *3361:B I *D sky130_fd_sc_hd__nor2_2
*I *3430:A1 I *D sky130_fd_sc_hd__a22o_2
*I *3398:B I *D sky130_fd_sc_hd__nor2_2
*I *3434:A I *D sky130_fd_sc_hd__or2_2
*I *3661:A1 I *D sky130_fd_sc_hd__a21bo_2
*I *4169:X O *D sky130_fd_sc_hd__clkdlybuf4s25_1
*CAP
1 *3392:A1 0
2 *3391:A1 0.000105086
3 *3424:A1 3.21472e-05
4 *3325:A 0
5 *3429:A1 0
6 *3361:B 0.000200234
7 *3430:A1 0
8 *3398:B 0
9 *3434:A 0.000927804
10 *3661:A1 0.000415154
11 *4169:X 0.000786966
12 *911:141 0.00013754
13 *911:66 0.00136283
14 *911:62 0.000649484
15 *911:48 0.000809386
16 *911:42 0.00115501
17 *911:30 0.00116701
18 *911:24 0.00106651
19 *911:10 0.00146115
20 *3361:B *3337:A 0
21 *3361:B *993:14 0
22 *3361:B *1067:28 0.000103192
23 *3391:A1 *4190:A 0
24 *3424:A1 *3424:B1 2.30292e-05
25 *3434:A *3389:A1 0.000249928
26 *3434:A *3434:B 8.8266e-05
27 *3434:A *3527:A1 0
28 *3434:A *3527:A2 0.000105799
29 *3661:A1 *3998:D 0.000220637
30 *3661:A1 *936:21 1.83756e-05
31 *3661:A1 *937:12 0.000103192
32 *911:10 *3423:A 0.000136121
33 *911:10 *4169:A 0
34 *911:10 *4234:A 0
35 *911:10 *1096:8 0.000146965
36 *911:24 *3423:A 0
37 *911:24 *3424:B1 1.20152e-05
38 *911:30 *3431:B 0.00010506
39 *911:30 *3433:A1 0
40 *911:30 *1088:10 0
41 *911:30 *1092:10 5.99925e-05
42 *911:42 *3429:B2 2.30292e-05
43 *911:42 *4278:A 9.07793e-05
44 *911:42 *996:12 0.0001249
45 *911:42 *1093:18 3.73239e-05
46 *3361:A *3661:A1 0
47 *3389:B1 *3434:A 0.000117402
48 *3391:B1 *3391:A1 0.000118504
49 *3391:B1 *911:10 0
50 *3392:A2 *911:141 8.8266e-05
51 *3398:A *3434:A 0.000409981
52 *3398:A *3661:A1 9.50342e-06
53 *3424:B2 *911:24 0.000336837
54 *3429:A2 *911:30 9.08333e-05
55 *3430:A2 *911:42 0.000238137
56 *3430:A2 *911:48 0.000282078
57 *3430:B1 *911:62 9.50342e-06
58 *3430:B2 *3361:B 0
59 *3430:B2 *911:48 8.65905e-05
60 *3433:A2 *911:42 0.000198945
61 *3517:A *911:24 5.01192e-05
62 *3528:B1 *3434:A 1.34503e-05
63 *3662:A1 *3434:A 0.000296088
64 *3662:A1 *911:24 0.000205881
65 *3662:A1 *911:66 2.75229e-05
66 *3777:A2 *911:10 0
67 *3777:B1 *911:10 0
68 *3779:A1 *911:24 0
69 *3779:A1 *911:30 0
70 *3779:A2 *911:30 4.70256e-05
71 *3782:A1 *911:62 5.4155e-06
72 *3782:B1 *911:62 0.000168565
73 *3783:B1 *911:24 0
74 *3790:B1 *3434:A 2.05571e-05
75 *3793:B1 *911:24 0
76 *3915:D *911:10 0
77 *3915:RESET_B *911:10 0.000156155
78 *3916:RESET_B *3434:A 0
79 *3929:D *911:24 3.25831e-05
80 *3930:CLK *911:10 0
81 *3930:D *911:10 9.30717e-05
82 *3931:D *911:42 5.33172e-05
83 *3934:RESET_B *911:62 4.66108e-05
84 *3935:RESET_B *911:30 9.3062e-06
85 *3998:RESET_B *3361:B 0
86 *4016:SET_B *3661:A1 0.000274675
87 *4040:RESET_B *3434:A 6.23375e-05
88 *4043:D *911:10 0
89 *4138:A *3434:A 0.000343484
90 *4138:A *911:62 3.1562e-06
91 *4233:A *911:30 2.65814e-06
92 *4236:A *911:62 8.05083e-05
93 *354:24 *3434:A 4.11198e-05
94 *354:24 *3661:A1 8.08153e-06
95 *359:8 *3661:A1 0
96 *360:12 *911:24 6.57201e-05
97 *424:12 *3434:A 0.00041202
98 *628:12 *911:10 0.000162332
99 *628:97 *911:10 0
100 *643:6 *911:48 3.35305e-05
101 *644:10 *3434:A 0
102 *644:55 *3434:A 0
103 *645:10 *911:62 0
104 *645:42 *911:62 0
105 *645:78 *3434:A 0
106 *645:101 *3434:A 0.000157315
107 *646:53 *3661:A1 9.66021e-05
108 *658:68 *911:24 0
109 *658:68 *911:30 0
110 *659:16 *911:10 0
111 *659:47 *911:10 0
112 *686:10 *3361:B 0
113 *686:10 *911:62 0
114 *723:10 *3434:A 2.25106e-05
115 *878:92 *3434:A 0
116 *880:59 *911:62 0.000342942
117 *880:61 *911:62 1.90762e-05
118 *889:16 *911:10 0.000424347
119 *889:16 *911:24 1.82476e-05
120 *894:32 *3661:A1 0
121 *894:72 *911:62 8.53113e-06
122 *898:46 *911:30 0
*RES
1 *4169:X *911:10 22.79 
2 *911:10 *911:24 17.85 
3 *911:24 *911:30 9.875 
4 *911:30 *911:42 12.78 
5 *911:42 *911:48 3.675 
6 *911:48 *911:62 15.46 
7 *911:62 *911:66 2.45 
8 *911:66 *3661:A1 13.35 
9 *911:66 *3434:A 27.285 
10 *911:62 *3398:B 1.6 
11 *911:48 *3430:A1 1.6 
12 *911:42 *3361:B 9.275 
13 *911:30 *3429:A1 1.6 
14 *911:24 *3325:A 3.6 
15 *911:10 *3424:A1 2.05 
16 *4169:X *911:141 2.395 
17 *911:141 *3391:A1 8 
18 *911:141 *3392:A1 1.6 
*END

*D_NET *912 0.00323574
*CONN
*I *4381:A I *D sky130_fd_sc_hd__clkbuf_4
*I *3858:RESET_B I *D sky130_fd_sc_hd__dfrtp_2
*I *4170:X O *D sky130_fd_sc_hd__clkdlybuf4s25_1
*CAP
1 *4381:A 0.000413357
2 *3858:RESET_B 0.000740792
3 *4170:X 0.000327435
4 *3858:RESET_B *3476:B 0.000120186
5 *3858:RESET_B *3695:A0 2.14129e-05
6 *4381:A *3482:B 5.43631e-05
7 *4381:A *3695:A0 0
8 o_transmit_data_request *3858:RESET_B 5.89925e-05
9 *3485:B *4381:A 8.40213e-05
10 *3692:B2 *4381:A 2.46534e-05
11 *3695:A1 *4381:A 0.000176221
12 *3696:B2 *4381:A 0.000316415
13 *3701:A1 *3858:RESET_B 0.000237243
14 *3861:CLK *3858:RESET_B 1.62441e-05
15 *4357:A *3858:RESET_B 0.000314802
16 *4369:A *3858:RESET_B 1.33293e-05
17 *427:55 *4381:A 0.000110558
18 *908:49 *4381:A 0.000205708
*RES
1 *4170:X *3858:RESET_B 12.0275 
2 *3858:RESET_B *4381:A 14.705 
*END

*D_NET *913 0.00940182
*CONN
*I *4062:RESET_B I *D sky130_fd_sc_hd__dfrtp_2
*I *4057:RESET_B I *D sky130_fd_sc_hd__dfrtp_2
*I *3903:RESET_B I *D sky130_fd_sc_hd__dfrtp_2
*I *3901:RESET_B I *D sky130_fd_sc_hd__dfrtp_2
*I *3902:RESET_B I *D sky130_fd_sc_hd__dfrtp_2
*I *3859:RESET_B I *D sky130_fd_sc_hd__dfrtp_2
*I *3857:RESET_B I *D sky130_fd_sc_hd__dfrtp_2
*I *3856:RESET_B I *D sky130_fd_sc_hd__dfrtp_2
*I *3860:RESET_B I *D sky130_fd_sc_hd__dfrtp_2
*I *4381:X O *D sky130_fd_sc_hd__clkbuf_4
*CAP
1 *4062:RESET_B 0.000489333
2 *4057:RESET_B 0.00076534
3 *3903:RESET_B 5.63438e-05
4 *3901:RESET_B 1.10872e-05
5 *3902:RESET_B 0.000753359
6 *3859:RESET_B 7.27872e-05
7 *3857:RESET_B 7.50727e-05
8 *3856:RESET_B 2.04465e-05
9 *3860:RESET_B 0.00080125
10 *4381:X 0.000219114
11 *913:88 0.000428927
12 *913:78 0.000292141
13 *913:44 0.000768068
14 *913:35 0.000201471
15 *913:27 0.000602583
16 *3859:RESET_B *985:6 4.66108e-05
17 *3902:RESET_B *3472:B 4.25801e-05
18 *3902:RESET_B *3477:B 6.92161e-05
19 *3902:RESET_B *4318:A 0.000200062
20 *3902:RESET_B *982:48 6.03315e-05
21 *4057:RESET_B *3622:B1 0
22 *4057:RESET_B *4224:A 0
23 *4057:RESET_B *969:14 0
24 *4062:RESET_B *4288:A 0
25 *4062:RESET_B *964:12 6.69608e-06
26 *913:27 *986:10 0.000116985
27 *913:44 *3479:B 0.000114492
28 *913:44 *4318:A 2.07184e-05
29 *913:78 *4224:A 0
30 *3484:A1 *3856:RESET_B 2.40101e-05
31 *3484:A1 *3902:RESET_B 0.000316654
32 *3484:A1 *913:27 5.21019e-05
33 *3484:A1 *913:44 0.000302951
34 *3484:A2 *913:27 8.90225e-05
35 *3484:B1 *913:27 0.00016031
36 *3484:B1 *913:44 0
37 *3484:C1 *913:27 2.26717e-05
38 *3484:C1 *913:44 5.06382e-06
39 *3485:D *913:27 1.33293e-05
40 *3627:A0 *3857:RESET_B 0
41 *3627:A0 *913:44 0
42 *3627:S *3857:RESET_B 0.000116151
43 *3627:S *913:44 0.000182773
44 *3692:B2 *3860:RESET_B 0.000196376
45 *3694:B2 *3860:RESET_B 0.00016133
46 *3698:A1 *4057:RESET_B 5.72004e-05
47 *3700:B1 *3901:RESET_B 4.20673e-05
48 *3702:B1 *913:78 3.63701e-06
49 *3755:A0 *4057:RESET_B 0.000108478
50 *3758:A0 *4057:RESET_B 1.07797e-05
51 *3758:S *4057:RESET_B 0.000181376
52 *3902:CLK *3902:RESET_B 9.47017e-05
53 *3902:D *3902:RESET_B 3.92944e-05
54 *4057:CLK *4062:RESET_B 1.42807e-05
55 *4059:D *4057:RESET_B 0.000166346
56 *4062:D *4062:RESET_B 4.70393e-05
57 *4091:A *4062:RESET_B 2.10152e-05
58 *427:67 *3860:RESET_B 0
59 *435:22 *3901:RESET_B 2.35512e-05
60 *563:22 *913:78 3.38817e-05
61 *563:39 *913:78 6.20864e-05
62 *563:39 *913:88 7.27704e-06
63 *604:24 *4062:RESET_B 0.000233126
64 *608:6 *4062:RESET_B 3.08892e-05
65 *608:10 *4062:RESET_B 3.03465e-05
66 *608:27 *4062:RESET_B 0.000118276
67 *608:122 *4062:RESET_B 3.99501e-05
68 *620:21 *3859:RESET_B 8.73018e-05
69 *792:10 *4057:RESET_B 2.23485e-05
70 *792:10 *4062:RESET_B 4.88074e-05
*RES
1 *4381:X *3860:RESET_B 9.32 
2 *3860:RESET_B *913:27 8.4675 
3 *913:27 *3856:RESET_B 0.3975 
4 *913:27 *913:35 2 
5 *913:35 *3857:RESET_B 3.38 
6 *913:35 *913:44 4.185 
7 *913:44 *3859:RESET_B 3.4325 
8 *913:44 *3902:RESET_B 12.3125 
9 *3902:RESET_B *913:78 5.1575 
10 *913:78 *3901:RESET_B 2.3975 
11 *913:78 *913:88 1.38 
12 *913:88 *3903:RESET_B 2.7425 
13 *913:88 *4057:RESET_B 8.99 
14 *4057:RESET_B *4062:RESET_B 15.5825 
*END

*D_NET *914 0.00483953
*CONN
*I *4064:RESET_B I *D sky130_fd_sc_hd__dfrtp_2
*I *4059:RESET_B I *D sky130_fd_sc_hd__dfrtp_2
*I *4058:RESET_B I *D sky130_fd_sc_hd__dfrtp_2
*I *3899:RESET_B I *D sky130_fd_sc_hd__dfrtp_2
*I *3900:RESET_B I *D sky130_fd_sc_hd__dfrtp_2
*I *3898:RESET_B I *D sky130_fd_sc_hd__dfrtp_2
*I *4171:X O *D sky130_fd_sc_hd__clkdlybuf4s25_1
*CAP
1 *4064:RESET_B 0.000150812
2 *4059:RESET_B 9.29668e-05
3 *4058:RESET_B 0.000873874
4 *3899:RESET_B 0
5 *3900:RESET_B 0
6 *3898:RESET_B 0.000174453
7 *4171:X 0.000102707
8 *914:57 0.000666456
9 *914:29 0.000613636
10 *914:20 0.000234186
11 *4058:RESET_B *3620:A2 0.000264342
12 *4058:RESET_B *3621:B1 0
13 *4058:RESET_B *3753:A1 0.000183043
14 *4058:RESET_B *4223:A 0
15 *4058:RESET_B *961:26 0.000326346
16 *4058:RESET_B *962:16 0
17 *4064:RESET_B *967:10 2.46089e-05
18 *4064:RESET_B *967:16 3.78408e-05
19 *914:20 *4243:A 0.000134248
20 *914:29 *3620:A2 8.63037e-05
21 *914:29 *4243:A 3.43232e-05
22 *3619:B *4058:RESET_B 0.00035915
23 *4058:CLK *4059:RESET_B 0.000231414
24 *4058:CLK *914:57 0.000176511
25 *4058:D *914:57 4.82863e-05
26 *4063:RESET_B *4058:RESET_B 0
27 *4064:D *4064:RESET_B 0
28 *4092:A *4064:RESET_B 6.63219e-06
29 *4274:A *4064:RESET_B 0
30 *905:42 *4058:RESET_B 1.73877e-05
*RES
1 *4171:X *3898:RESET_B 7.235 
2 *3898:RESET_B *914:20 3.635 
3 *914:20 *3900:RESET_B 2 
4 *914:20 *914:29 3.105 
5 *914:29 *3899:RESET_B 2 
6 *914:29 *4058:RESET_B 14.09 
7 *4058:RESET_B *914:57 6.8625 
8 *914:57 *4059:RESET_B 2.1225 
9 *914:57 *4064:RESET_B 6.655 
*END

*D_NET *915 0.000990949
*CONN
*I *4382:A I *D sky130_fd_sc_hd__clkbuf_4
*I *3906:RESET_B I *D sky130_fd_sc_hd__dfrtp_2
*I *4172:X O *D sky130_fd_sc_hd__clkdlybuf4s25_1
*CAP
1 *4382:A 9.11336e-05
2 *3906:RESET_B 0.000128157
3 *4172:X 7.61379e-05
4 *915:10 0.000295429
5 *3906:RESET_B *3907:RESET_B 0.000160641
6 *3906:RESET_B *971:8 3.64998e-06
7 *4382:A *3907:RESET_B 3.83041e-05
8 *3721:B *3906:RESET_B 4.40899e-05
9 *3722:A2 *3906:RESET_B 0
10 *3906:D *3906:RESET_B 7.63125e-05
11 *3906:D *915:10 7.70938e-05
12 *621:35 *915:10 0
13 *621:49 *915:10 0
*RES
1 *4172:X *915:10 7.235 
2 *915:10 *3906:RESET_B 7.12 
3 *915:10 *4382:A 3.085 
*END

*D_NET *916 0.00733567
*CONN
*I *3870:RESET_B I *D sky130_fd_sc_hd__dfrtp_2
*I *3868:RESET_B I *D sky130_fd_sc_hd__dfrtp_2
*I *3874:RESET_B I *D sky130_fd_sc_hd__dfrtp_2
*I *3872:RESET_B I *D sky130_fd_sc_hd__dfrtp_2
*I *3913:RESET_B I *D sky130_fd_sc_hd__dfrtp_2
*I *3912:RESET_B I *D sky130_fd_sc_hd__dfrtp_2
*I *3911:RESET_B I *D sky130_fd_sc_hd__dfrtp_2
*I *3910:RESET_B I *D sky130_fd_sc_hd__dfrtp_2
*I *3907:RESET_B I *D sky130_fd_sc_hd__dfrtp_2
*I *4382:X O *D sky130_fd_sc_hd__clkbuf_4
*CAP
1 *3870:RESET_B 0
2 *3868:RESET_B 0
3 *3874:RESET_B 5.10857e-05
4 *3872:RESET_B 0.000101958
5 *3913:RESET_B 3.20073e-05
6 *3912:RESET_B 0.000802168
7 *3911:RESET_B 0.000121229
8 *3910:RESET_B 0.000330869
9 *3907:RESET_B 0.00097549
10 *4382:X 0.00017976
11 *916:81 0.000253032
12 *916:79 0.000161114
13 *916:77 0.000500418
14 *916:32 0.000916959
15 *3872:RESET_B *4309:A 6.65066e-05
16 *3907:RESET_B *971:8 3.40734e-05
17 *3912:RESET_B *974:8 0.000117359
18 *3912:RESET_B *976:8 5.90938e-05
19 *3912:RESET_B *976:21 1.91597e-05
20 *3913:RESET_B *3740:B1 0.000120186
21 *916:32 *3732:A 0.000157551
22 *916:32 *971:8 0.000152744
23 *916:77 *3706:A 9.69961e-05
24 *916:77 *3740:B1 0.000127416
25 *916:77 *4311:A 0
26 *916:77 *925:8 0
27 *916:79 *3706:A 4.91189e-05
28 *916:81 *3706:A 6.5265e-05
29 *916:81 *4309:A 2.45182e-05
30 *3640:A0 *916:77 3.84409e-05
31 *3640:A1 *916:77 6.14689e-05
32 *3727:B *916:32 0.000162311
33 *3739:A *916:77 0
34 *3739:C *916:77 0
35 *3906:RESET_B *3907:RESET_B 0.000160641
36 *3907:CLK *916:32 0.000519167
37 *3907:D *916:32 5.24934e-05
38 *3910:D *916:32 7.01359e-05
39 *3911:D *3911:RESET_B 1.85048e-05
40 *3912:D *916:77 0.000425128
41 *3913:D *916:77 5.29707e-05
42 *4382:A *3907:RESET_B 3.83041e-05
43 *595:24 *3912:RESET_B 8.41307e-05
44 *619:34 *3911:RESET_B 3.60024e-06
45 *619:34 *916:32 3.49738e-05
46 *619:51 *3911:RESET_B 2.99137e-05
47 *909:37 *3872:RESET_B 0
48 *909:37 *916:77 0
49 *909:37 *916:79 0
50 *909:37 *916:81 0
51 *909:48 *916:77 0
52 *909:63 *3913:RESET_B 6.74079e-05
53 *909:63 *916:77 0
*RES
1 *4382:X *3907:RESET_B 4.7725 
2 *3907:RESET_B *916:32 16.6175 
3 *916:32 *3910:RESET_B 2 
4 *916:32 *3911:RESET_B 4.19 
5 *3910:RESET_B *3912:RESET_B 5.175 
6 *3912:RESET_B *3913:RESET_B 5.38 
7 *3912:RESET_B *916:77 13.07 
8 *916:77 *916:79 1.38 
9 *916:79 *916:81 2.4 
10 *916:81 *3872:RESET_B 3.89 
11 *916:81 *3874:RESET_B 2.7575 
12 *916:79 *3868:RESET_B 2 
13 *916:77 *3870:RESET_B 2 
*END

*D_NET *917 0.00123543
*CONN
*I *4187:A I *D sky130_fd_sc_hd__dlygate4sd3_1
*I *3864:Q O *D sky130_fd_sc_hd__dfrtp_2
*CAP
1 *4187:A 0.000261048
2 *3864:Q 0.000261048
3 *4352:A *4187:A 0.000241156
4 *828:42 *4187:A 0.00047218
*RES
1 *3864:Q *4187:A 13.8 
*END

*D_NET *918 0.00181925
*CONN
*I *4191:A I *D sky130_fd_sc_hd__dlygate4sd3_1
*I *3516:A I *D sky130_fd_sc_hd__nor2_2
*I *3865:Q O *D sky130_fd_sc_hd__dfrtp_2
*CAP
1 *4191:A 3.55506e-05
2 *3516:A 8.54638e-05
3 *3865:Q 0.000700591
4 *918:6 0.000821605
5 *3855:CLK *3516:A 9.50342e-06
6 *3865:D *918:6 4.66108e-05
7 *610:94 *918:6 1.56428e-05
8 *610:98 *3516:A 0.000104287
9 *685:10 *3516:A 0
*RES
1 *3865:Q *918:6 8.605 
2 *918:6 *3516:A 6.98 
3 *918:6 *4191:A 2.215 
*END

*D_NET *919 0.00172468
*CONN
*I *4181:A I *D sky130_fd_sc_hd__dlygate4sd3_1
*I *3649:B I *D sky130_fd_sc_hd__and2b_2
*I *3973:Q O *D sky130_fd_sc_hd__dfrtp_2
*CAP
1 *4181:A 0
2 *3649:B 0.000255339
3 *3973:Q 0.000274002
4 *919:10 0.00052934
5 *3649:B *3649:A_N 0.000161107
6 *919:10 *1076:31 0
7 *3973:RESET_B *919:10 5.05437e-05
8 *4013:D *919:10 9.5433e-05
9 *4128:A *919:10 0
10 *503:24 *919:10 4.82863e-05
11 *745:10 *3649:B 0.000293916
12 *745:10 *919:10 1.67164e-05
*RES
1 *3973:Q *919:10 8.835 
2 *919:10 *3649:B 10.08 
3 *919:10 *4181:A 3.6 
*END

*D_NET *920 0.000840578
*CONN
*I *3649:A_N I *D sky130_fd_sc_hd__and2b_2
*I *3967:Q O *D sky130_fd_sc_hd__dfrtp_2
*CAP
1 *3649:A_N 0.000206832
2 *3967:Q 0.000206832
3 *3649:B *3649:A_N 0.000161107
4 *4086:A *3649:A_N 0.000112539
5 *4379:A *3649:A_N 0.000100556
6 *543:25 *3649:A_N 4.9339e-06
7 *614:101 *3649:A_N 4.77769e-05
*RES
1 *3967:Q *3649:A_N 11.775 
*END

*D_NET *921 0.00286711
*CONN
*I *4245:A I *D sky130_fd_sc_hd__dlygate4sd3_1
*I *4065:A I *D sky130_fd_sc_hd__buf_2
*I *3876:Q O *D sky130_fd_sc_hd__dfrtp_2
*CAP
1 *4245:A 0
2 *4065:A 0.000744334
3 *3876:Q 0.000118737
4 *921:12 0.000863071
5 *4065:A *3393:A2 0.000260234
6 *4065:A *3393:B1_N 4.87317e-05
7 *921:12 *3393:A2 0.000158072
8 *921:12 *3395:A 0.000132347
9 *3635:C *4065:A 0.000116158
10 *3969:CLK *921:12 0.000132347
11 *4048:CLK *4065:A 0.000176923
12 *4246:A *4065:A 0.000116158
*RES
1 *3876:Q *921:12 8.72 
2 *921:12 *4065:A 16.88 
3 *921:12 *4245:A 1.6 
*END

*D_NET *922 0.00184875
*CONN
*I *4297:A I *D sky130_fd_sc_hd__dlygate4sd3_1
*I *3960:Q O *D sky130_fd_sc_hd__dfrtp_2
*CAP
1 *4297:A 0.000467913
2 *3960:Q 0.000467913
3 *4297:A *3651:B 4.23878e-05
4 *4297:A *3653:B 0.000178654
5 *4297:A *3685:B2 0.000119873
6 *4297:A *4177:A 0.000273621
7 *4297:A *990:10 2.54523e-05
8 *4297:A *1016:10 4.52531e-05
9 *4297:A *1023:10 8.26522e-05
10 *3970:D *4297:A 0.000145026
11 *3970:RESET_B *4297:A 0
12 *3978:D *4297:A 0
*RES
1 *3960:Q *4297:A 18.33 
*END

*D_NET *923 0.000610741
*CONN
*I *4179:A I *D sky130_fd_sc_hd__dlygate4sd3_1
*I *3962:Q O *D sky130_fd_sc_hd__dfrtp_2
*CAP
1 *4179:A 0.000161444
2 *3962:Q 0.000161444
3 *3960:D *4179:A 3.00381e-05
4 *4340:A *4179:A 0.000257815
*RES
1 *3962:Q *4179:A 7.1 
*END

*D_NET *924 0.00489767
*CONN
*I *3452:C I *D sky130_fd_sc_hd__and3_2
*I *3447:B I *D sky130_fd_sc_hd__nand2b_2
*I *3689:A2 I *D sky130_fd_sc_hd__a21oi_2
*I *3690:A2 I *D sky130_fd_sc_hd__a21o_2
*I *3638:A0 I *D sky130_fd_sc_hd__mux2_1
*I *3866:Q O *D sky130_fd_sc_hd__dfrtp_2
*CAP
1 *3452:C 5.99346e-05
2 *3447:B 0.000160431
3 *3689:A2 1.813e-05
4 *3690:A2 0.000179336
5 *3638:A0 0.000223939
6 *3866:Q 0.000175514
7 *924:51 0.000358095
8 *924:27 0.000673869
9 *924:19 0.000639155
10 *924:8 0.000424475
11 *3447:B *3464:A 4.77769e-05
12 *3447:B *3687:A2 6.2139e-05
13 *3447:B *1007:14 4.66108e-05
14 *3690:A2 *3689:A1 4.77769e-05
15 *924:51 *3452:B 3.96347e-05
16 *3465:A2 *3447:B 8.35157e-05
17 *3687:B1 *3690:A2 4.76051e-05
18 *3689:B1 *3690:A2 4.20859e-05
19 *3866:CLK *924:27 4.90291e-05
20 *3866:D *3638:A0 0
21 *3866:RESET_B *924:8 2.35512e-05
22 *3904:RESET_B *3447:B 4.66108e-05
23 *3965:D *3690:A2 5.27354e-05
24 *3965:D *924:8 0.000110494
25 *3965:D *924:27 7.71957e-05
26 *3977:D *3638:A0 0.000194739
27 *3977:D *924:19 3.68942e-05
28 *3977:D *924:51 0.000157797
29 *431:10 *3447:B 4.01308e-05
30 *431:10 *3452:C 1.14192e-05
31 *562:14 *3690:A2 4.77807e-05
32 *618:105 *3638:A0 7.9331e-05
33 *618:105 *924:19 2.74491e-05
34 *618:105 *924:51 4.88854e-05
35 *618:134 *924:51 3.14981e-05
36 *634:42 *3447:B 0.000191962
37 *634:42 *3452:C 2.747e-05
38 *646:43 *3447:B 0.000131525
39 *908:10 *3638:A0 0.000162176
40 *908:16 *3638:A0 1.89685e-05
*RES
1 *3866:Q *924:8 6.81 
2 *924:8 *3638:A0 9.825 
3 *924:8 *924:19 0.87 
4 *924:19 *924:27 8.09 
5 *924:27 *3690:A2 9.155 
6 *924:27 *3689:A2 1.96 
7 *924:19 *924:51 5.675 
8 *924:51 *3447:B 10.325 
9 *924:51 *3452:C 2.755 
*END

*D_NET *925 0.00192367
*CONN
*I *4311:A I *D sky130_fd_sc_hd__dlygate4sd3_1
*I *3710:A I *D sky130_fd_sc_hd__xnor2_2
*I *3868:Q O *D sky130_fd_sc_hd__dfrtp_2
*CAP
1 *4311:A 0.00011597
2 *3710:A 0.000345367
3 *3868:Q 0.000173667
4 *925:8 0.000635004
5 *3710:A *3706:B 8.40213e-05
6 *4311:A *3705:A 7.89767e-05
7 *4311:A *3706:B 6.95248e-05
8 *925:8 *3705:A 0.00019194
9 *925:8 *3706:A 0
10 *3739:C *4311:A 0.000229203
11 *916:77 *4311:A 0
12 *916:77 *925:8 0
*RES
1 *3868:Q *925:8 7.53 
2 *925:8 *3710:A 8.205 
3 *925:8 *4311:A 7.275 
*END

*D_NET *926 0.00139451
*CONN
*I *4300:A I *D sky130_fd_sc_hd__dlygate4sd3_1
*I *3712:A I *D sky130_fd_sc_hd__xnor2_2
*I *3869:Q O *D sky130_fd_sc_hd__dfrtp_2
*CAP
1 *4300:A 0.000149737
2 *3712:A 8.91064e-05
3 *3869:Q 0.000201947
4 *926:8 0.000440791
5 *3712:A *3707:B 0
6 *3869:RESET_B *926:8 3.57275e-05
7 *359:45 *4300:A 2.75145e-05
8 *623:107 *4300:A 0
9 *623:107 *926:8 0.000278111
10 *640:14 *926:8 2.7441e-05
11 *646:61 *3712:A 6.73665e-05
12 *646:61 *4300:A 7.67721e-05
*RES
1 *3869:Q *926:8 7.5 
2 *926:8 *3712:A 5.49 
3 *926:8 *4300:A 6.45 
*END

*D_NET *927 0.00229598
*CONN
*I *4303:A I *D sky130_fd_sc_hd__dlygate4sd3_1
*I *3708:A I *D sky130_fd_sc_hd__xnor2_2
*I *3870:Q O *D sky130_fd_sc_hd__dfrtp_2
*CAP
1 *4303:A 0.000743719
2 *3708:A 0.000342233
3 *3870:Q 0.00108595
4 *3870:CLK *4303:A 6.11008e-05
5 *4373:A *4303:A 6.29758e-05
*RES
1 *3870:Q *3708:A 8.15 
2 *3870:Q *4303:A 15.93 
*END

*D_NET *928 0.00294758
*CONN
*I *4305:A I *D sky130_fd_sc_hd__dlygate4sd3_1
*I *3707:A I *D sky130_fd_sc_hd__xnor2_2
*I *3871:Q O *D sky130_fd_sc_hd__dfrtp_2
*CAP
1 *4305:A 0.00036929
2 *3707:A 0.000195048
3 *3871:Q 0.000249778
4 *928:8 0.000814116
5 *4305:A *4310:A 0
6 *4305:A *942:12 1.9872e-05
7 *3641:A0 *928:8 7.65948e-05
8 *3641:A1 *3707:A 0.000321515
9 *3641:S *3707:A 6.15576e-06
10 *3869:CLK *3707:A 0
11 *3869:D *3707:A 0
12 *3871:RESET_B *928:8 1.41165e-05
13 *4095:A *4305:A 1.07797e-05
14 *359:61 *3707:A 4.84393e-05
15 *359:61 *4305:A 0.000622937
16 *623:8 *4305:A 0
17 *623:25 *928:8 0.000198939
*RES
1 *3871:Q *928:8 7.845 
2 *928:8 *3707:A 8.295 
3 *928:8 *4305:A 11.835 
*END

*D_NET *929 0.00190082
*CONN
*I *3705:A I *D sky130_fd_sc_hd__xnor2_2
*I *4313:A I *D sky130_fd_sc_hd__dlygate4sd3_1
*I *3872:Q O *D sky130_fd_sc_hd__dfrtp_2
*CAP
1 *3705:A 0.000318622
2 *4313:A 0
3 *3872:Q 0.000341701
4 *929:10 0.000660324
5 *3705:A *3706:A 0
6 *3705:A *3706:B 0.000160658
7 *929:10 *3706:A 0
8 *929:10 *4309:A 0
9 *3644:A1 *929:10 5.33607e-05
10 *3644:S *929:10 0
11 *3714:B *3705:A 5.83121e-06
12 *3872:D *929:10 8.94026e-05
13 *4091:A *3705:A 0
14 *4091:A *929:10 0
15 *4311:A *3705:A 7.89767e-05
16 *925:8 *3705:A 0.00019194
*RES
1 *3872:Q *929:10 9.105 
2 *929:10 *4313:A 3.6 
3 *929:10 *3705:A 10.71 
*END

*D_NET *930 0.00136466
*CONN
*I *3709:A I *D sky130_fd_sc_hd__xnor2_2
*I *4298:A I *D sky130_fd_sc_hd__dlygate4sd3_1
*I *3873:Q O *D sky130_fd_sc_hd__dfrtp_2
*CAP
1 *3709:A 0.000268256
2 *4298:A 8.84568e-05
3 *3873:Q 0.000110326
4 *930:10 0.000467039
5 *3713:C *3709:A 0.000136853
6 *4396:A *4298:A 0.000187071
7 *4396:A *930:10 0.000106655
*RES
1 *3873:Q *930:10 5.43 
2 *930:10 *4298:A 5.745 
3 *930:10 *3709:A 8.19 
*END

*D_NET *931 0.00148713
*CONN
*I *3706:A I *D sky130_fd_sc_hd__xnor2_2
*I *4309:A I *D sky130_fd_sc_hd__dlygate4sd3_1
*I *3874:Q O *D sky130_fd_sc_hd__dfrtp_2
*CAP
1 *3706:A 0.000294258
2 *4309:A 0.000298106
3 *3874:Q 0
4 *931:6 0.000592364
5 *3644:A1 *4309:A 0
6 *3705:A *3706:A 0
7 *3872:D *4309:A 0
8 *3872:RESET_B *4309:A 6.65066e-05
9 *909:37 *4309:A 0
10 *916:77 *3706:A 9.69961e-05
11 *916:79 *3706:A 4.91189e-05
12 *916:81 *3706:A 6.5265e-05
13 *916:81 *4309:A 2.45182e-05
14 *925:8 *3706:A 0
15 *929:10 *3706:A 0
16 *929:10 *4309:A 0
*RES
1 *3874:Q *931:6 3.6 
2 *931:6 *4309:A 8.745 
3 *931:6 *3706:A 9.765 
*END

*D_NET *932 0.0029648
*CONN
*I *4310:A I *D sky130_fd_sc_hd__dlygate4sd3_1
*I *3711:A I *D sky130_fd_sc_hd__xnor2_2
*I *3875:Q O *D sky130_fd_sc_hd__dfrtp_2
*CAP
1 *4310:A 0.000797098
2 *3711:A 0.000190191
3 *3875:Q 0.000987289
4 *4310:A *3673:B 0.000236922
5 *4310:A *942:12 0
6 *3643:A0 *4310:A 0
7 *3647:A0 *4310:A 5.83121e-06
8 *3673:A *4310:A 0
9 *3674:A1 *4310:A 0
10 *3869:CLK *4310:A 0.000232646
11 *3869:D *4310:A 7.06865e-05
12 *3873:RESET_B *3711:A 0
13 *4204:A *4310:A 0
14 *4305:A *4310:A 0
15 *4396:A *3711:A 0.000275369
16 *4396:A *4310:A 0
17 *623:8 *4310:A 0.000168764
18 *909:72 *3711:A 0
*RES
1 *3875:Q *3711:A 11.175 
2 *3875:Q *4310:A 21.09 
*END

*D_NET *933 0.00268786
*CONN
*I *3339:A I *D sky130_fd_sc_hd__inv_2
*I *3444:B I *D sky130_fd_sc_hd__and2_2
*I *3984:Q O *D sky130_fd_sc_hd__dfrtp_2
*CAP
1 *3339:A 2.41569e-05
2 *3444:B 0.000300038
3 *3984:Q 0.000387689
4 *933:12 0.000711883
5 *3339:A *4240:A 4.82919e-05
6 *3444:B *4254:A 0.000118266
7 *3444:B *936:41 0
8 *933:12 *3343:A 0
9 *933:12 *936:41 0
10 *3444:A *3444:B 5.41685e-05
11 *3450:A2 *3444:B 7.53115e-05
12 *3450:B1 *3444:B 4.54719e-05
13 *3979:CLK *3444:B 0
14 *3979:CLK *933:12 0
15 *109:14 *3444:B 0.000500245
16 *114:10 *3444:B 9.14049e-05
17 *617:32 *3444:B 0.000237243
18 *636:109 *933:12 9.36949e-05
*RES
1 *3984:Q *933:12 8.64 
2 *933:12 *3444:B 12.48 
3 *933:12 *3339:A 4.05 
*END

*D_NET *934 0.00840931
*CONN
*I *4165:A I *D sky130_fd_sc_hd__clkdlybuf4s25_1
*I *3752:S I *D sky130_fd_sc_hd__mux2_1
*I *3751:S I *D sky130_fd_sc_hd__mux2_1
*I *3985:Q O *D sky130_fd_sc_hd__dfrtp_2
*CAP
1 *4165:A 3.61104e-05
2 *3752:S 0.000924474
3 *3751:S 0
4 *3985:Q 0.00195659
5 *934:32 0.00106602
6 *934:28 0.00213424
7 *3752:S *3751:A1 0.00043335
8 *934:28 *3389:A2 3.00381e-05
9 *934:28 *3440:A1 0.000124007
10 *934:28 *4175:A 1.48249e-05
11 *934:28 *4186:A 0.000352156
12 *3390:B1 *934:28 0.000416828
13 *3440:A2 *934:28 2.50188e-05
14 *3440:B1 *934:28 0.000201332
15 *3441:B *934:28 2.531e-06
16 *3749:A1 *4165:A 1.91597e-05
17 *3749:A1 *934:32 4.43682e-05
18 *3751:A0 *3752:S 2.10134e-05
19 *3751:A0 *934:32 6.6925e-05
20 *3752:A0 *3752:S 2.53216e-05
21 *3803:B1 *3752:S 0
22 *4042:CLK *934:28 0.000134938
23 *4042:D *934:28 9.50342e-06
24 *4050:RESET_B *3752:S 1.306e-05
25 *4055:D *3752:S 7.81876e-05
26 *4282:A *3752:S 2.65814e-06
27 *624:44 *3752:S 3.32538e-05
28 *641:37 *934:28 0
29 *646:61 *3752:S 0
30 *679:8 *934:28 1.03423e-05
31 *785:10 *934:28 2.24423e-05
32 *907:12 *4165:A 4.82919e-05
33 *907:12 *934:28 0.000162325
*RES
1 *3985:Q *934:28 35.495 
2 *934:28 *934:32 2.88 
3 *934:32 *3751:S 1.6 
4 *934:32 *3752:S 19.16 
5 *934:28 *4165:A 2.395 
*END

*D_NET *935 0.0013763
*CONN
*I *3343:A I *D sky130_fd_sc_hd__inv_2
*I *4240:A I *D sky130_fd_sc_hd__dlygate4sd3_1
*I *3981:Q O *D sky130_fd_sc_hd__dfrtp_2
*CAP
1 *3343:A 0.000331081
2 *4240:A 0.000187444
3 *3981:Q 0.000518524
4 *3343:A *936:41 0
5 *3339:A *4240:A 4.82919e-05
6 *3957:D *3343:A 1.47256e-05
7 *3979:CLK *3343:A 0
8 *3984:D *3343:A 7.89689e-05
9 *621:10 *3343:A 0.000197269
10 *933:12 *3343:A 0
*RES
1 *3981:Q *4240:A 6.065 
2 *3981:Q *3343:A 13.155 
*END

*D_NET *936 0.0135409
*CONN
*I *3661:A2 I *D sky130_fd_sc_hd__a21bo_2
*I *3683:B I *D sky130_fd_sc_hd__and3b_2
*I *3443:B I *D sky130_fd_sc_hd__nor3_2
*I *3682:A1 I *D sky130_fd_sc_hd__a21oi_2
*I *3715:B1 I *D sky130_fd_sc_hd__a21oi_2
*I *3905:Q O *D sky130_fd_sc_hd__dfrtp_2
*CAP
1 *3661:A2 3.32562e-05
2 *3683:B 0
3 *3443:B 0.000270432
4 *3682:A1 0
5 *3715:B1 0.000526017
6 *3905:Q 0
7 *936:58 0.000377767
8 *936:47 0.000869737
9 *936:41 0.00309495
10 *936:21 0.00322252
11 *936:4 0.00138273
12 *3443:B *3519:A 0.000114753
13 *3443:B *990:18 0.000151632
14 *3443:B *1001:21 3.86607e-05
15 *3715:B1 *3712:B 0
16 *936:21 *3661:B1_N 0.000111424
17 *936:41 *3679:A1 9.188e-05
18 *936:41 *4249:A 9.52646e-05
19 *936:41 *948:10 4.33681e-05
20 *936:47 *3679:A1 9.80943e-06
21 *936:47 *3682:A2 4.82863e-05
22 *936:47 *949:25 0.000338332
23 *936:58 *990:18 0.0001274
24 *936:58 *1001:21 6.26489e-05
25 *936:58 *1001:32 6.36578e-05
26 *3343:A *936:41 0
27 *3361:A *3661:A2 0
28 *3361:A *936:41 0
29 *3401:B *936:41 4.62478e-05
30 *3443:C *3443:B 0.000274659
31 *3444:B *936:41 0
32 *3450:A1 *936:41 2.42236e-05
33 *3450:A2 *936:41 0
34 *3470:B2 *936:41 0
35 *3471:A1 *936:41 0
36 *3525:A0 *936:41 0.00011215
37 *3661:A1 *936:21 1.83756e-05
38 *3662:B1 *936:21 1.33293e-05
39 *3679:B2 *936:41 1.8644e-05
40 *3716:B *3715:B1 0.000446555
41 *3892:CLK *936:47 2.91235e-05
42 *3905:RESET_B *3715:B1 9.52646e-05
43 *3905:RESET_B *936:21 0.000250076
44 *3954:RESET_B *936:41 8.65961e-05
45 *3955:CLK *936:41 0.000162325
46 *3972:RESET_B *936:41 0.000157343
47 *3983:D *936:41 0
48 *4093:A *936:41 0
49 *4115:A *936:41 7.70828e-05
50 *4377:A *936:41 2.31329e-05
51 *114:10 *936:41 0
52 *364:45 *936:41 0.000178465
53 *426:10 *3443:B 2.30292e-05
54 *621:91 *936:41 5.63318e-05
55 *636:109 *936:41 0
56 *646:53 *3715:B1 2.02638e-05
57 *646:53 *936:21 4.93473e-05
58 *707:10 *936:41 0.000181283
59 *871:10 *3715:B1 0
60 *894:32 *3661:A2 0
61 *894:32 *936:41 0
62 *905:28 *936:41 0.000122474
63 *933:12 *936:41 0
*RES
1 *3905:Q *936:4 1.6 
2 *936:4 *3715:B1 14.27 
3 *936:4 *936:21 12.8 
4 *936:21 *936:41 45.075 
5 *936:41 *936:47 10.395 
6 *936:47 *3682:A1 1.6 
7 *936:47 *936:58 5.105 
8 *936:58 *3443:B 9.99 
9 *936:58 *3683:B 3.6 
10 *936:21 *3661:A2 4.215 
*END

*D_NET *937 0.00189444
*CONN
*I *3396:D I *D sky130_fd_sc_hd__and4_2
*I *3662:A2 I *D sky130_fd_sc_hd__a21o_2
*I *3883:Q O *D sky130_fd_sc_hd__dfstp_2
*CAP
1 *3396:D 0
2 *3662:A2 0.000431759
3 *3883:Q 0.000161044
4 *937:12 0.000592802
5 *3662:A2 *3396:B 0
6 *3662:A2 *3396:C 0.000311288
7 *3662:A2 *939:16 0.000162325
8 *937:12 *3396:B 2.05056e-05
9 *937:12 *3396:C 3.83041e-05
10 *3361:A *937:12 0
11 *3661:A1 *937:12 0.000103192
12 *3662:B1 *3662:A2 5.84989e-05
13 *4073:TE_B *3662:A2 1.47256e-05
*RES
1 *3883:Q *937:12 8.54 
2 *937:12 *3662:A2 12.485 
3 *937:12 *3396:D 1.6 
*END

*D_NET *938 0.00264568
*CONN
*I *4323:A I *D sky130_fd_sc_hd__dlygate4sd3_1
*I *3470:B1 I *D sky130_fd_sc_hd__a22o_2
*I *3957:Q O *D sky130_fd_sc_hd__dfstp_2
*CAP
1 *4323:A 0.000267874
2 *3470:B1 0.00014975
3 *3957:Q 0.00042756
4 *938:12 0.000845184
5 *938:12 *3470:A2 5.79874e-05
6 *938:12 *939:16 3.07153e-05
7 *3958:RESET_B *3470:B1 0.000310417
8 *3958:RESET_B *4323:A 8.53113e-06
9 *3958:RESET_B *938:12 7.99718e-05
10 *4093:A *3470:B1 0.000183738
11 *621:91 *938:12 2.79149e-05
12 *636:109 *3470:B1 1.07797e-05
13 *646:43 *4323:A 0.000118446
14 *894:32 *3470:B1 3.98952e-05
15 *894:32 *4323:A 8.69212e-05
*RES
1 *3957:Q *938:12 9.345 
2 *938:12 *3470:B1 7.725 
3 *938:12 *4323:A 8.775 
*END

*D_NET *939 0.00844107
*CONN
*I *3470:A2 I *D sky130_fd_sc_hd__a22o_2
*I *3677:B I *D sky130_fd_sc_hd__nand2_2
*I *3745:A1 I *D sky130_fd_sc_hd__mux2_1
*I *3958:Q O *D sky130_fd_sc_hd__dfrtp_2
*CAP
1 *3470:A2 0.000626269
2 *3677:B 0.000112136
3 *3745:A1 0.000491453
4 *3958:Q 0
5 *939:16 0.00146371
6 *939:4 0.00148639
7 *3745:A1 *4285:A 3.55492e-05
8 *939:16 *3396:B 0
9 *939:16 *3396:C 0.000218185
10 *939:16 *3661:B1_N 0.000287323
11 *939:16 *3748:A1 0.000160641
12 *939:16 *4228:A 0.000271693
13 *3361:A *939:16 0
14 *3402:B *939:16 0
15 *3469:A1 *3470:A2 0
16 *3470:A1 *3470:A2 6.8725e-06
17 *3471:A1 *939:16 7.23602e-05
18 *3662:A2 *939:16 0.000162325
19 *3662:B1 *939:16 2.42236e-05
20 *3664:A0 *3745:A1 0.000123134
21 *3664:A0 *939:16 0.000986263
22 *3664:A1 *3745:A1 4.60584e-05
23 *3664:S *3745:A1 8.40269e-05
24 *3678:S *3745:A1 8.09021e-06
25 *3745:A0 *3745:A1 5.99668e-05
26 *3748:A0 *939:16 0.000134314
27 *3958:D *3470:A2 0.000178314
28 *4016:CLK *939:16 0.00011052
29 *4049:RESET_B *3745:A1 3.50599e-05
30 *4053:RESET_B *3677:B 4.13171e-05
31 *4229:A *939:16 1.33293e-05
32 *4378:A *3677:B 4.39001e-05
33 *4378:A *3745:A1 8.04993e-05
34 *11:10 *3677:B 1.04858e-05
35 *11:10 *3745:A1 5.86455e-06
36 *72:10 *939:16 0.000252275
37 *621:91 *3470:A2 0.000150549
38 *640:8 *3745:A1 8.49205e-05
39 *640:14 *3745:A1 1.07797e-05
40 *646:43 *3470:A2 0.000425121
41 *880:38 *3470:A2 4.84472e-05
42 *907:40 *939:16 0
43 *938:12 *3470:A2 5.79874e-05
44 *938:12 *939:16 3.07153e-05
*RES
1 *3958:Q *939:4 1.6 
2 *939:4 *939:16 28.995 
3 *939:16 *3745:A1 16.33 
4 *939:16 *3677:B 5.49 
5 *939:4 *3470:A2 16.2987 
*END

*D_NET *940 0.00480577
*CONN
*I *4276:A I *D sky130_fd_sc_hd__dlygate4sd3_1
*I *3669:B I *D sky130_fd_sc_hd__nand2_2
*I *4056:Q O *D sky130_fd_sc_hd__dfrtp_2
*CAP
1 *4276:A 0.000254209
2 *3669:B 0.00153106
3 *4056:Q 0.00178526
4 o_receive_data[1] *3669:B 9.43859e-05
5 o_receive_data[2] *3669:B 6.21133e-05
6 *3667:A *4276:A 0
7 *3668:A1 *3669:B 6.60261e-06
8 *3668:S *3669:B 0.000112214
9 *3746:S *4276:A 0.000139305
10 *3803:B1 *4276:A 0.000332085
11 *3885:D *3669:B 4.82319e-06
12 *3886:D *3669:B 4.11678e-06
13 *4055:CLK *3669:B 0.000205372
14 *4055:CLK *4276:A 3.45679e-05
15 *4056:CLK *3669:B 1.87038e-05
16 *646:61 *4276:A 7.62026e-05
17 *779:10 *4276:A 0
18 *865:12 *3669:B 4.35541e-05
19 *867:16 *3669:B 5.33085e-05
20 *868:18 *3669:B 4.78859e-05
*RES
1 *4056:Q *3669:B 26.175 
2 *4056:Q *4276:A 13.455 
*END

*D_NET *941 0.00169535
*CONN
*I *4281:A I *D sky130_fd_sc_hd__dlygate4sd3_1
*I *3665:B I *D sky130_fd_sc_hd__nand2_2
*I *4055:Q O *D sky130_fd_sc_hd__dfrtp_2
*CAP
1 *4281:A 6.09617e-05
2 *3665:B 0.000641898
3 *4055:Q 0.000702859
4 *4055:D *3665:B 7.89611e-05
5 *646:61 *3665:B 0.000143266
6 *785:10 *4281:A 0
7 *877:14 *4281:A 6.74079e-05
*RES
1 *4055:Q *3665:B 15.15 
2 *4055:Q *4281:A 8.58 
*END

*D_NET *942 0.00121989
*CONN
*I *4269:A I *D sky130_fd_sc_hd__dlygate4sd3_1
*I *3673:B I *D sky130_fd_sc_hd__nand2_2
*I *4054:Q O *D sky130_fd_sc_hd__dfrtp_2
*CAP
1 *4269:A 0.000128452
2 *3673:B 0.000143851
3 *4054:Q 0.000133047
4 *942:12 0.000405351
5 *3647:A0 *3673:B 3.09088e-05
6 *4305:A *942:12 1.9872e-05
7 *4310:A *3673:B 0.000236922
8 *4310:A *942:12 0
9 *869:10 *3673:B 0.000121485
*RES
1 *4054:Q *942:12 7.43 
2 *942:12 *3673:B 5.53 
3 *942:12 *4269:A 3.43 
*END

*D_NET *943 0.00303581
*CONN
*I *4284:A I *D sky130_fd_sc_hd__dlygate4sd3_1
*I *3663:B I *D sky130_fd_sc_hd__nand2_2
*I *3748:A1 I *D sky130_fd_sc_hd__mux2_1
*I *4053:Q O *D sky130_fd_sc_hd__dfrtp_2
*CAP
1 *4284:A 5.23473e-05
2 *3663:B 0.000318162
3 *3748:A1 0.000245163
4 *4053:Q 0
5 *943:21 0.00041812
6 *943:6 0.000292773
7 *3748:A0 *3748:A1 4.99619e-05
8 *3749:A0 *3663:B 0.000304145
9 *3749:S *3663:B 8.43626e-05
10 *4016:CLK *3748:A1 2.0514e-05
11 *4042:D *3663:B 6.26349e-05
12 *4229:A *3748:A1 1.83756e-05
13 *11:10 *3748:A1 0.000351191
14 *11:10 *943:21 8.04571e-05
15 *622:78 *3748:A1 0.000165996
16 *622:126 *3748:A1 0.000112282
17 *622:126 *943:21 5.72004e-05
18 *907:16 *3663:B 0.000241483
19 *939:16 *3748:A1 0.000160641
*RES
1 *4053:Q *943:6 3.6 
2 *943:6 *3748:A1 11.82 
3 *943:6 *943:21 3.635 
4 *943:21 *3663:B 9.07 
5 *943:21 *4284:A 2.395 
*END

*D_NET *944 0.00228584
*CONN
*I *4228:A I *D sky130_fd_sc_hd__dlygate4sd3_1
*I *3661:B1_N I *D sky130_fd_sc_hd__a21bo_2
*I *4052:Q O *D sky130_fd_sc_hd__dfrtp_2
*CAP
1 *4228:A 8.6892e-05
2 *3661:B1_N 0.000155565
3 *4052:Q 0.000137864
4 *944:8 0.000380321
5 *3402:B *3661:B1_N 0
6 *3662:B1 *3661:B1_N 0.00046298
7 *3662:B1 *4228:A 0.000219012
8 *4016:CLK *4228:A 8.23457e-05
9 *4073:TE_B *944:8 4.66742e-05
10 *646:53 *3661:B1_N 4.37431e-05
11 *936:21 *3661:B1_N 0.000111424
12 *939:16 *3661:B1_N 0.000287323
13 *939:16 *4228:A 0.000271693
*RES
1 *4052:Q *944:8 5.085 
2 *944:8 *3661:B1_N 9.54375 
3 *944:8 *4228:A 7.05 
*END

*D_NET *945 0.0017567
*CONN
*I *3752:A1 I *D sky130_fd_sc_hd__mux2_1
*I *4280:A I *D sky130_fd_sc_hd__dlygate4sd3_1
*I *3671:B I *D sky130_fd_sc_hd__nand2_2
*I *4051:Q O *D sky130_fd_sc_hd__dfrtp_2
*CAP
1 *3752:A1 0.000372208
2 *4280:A 0
3 *3671:B 1.91317e-05
4 *4051:Q 0.000452569
5 *945:12 9.94927e-05
6 *3666:S *3671:B 3.45588e-05
7 *3666:S *945:12 1.41186e-05
8 *3752:A0 *3752:A1 4.85763e-05
9 *4056:D *3752:A1 0.000117825
10 *4095:A *3752:A1 0.00026449
11 *624:44 *3752:A1 8.82457e-05
12 *869:10 *945:12 0.000112284
13 *889:105 *3671:B 8.65905e-05
14 *889:105 *945:12 4.66108e-05
*RES
1 *4051:Q *945:12 7.43 
2 *945:12 *3671:B 2.395 
3 *945:12 *4280:A 1.6 
4 *4051:Q *3752:A1 13.89 
*END

*D_NET *946 0.00265016
*CONN
*I *3667:B I *D sky130_fd_sc_hd__nand2_2
*I *4287:A I *D sky130_fd_sc_hd__dlygate4sd3_1
*I *3751:A1 I *D sky130_fd_sc_hd__mux2_1
*I *4050:Q O *D sky130_fd_sc_hd__dfrtp_2
*CAP
1 *3667:B 0.000401403
2 *4287:A 2.2266e-05
3 *3751:A1 0.00011664
4 *4050:Q 4.43379e-05
5 *946:21 0.000486673
6 *946:8 0.000223983
7 *3667:B *3364:B 7.47215e-05
8 *3751:A0 *3751:A1 1.83756e-05
9 *3752:S *3751:A1 0.00043335
10 *3803:B1 *3667:B 0
11 *3803:B1 *946:21 0
12 *3917:CLK *4287:A 4.82919e-05
13 *4055:D *3751:A1 1.01661e-05
14 *391:10 *3667:B 2.75145e-05
15 *641:37 *3751:A1 0.000206123
16 *641:54 *3667:B 0.000358911
17 *641:54 *3751:A1 0.000113745
18 *641:54 *946:21 6.36578e-05
*RES
1 *4050:Q *946:8 4.05 
2 *946:8 *3751:A1 8.745 
3 *946:8 *946:21 1.38 
4 *946:21 *4287:A 4.05 
5 *946:21 *3667:B 11.94 
*END

*D_NET *947 0.00340331
*CONN
*I *3675:B I *D sky130_fd_sc_hd__nand2_2
*I *3750:A1 I *D sky130_fd_sc_hd__mux2_1
*I *4285:A I *D sky130_fd_sc_hd__dlygate4sd3_1
*I *4049:Q O *D sky130_fd_sc_hd__dfrtp_2
*CAP
1 *3675:B 0
2 *3750:A1 0.00031332
3 *4285:A 0.000301111
4 *4049:Q 0.000679461
5 *947:28 0.000691669
6 *3675:A *947:28 0.000209626
7 *3678:S *4285:A 0.00032714
8 *3745:A0 *4285:A 7.4645e-05
9 *3745:A1 *4285:A 3.55492e-05
10 *3884:D *4285:A 3.67779e-05
11 *4049:RESET_B *4285:A 0
12 *4118:A *947:28 0.000281437
13 *4286:A *3750:A1 4.40725e-05
14 *4390:A *3750:A1 6.2061e-05
15 *623:101 *3750:A1 0.000120655
16 *871:10 *4285:A 5.39718e-05
17 *889:66 *947:28 0.000171816
*RES
1 *4049:Q *4285:A 13.905 
2 *4049:Q *947:28 10.69 
3 *947:28 *3750:A1 9.845 
4 *947:28 *3675:B 1.6 
*END

*D_NET *948 0.00424196
*CONN
*I *3331:A I *D sky130_fd_sc_hd__inv_2
*I *3458:A I *D sky130_fd_sc_hd__and3_2
*I *3448:B I *D sky130_fd_sc_hd__and4_2
*I *3465:A1 I *D sky130_fd_sc_hd__a21oi_2
*I *3452:B I *D sky130_fd_sc_hd__and3_2
*I *3983:Q O *D sky130_fd_sc_hd__dfrtp_2
*CAP
1 *3331:A 0
2 *3458:A 0
3 *3448:B 0.000350832
4 *3465:A1 0
5 *3452:B 9.26455e-05
6 *3983:Q 0.000298956
7 *948:20 0.000275565
8 *948:14 0.000565849
9 *948:12 0.000175248
10 *948:10 0.000442106
11 *948:20 *4306:A 0
12 *948:20 *1002:16 0
13 *948:20 *1002:45 8.23457e-05
14 *948:20 *1007:10 0.000155608
15 *3449:B1 *3448:B 0.0001947
16 *3453:A1 *3448:B 0.000198051
17 *3458:B *948:12 3.38895e-05
18 *3458:B *948:14 1.01661e-05
19 *3458:C *3448:B 1.12578e-05
20 *3458:C *948:14 3.86607e-05
21 *3458:C *948:20 3.501e-05
22 *3459:A1 *948:12 7.09999e-05
23 *3462:B2 *948:10 2.66443e-05
24 *3465:A2 *3452:B 4.4495e-05
25 *3466:B *948:20 3.83194e-05
26 *3524:A2 *948:14 8.5242e-05
27 *3524:A2 *948:20 0.00023948
28 *3525:A0 *948:10 0
29 *3525:A0 *948:12 0
30 *3947:CLK *3448:B 3.96653e-05
31 *3972:CLK *948:12 9.41173e-05
32 *364:12 *948:12 0.000249928
33 *426:16 *948:20 1.94636e-05
34 *618:134 *3452:B 0.000217481
35 *749:12 *948:10 7.06865e-05
36 *905:20 *948:10 1.54061e-06
37 *924:51 *3452:B 3.96347e-05
38 *936:41 *948:10 4.33681e-05
*RES
1 *3983:Q *948:10 8.415 
2 *948:10 *948:12 4.44 
3 *948:12 *948:14 1.125 
4 *948:14 *948:20 6.395 
5 *948:20 *3452:B 8.255 
6 *948:20 *3465:A1 1.6 
7 *948:14 *3448:B 8.19 
8 *948:12 *3458:A 3.6 
9 *948:10 *3331:A 3.6 
*END

*D_NET *949 0.00432931
*CONN
*I *3403:A I *D sky130_fd_sc_hd__and2_2
*I *3404:A I *D sky130_fd_sc_hd__and2_2
*I *3443:A I *D sky130_fd_sc_hd__nor3_2
*I *3679:A1 I *D sky130_fd_sc_hd__a22o_2
*I *3892:Q O *D sky130_fd_sc_hd__dfrtp_2
*CAP
1 *3403:A 8.50985e-05
2 *3404:A 0.000159119
3 *3443:A 3.09015e-06
4 *3679:A1 0.000156868
5 *3892:Q 0
6 *949:38 0.000350068
7 *949:25 0.000540966
8 *949:4 0.000588893
9 *3404:A *3330:A 0.000127554
10 *3404:A *3404:B 1.14192e-05
11 *3404:A *981:76 0.000160266
12 *3404:A *989:20 0.000162859
13 *949:25 *3460:A_N 0
14 *949:38 *3330:A 2.98644e-05
15 *949:38 *989:20 0.000170555
16 *3403:B *3403:A 0.000101933
17 *3457:A1 *949:38 1.88602e-05
18 *3462:A2 *3679:A1 7.30547e-05
19 *3525:A0 *3679:A1 0
20 *3679:A2 *3679:A1 0.000129726
21 *3744:B1 *949:25 0
22 *3892:CLK *949:25 0.000310057
23 *3892:D *949:25 8.53113e-06
24 *3892:RESET_B *949:25 5.86003e-05
25 *3972:RESET_B *3679:A1 0.000121437
26 *3972:RESET_B *949:25 2.05056e-05
27 *3978:D *949:25 3.77566e-05
28 *3978:D *949:38 0.000100216
29 *615:86 *3403:A 6.52411e-05
30 *615:97 *3443:A 2.10433e-05
31 *615:97 *949:25 0.000164354
32 *615:97 *949:38 1.86911e-05
33 *615:121 *3403:A 2.0187e-05
34 *691:10 *949:25 7.24779e-05
35 *936:41 *3679:A1 9.188e-05
36 *936:47 *3679:A1 9.80943e-06
37 *936:47 *949:25 0.000338332
*RES
1 *3892:Q *949:4 1.6 
2 *949:4 *3679:A1 9.5 
3 *949:4 *949:25 13.3775 
4 *949:25 *3443:A 3.8325 
5 *949:25 *949:38 3.2325 
6 *949:38 *3404:A 8.175 
7 *949:38 *3403:A 5.445 
*END

*D_NET *950 0.000575981
*CONN
*I *4231:A I *D sky130_fd_sc_hd__dlygate4sd3_1
*I *3623:A2 I *D sky130_fd_sc_hd__a221o_2
*I *3897:Q O *D sky130_fd_sc_hd__dfrtp_2
*CAP
1 *4231:A 0.000119184
2 *3623:A2 3.6516e-05
3 *3897:Q 6.4953e-05
4 *950:10 0.000220653
5 *3623:A2 *3623:A1 2.87433e-05
6 *950:10 *3621:A2 3.50033e-05
7 *950:10 *3623:A1 5.16348e-05
8 *3624:C *3623:A2 1.56428e-05
9 *3624:C *4231:A 3.64998e-06
10 *3688:A1 *950:10 0
*RES
1 *3897:Q *950:10 6.98 
2 *950:10 *3623:A2 2.2225 
3 *950:10 *4231:A 3.43 
*END

*D_NET *951 0.00234782
*CONN
*I *3621:A2 I *D sky130_fd_sc_hd__a221o_2
*I *4244:A I *D sky130_fd_sc_hd__dlygate4sd3_1
*I *3898:Q O *D sky130_fd_sc_hd__dfrtp_2
*CAP
1 *3621:A2 0.000405771
2 *4244:A 1.33309e-05
3 *3898:Q 0.000147794
4 *951:10 0.000566896
5 *3621:A2 *3621:A1 6.87286e-05
6 *3621:A2 *3621:B1 9.28188e-05
7 *3621:A2 *3623:A1 0.00010255
8 *3621:A2 *3623:B1 8.97642e-05
9 *3621:A2 *4223:A 1.64132e-05
10 *3621:A2 *952:8 0.000164888
11 *3624:A *3621:A2 0.000105357
12 *3624:C *3621:A2 0.000136877
13 *3704:A1 *3621:A2 1.38283e-05
14 *3704:A1 *951:10 2.69443e-06
15 *3704:A2 *3621:A2 3.72007e-05
16 *434:22 *4244:A 1.79174e-05
17 *562:14 *951:10 4.89395e-05
18 *563:22 *4244:A 4.77807e-05
19 *634:110 *3621:A2 0.000233272
20 *950:10 *3621:A2 3.50033e-05
*RES
1 *3898:Q *951:10 5.685 
2 *951:10 *4244:A 4.05 
3 *951:10 *3621:A2 14.8725 
*END

*D_NET *952 0.00121424
*CONN
*I *3623:B1 I *D sky130_fd_sc_hd__a221o_2
*I *4242:A I *D sky130_fd_sc_hd__dlygate4sd3_1
*I *3899:Q O *D sky130_fd_sc_hd__dfrtp_2
*CAP
1 *3623:B1 4.72676e-05
2 *4242:A 7.66073e-05
3 *3899:Q 8.09335e-05
4 *952:8 0.000204808
5 *3623:B1 *3621:B1 0.000153801
6 *952:8 *3621:B1 0.000164679
7 *952:8 *4223:A 0.000138757
8 *3621:A2 *3623:B1 8.97642e-05
9 *3621:A2 *952:8 0.000164888
10 *4063:RESET_B *4242:A 9.27326e-05
*RES
1 *3899:Q *952:8 7.02 
2 *952:8 *4242:A 5.085 
3 *952:8 *3623:B1 5.49 
*END

*D_NET *953 0.00304852
*CONN
*I *3620:A2 I *D sky130_fd_sc_hd__a22o_2
*I *4243:A I *D sky130_fd_sc_hd__dlygate4sd3_1
*I *3900:Q O *D sky130_fd_sc_hd__dfrtp_2
*CAP
1 *3620:A2 0.000399624
2 *4243:A 0.000209311
3 *3900:Q 0.000141006
4 *953:8 0.000749941
5 *3620:A2 *3753:A1 0.000194871
6 *3620:A2 *962:16 0.000179853
7 *3696:B2 *4243:A 0
8 *3898:D *3620:A2 0.00023257
9 *3898:D *4243:A 0.000197379
10 *4058:RESET_B *3620:A2 0.000264342
11 *4400:A *3620:A2 0.000112549
12 *563:22 *953:8 0.000112204
13 *914:20 *4243:A 0.000134248
14 *914:29 *3620:A2 8.63037e-05
15 *914:29 *4243:A 3.43232e-05
*RES
1 *3900:Q *953:8 5.43 
2 *953:8 *4243:A 8.295 
3 *953:8 *3620:A2 14.115 
*END

*D_NET *954 0.00236348
*CONN
*I *3620:B1 I *D sky130_fd_sc_hd__a22o_2
*I *4230:A I *D sky130_fd_sc_hd__dlygate4sd3_1
*I *3901:Q O *D sky130_fd_sc_hd__dfrtp_2
*CAP
1 *3620:B1 0.000131342
2 *4230:A 9.89749e-05
3 *3901:Q 0.000381416
4 *954:10 0.000611734
5 *3620:B1 *3617:A 0.000160641
6 *3620:B1 *3620:B2 8.49205e-05
7 *3620:B1 *3622:A2 0.000154488
8 *3620:B1 *3753:A1 3.09179e-05
9 *954:10 *3622:A2 0.00015682
10 *3694:B2 *4230:A 4.31127e-05
11 *3700:A1 *954:10 3.64998e-06
12 *3700:B1 *954:10 0.000196873
13 *3700:B2 *954:10 8.73389e-06
14 *4092:A *3620:B1 4.92014e-05
15 *435:22 *954:10 2.19562e-06
16 *632:12 *3620:B1 0.000163185
17 *632:12 *954:10 8.52769e-05
*RES
1 *3901:Q *954:10 9.39 
2 *954:10 *4230:A 5.1 
3 *954:10 *3620:B1 8.505 
*END

*D_NET *955 0.00188191
*CONN
*I *3622:A2 I *D sky130_fd_sc_hd__a22o_2
*I *4225:A I *D sky130_fd_sc_hd__dlygate4sd3_1
*I *3902:Q O *D sky130_fd_sc_hd__dfrtp_2
*CAP
1 *3622:A2 0.000289719
2 *4225:A 0
3 *3902:Q 6.85921e-05
4 *955:6 0.000358311
5 *3620:B1 *3622:A2 0.000154488
6 *3700:A1 *3622:A2 0.000112087
7 *3700:B2 *3622:A2 0.000131525
8 *3899:CLK *3622:A2 3.4399e-05
9 *4092:A *3622:A2 0.000211815
10 *563:22 *3622:A2 0.000192502
11 *563:22 *955:6 0.000157937
12 *632:12 *3622:A2 1.37112e-05
13 *954:10 *3622:A2 0.00015682
*RES
1 *3902:Q *955:6 3.085 
2 *955:6 *4225:A 1.6 
3 *955:6 *3622:A2 13.7788 
*END

*D_NET *956 0.00209073
*CONN
*I *3622:B1 I *D sky130_fd_sc_hd__a22o_2
*I *4224:A I *D sky130_fd_sc_hd__dlygate4sd3_1
*I *3903:Q O *D sky130_fd_sc_hd__dfrtp_2
*CAP
1 *3622:B1 0.00021643
2 *4224:A 0.000324834
3 *3903:Q 0.000138934
4 *956:6 0.000680198
5 *3622:B1 *3622:A1 4.66108e-05
6 *3622:B1 *969:14 8.53113e-06
7 *3694:B2 *3622:B1 3.72742e-05
8 *3694:B2 *4224:A 0.000467452
9 *3698:A1 *3622:B1 0
10 *3698:A1 *4224:A 3.05295e-05
11 *3702:B1 *4224:A 0
12 *4057:RESET_B *3622:B1 0
13 *4057:RESET_B *4224:A 0
14 *4092:A *3622:B1 0.000139933
15 *4092:A *4224:A 0
16 *913:78 *4224:A 0
*RES
1 *3903:Q *956:6 3.085 
2 *956:6 *4224:A 12.335 
3 *956:6 *3622:B1 9.17 
*END

*D_NET *957 0.00197367
*CONN
*I *3621:B1 I *D sky130_fd_sc_hd__a221o_2
*I *4223:A I *D sky130_fd_sc_hd__dlygate4sd3_1
*I *3904:Q O *D sky130_fd_sc_hd__dfrtp_2
*CAP
1 *3621:B1 0.000292609
2 *4223:A 0.000141618
3 *3904:Q 0
4 *957:6 0.000434226
5 *3621:B1 *3621:A1 6.18292e-05
6 *3621:B1 *3621:B2 5.4155e-06
7 *3621:B1 *3623:A1 0
8 *3621:B1 *3623:B2 0.000250623
9 *3621:A2 *3621:B1 9.28188e-05
10 *3621:A2 *4223:A 1.64132e-05
11 *3623:B1 *3621:B1 0.000153801
12 *3623:C1 *3621:B1 6.00003e-05
13 *3624:A *3621:B1 1.47256e-05
14 *3692:A1 *4223:A 7.58309e-05
15 *4058:RESET_B *3621:B1 0
16 *4058:RESET_B *4223:A 0
17 *4063:RESET_B *3621:B1 7.21296e-06
18 *435:14 *4223:A 6.31102e-05
19 *952:8 *3621:B1 0.000164679
20 *952:8 *4223:A 0.000138757
*RES
1 *3904:Q *957:6 3.6 
2 *957:6 *4223:A 7.23 
3 *957:6 *3621:B1 11.49 
*END

*D_NET *958 0.00406997
*CONN
*I *4264:A I *D sky130_fd_sc_hd__dlygate4sd3_1
*I *3337:A I *D sky130_fd_sc_hd__inv_2
*I *3974:Q O *D sky130_fd_sc_hd__dfrtp_2
*CAP
1 *4264:A 5.91591e-05
2 *3337:A 0.000542551
3 *3974:Q 0.000594765
4 *958:18 0.00119647
5 *3337:A *3679:B1 0
6 *3337:A *1067:28 0
7 *4264:A *4201:A 5.05521e-05
8 *958:18 *3744:A1 5.36384e-06
9 *958:18 *993:6 4.11678e-06
10 *958:18 *993:14 0.000914853
11 *3361:B *3337:A 0
12 *3468:B2 *4264:A 8.65961e-05
13 *3468:B2 *958:18 0.000306355
14 *3927:D *3337:A 5.07419e-05
15 *3998:RESET_B *3337:A 0.000115464
16 *4302:A *958:18 8.39885e-05
17 *365:16 *958:18 5.89912e-05
*RES
1 *3974:Q *958:18 20.015 
2 *958:18 *3337:A 12.44 
3 *958:18 *4264:A 3.085 
*END

*D_NET *959 0.00144647
*CONN
*I *3396:C I *D sky130_fd_sc_hd__and4_2
*I *3982:Q O *D sky130_fd_sc_hd__dfstp_2
*CAP
1 *3396:C 0.000281304
2 *3982:Q 0.000281304
3 *3396:C *3396:B 0.000249511
4 *3361:A *3396:C 0
5 *3662:A2 *3396:C 0.000311288
6 *4073:TE_B *3396:C 6.65725e-05
7 *937:12 *3396:C 3.83041e-05
8 *939:16 *3396:C 0.000218185
*RES
1 *3982:Q *3396:C 15.105 
*END

*D_NET *960 0.00220822
*CONN
*I *4301:A I *D sky130_fd_sc_hd__dlygate4sd3_1
*I *3469:A2 I *D sky130_fd_sc_hd__a21o_2
*I *3955:Q O *D sky130_fd_sc_hd__dfstp_2
*CAP
1 *4301:A 0.000365275
2 *3469:A2 0.000169764
3 *3955:Q 0
4 *960:4 0.000535039
5 *4301:A *3679:B1 6.49616e-05
6 *3468:B1 *4301:A 0.000153499
7 *3469:A1 *3469:A2 0.000122155
8 *4164:A *4301:A 0.000423454
9 *4302:A *4301:A 8.40213e-05
10 *362:25 *3469:A2 0.000139933
11 *362:25 *4301:A 6.27114e-05
12 *617:107 *4301:A 8.23457e-05
13 *637:6 *4301:A 5.062e-06
14 *646:43 *3469:A2 0
*RES
1 *3955:Q *960:4 1.6 
2 *960:4 *3469:A2 9.41 
3 *960:4 *4301:A 13.52 
*END

*D_NET *961 0.0107212
*CONN
*I *3468:A2 I *D sky130_fd_sc_hd__a22o_2
*I *3618:A I *D sky130_fd_sc_hd__or4_2
*I *3621:B2 I *D sky130_fd_sc_hd__a221o_2
*I *3753:A1 I *D sky130_fd_sc_hd__mux2_1
*I *3956:Q O *D sky130_fd_sc_hd__dfrtp_2
*CAP
1 *3468:A2 0.000563673
2 *3618:A 0
3 *3621:B2 9.37767e-05
4 *3753:A1 0.000641061
5 *3956:Q 0.00152117
6 *961:26 0.000957671
7 *961:22 0.00118034
8 *3753:A1 *3617:A 5.61593e-05
9 *3753:A1 *3620:B2 0.000145934
10 *3753:A1 *962:16 2.53301e-05
11 *3753:A1 *964:37 0.000111763
12 *961:22 *3618:B 0.00023468
13 *961:22 *3618:C 0.000353935
14 *961:22 *4267:A 6.05513e-05
15 *3469:B1 *3468:A2 4.66108e-05
16 *3619:A *3753:A1 0.000200615
17 *3619:B *961:26 6.18754e-05
18 *3620:A2 *3753:A1 0.000194871
19 *3620:B1 *3753:A1 3.09179e-05
20 *3621:B1 *3621:B2 5.4155e-06
21 *3621:C1 *3753:A1 0.00046686
22 *3624:A *3621:B2 5.36034e-05
23 *3753:S *3753:A1 8.40213e-05
24 *3754:S *961:26 0
25 *3756:A0 *961:22 2.0514e-05
26 *3757:A0 *961:22 3.39151e-05
27 *3974:D *3468:A2 0.000271341
28 *3983:CLK *961:22 9.2741e-05
29 *4058:RESET_B *3753:A1 0.000183043
30 *4058:RESET_B *961:26 0.000326346
31 *4063:RESET_B *3753:A1 0
32 *4063:RESET_B *961:26 0
33 *4164:A *3468:A2 0.00046962
34 *114:10 *961:22 3.18219e-05
35 *362:25 *3468:A2 6.21477e-05
36 *617:40 *961:22 0.000230916
37 *637:6 *3468:A2 3.33212e-05
38 *749:12 *3468:A2 0.000162738
39 *749:12 *961:22 0.000569146
40 *875:58 *961:26 0.000153139
41 *905:16 *3468:A2 0.000152445
42 *905:54 *3753:A1 0.000223804
43 *907:46 *3468:A2 7.55945e-06
44 *907:46 *961:22 0.00060578
*RES
1 *3956:Q *961:22 24.68 
2 *961:22 *961:26 7.715 
3 *961:26 *3753:A1 19.455 
4 *961:26 *3621:B2 5.20875 
5 *961:22 *3618:A 1.6 
6 *3956:Q *3468:A2 18.195 
*END

*D_NET *962 0.00279703
*CONN
*I *3754:A1 I *D sky130_fd_sc_hd__mux2_1
*I *4273:A I *D sky130_fd_sc_hd__dlygate4sd3_1
*I *3620:A1 I *D sky130_fd_sc_hd__a22o_2
*I *3617:A I *D sky130_fd_sc_hd__or4_2
*I *4064:Q O *D sky130_fd_sc_hd__dfrtp_2
*CAP
1 *3754:A1 7.13613e-05
2 *4273:A 0
3 *3620:A1 0
4 *3617:A 0.000224889
5 *4064:Q 0.000197162
6 *962:16 0.000488832
7 *962:10 0.000393679
8 *962:8 0.000398259
9 *3617:A *3620:B2 2.16833e-05
10 *3619:A *962:10 0
11 *3619:A *962:16 0
12 *3620:A2 *962:16 0.000179853
13 *3620:B1 *3617:A 0.000160641
14 *3753:A1 *3617:A 5.61593e-05
15 *3753:A1 *962:16 2.53301e-05
16 *3754:S *962:10 5.11148e-06
17 *3759:A1 *3754:A1 0.000241397
18 *3759:A1 *962:8 2.49909e-05
19 *3759:A1 *962:10 5.23362e-05
20 *4058:RESET_B *962:16 0
21 *4063:D *3754:A1 0.000140844
22 *4063:D *962:10 4.43871e-06
23 *632:12 *962:10 0
24 *632:12 *962:16 0
25 *774:10 *3754:A1 9.50342e-06
26 *905:42 *962:10 8.82848e-05
27 *905:42 *962:16 1.22762e-05
*RES
1 *4064:Q *962:8 5.775 
2 *962:8 *962:10 2.91 
3 *962:10 *962:16 6.575 
4 *962:16 *3617:A 5.095 
5 *962:16 *3620:A1 1.6 
6 *962:10 *4273:A 3.6 
7 *962:8 *3754:A1 6.51 
*END

*D_NET *963 0.00298068
*CONN
*I *3618:B I *D sky130_fd_sc_hd__or4_2
*I *4267:A I *D sky130_fd_sc_hd__dlygate4sd3_1
*I *3621:A1 I *D sky130_fd_sc_hd__a221o_2
*I *4063:Q O *D sky130_fd_sc_hd__dfrtp_2
*CAP
1 *3618:B 0.000161345
2 *4267:A 0.000127997
3 *3621:A1 0.00025572
4 *4063:Q 0.000254441
5 *963:16 0.000434708
6 *963:14 0.000466777
7 *3621:A1 *3623:A1 5.01323e-05
8 *3621:A1 *3623:B2 5.3498e-05
9 *3621:A1 *4271:A 1.22762e-05
10 *3621:A1 *965:27 1.82476e-05
11 *3621:A1 *968:21 6.0236e-05
12 *4267:A *3618:C 0.000123225
13 *963:14 *4254:A 2.7861e-05
14 *963:14 *4271:A 1.86491e-05
15 *963:16 *4254:A 1.44259e-05
16 *963:16 *4271:A 2.25075e-05
17 *963:16 *965:27 1.0183e-05
18 *3621:A2 *3621:A1 6.87286e-05
19 *3621:B1 *3621:A1 6.18292e-05
20 *3624:A *3621:A1 2.87395e-05
21 *4061:D *3621:A1 0.00011852
22 *769:10 *3621:A1 0.0002954
23 *961:22 *3618:B 0.00023468
24 *961:22 *4267:A 6.05513e-05
*RES
1 *4063:Q *963:14 6.855 
2 *963:14 *963:16 0.87 
3 *963:16 *3621:A1 10.455 
4 *963:16 *4267:A 6.12 
5 *963:14 *3618:B 5.775 
*END

*D_NET *964 0.00376463
*CONN
*I *3617:C I *D sky130_fd_sc_hd__or4_2
*I *3622:A1 I *D sky130_fd_sc_hd__a22o_2
*I *4288:A I *D sky130_fd_sc_hd__dlygate4sd3_1
*I *4062:Q O *D sky130_fd_sc_hd__dfrtp_2
*CAP
1 *3617:C 0
2 *3622:A1 0.000118442
3 *4288:A 0.000359055
4 *4062:Q 0.000140338
5 *964:37 0.000624267
6 *964:12 0.00100522
7 *3622:A1 *969:10 3.09164e-05
8 *3622:A1 *969:14 0.000117832
9 *964:37 *3620:B2 5.83121e-06
10 *3622:B1 *3622:A1 4.66108e-05
11 *3644:A0 *4288:A 3.01206e-05
12 *3753:A0 *964:37 3.41598e-05
13 *3753:A1 *964:37 0.000111763
14 *3753:S *964:37 2.16833e-05
15 *3755:A1 *964:37 0.000234685
16 *4057:D *964:12 2.49909e-05
17 *4057:D *964:37 0.000116853
18 *4062:RESET_B *4288:A 0
19 *4062:RESET_B *964:12 6.69608e-06
20 *4091:A *4288:A 0.000332529
21 *4092:A *3622:A1 0.000139245
22 *608:27 *964:12 5.83703e-05
23 *608:77 *4288:A 2.92496e-05
24 *608:77 *964:12 0.000110767
25 *608:77 *964:37 3.24396e-05
26 *608:128 *4288:A 0
27 *792:10 *4288:A 0
28 *905:54 *964:37 3.25635e-05
*RES
1 *4062:Q *964:12 6.495 
2 *964:12 *4288:A 9.87 
3 *964:12 *964:37 11.375 
4 *964:37 *3622:A1 8.39 
5 *964:37 *3617:C 1.6 
*END

*D_NET *965 0.00454573
*CONN
*I *4254:A I *D sky130_fd_sc_hd__dlygate4sd3_1
*I *3618:C I *D sky130_fd_sc_hd__or4_2
*I *3623:A1 I *D sky130_fd_sc_hd__a221o_2
*I *4061:Q O *D sky130_fd_sc_hd__dfrtp_2
*CAP
1 *4254:A 0.000616429
2 *3618:C 0.000108019
3 *3623:A1 0.000435023
4 *4061:Q 0.000224259
5 *965:27 0.000857289
6 *965:8 0.000792123
7 *3618:C *3618:D 6.97118e-05
8 *4254:A *4271:A 0
9 *3444:A *4254:A 3.70572e-05
10 *3444:B *4254:A 0.000118266
11 *3621:A1 *3623:A1 5.01323e-05
12 *3621:A1 *965:27 1.82476e-05
13 *3621:A2 *3623:A1 0.00010255
14 *3621:B1 *3623:A1 0
15 *3623:A2 *3623:A1 2.87433e-05
16 *3624:C *3623:A1 0.000136884
17 *3718:B *4254:A 0
18 *3982:D *3623:A1 0
19 *3982:D *4254:A 0
20 *3982:D *965:27 0
21 *4061:CLK *965:8 9.73004e-05
22 *4061:RESET_B *965:8 7.25921e-05
23 *4267:A *3618:C 0.000123225
24 *109:14 *4254:A 3.23663e-05
25 *604:12 *3623:A1 5.05716e-06
26 *769:10 *3623:A1 8.97564e-05
27 *769:10 *965:27 7.26629e-05
28 *950:10 *3623:A1 5.16348e-05
29 *961:22 *3618:C 0.000353935
30 *963:14 *4254:A 2.7861e-05
31 *963:16 *4254:A 1.44259e-05
32 *963:16 *965:27 1.0183e-05
*RES
1 *4061:Q *965:8 7.845 
2 *965:8 *3623:A1 12.045 
3 *965:8 *965:27 2.4 
4 *965:27 *3618:C 7.155 
5 *965:27 *4254:A 14.28 
*END

*D_NET *966 0.00142459
*CONN
*I *4249:A I *D sky130_fd_sc_hd__dlygate4sd3_1
*I *4060:Q O *D sky130_fd_sc_hd__dfrtp_2
*CAP
1 *4249:A 0.000477867
2 *4060:Q 0.000477867
3 *3983:CLK *4249:A 3.45588e-05
4 *3983:D *4249:A 2.11084e-05
5 *604:89 *4249:A 0.000141592
6 *646:43 *4249:A 0.000139933
7 *905:20 *4249:A 3.64025e-05
8 *936:41 *4249:A 9.52646e-05
*RES
1 *4060:Q *4249:A 14.565 
*END

*D_NET *967 0.00318939
*CONN
*I *4290:A I *D sky130_fd_sc_hd__dlygate4sd3_1
*I *3760:A1 I *D sky130_fd_sc_hd__mux2_1
*I *3620:B2 I *D sky130_fd_sc_hd__a22o_2
*I *3617:B I *D sky130_fd_sc_hd__or4_2
*I *4059:Q O *D sky130_fd_sc_hd__dfrtp_2
*CAP
1 *4290:A 0.000390186
2 *3760:A1 5.65359e-05
3 *3620:B2 0.000162634
4 *3617:B 0
5 *4059:Q 7.05816e-05
6 *967:22 0.000226209
7 *967:16 0.000316557
8 *967:10 0.000657214
9 *967:22 *969:10 7.23533e-05
10 *3617:A *3620:B2 2.16833e-05
11 *3620:B1 *3620:B2 8.49205e-05
12 *3753:A1 *3620:B2 0.000145934
13 *3755:A0 *4290:A 8.88108e-06
14 *3755:A0 *967:16 9.5433e-05
15 *3755:A0 *967:22 0
16 *3760:A0 *3760:A1 4.99619e-05
17 *4058:CLK *967:10 2.75229e-05
18 *4059:D *967:16 0
19 *4064:CLK *4290:A 4.41506e-05
20 *4064:D *967:10 3.4222e-05
21 *4064:D *967:16 3.05295e-05
22 *4064:RESET_B *967:10 2.46089e-05
23 *4064:RESET_B *967:16 3.78408e-05
24 *4092:A *3620:B2 4.13171e-05
25 *4092:A *967:16 0
26 *4092:A *967:22 0.000160658
27 *4274:A *3760:A1 8.40269e-05
28 *4274:A *967:16 4.82863e-05
29 *604:24 *4290:A 2.20732e-05
30 *604:24 *967:16 5.05716e-06
31 *608:122 *4290:A 8.56473e-05
32 *632:12 *3620:B2 2.75707e-05
33 *905:50 *3760:A1 5.68717e-05
34 *905:50 *967:16 9.4087e-05
35 *905:50 *967:22 0
36 *964:37 *3620:B2 5.83121e-06
*RES
1 *4059:Q *967:10 4.92 
2 *967:10 *967:16 6.23 
3 *967:16 *967:22 5.89 
4 *967:22 *3617:B 1.6 
5 *967:22 *3620:B2 8.75 
6 *967:16 *3760:A1 3.085 
7 *967:10 *4290:A 8.46 
*END

*D_NET *968 0.00258027
*CONN
*I *4271:A I *D sky130_fd_sc_hd__dlygate4sd3_1
*I *3618:D I *D sky130_fd_sc_hd__or4_2
*I *3623:B2 I *D sky130_fd_sc_hd__a221o_2
*I *4058:Q O *D sky130_fd_sc_hd__dfrtp_2
*CAP
1 *4271:A 0.000285475
2 *3618:D 6.97332e-05
3 *3623:B2 0.000204098
4 *4058:Q 0.000106151
5 *968:21 0.000436687
6 *968:8 0.000391729
7 *3618:C *3618:D 6.97118e-05
8 *3621:A1 *3623:B2 5.3498e-05
9 *3621:A1 *4271:A 1.22762e-05
10 *3621:A1 *968:21 6.0236e-05
11 *3621:B1 *3623:B2 0.000250623
12 *3623:C1 *3623:B2 9.50342e-06
13 *4061:CLK *968:8 1.4389e-05
14 *4061:D *3623:B2 3.67779e-05
15 *4061:D *968:21 3.05373e-05
16 *4063:RESET_B *3623:B2 0.000260971
17 *4063:RESET_B *4271:A 0.000133749
18 *4063:RESET_B *968:21 0.000112971
19 *4254:A *4271:A 0
20 *875:58 *4271:A 0
21 *963:14 *4271:A 1.86491e-05
22 *963:16 *4271:A 2.25075e-05
*RES
1 *4058:Q *968:8 4.74 
2 *968:8 *3623:B2 9.42375 
3 *968:8 *968:21 2.4 
4 *968:21 *3618:D 4.74 
5 *968:21 *4271:A 9.18 
*END

*D_NET *969 0.000943929
*CONN
*I *3617:D I *D sky130_fd_sc_hd__or4_2
*I *3622:B2 I *D sky130_fd_sc_hd__a22o_2
*I *4259:A I *D sky130_fd_sc_hd__dlygate4sd3_1
*I *4057:Q O *D sky130_fd_sc_hd__dfrtp_2
*CAP
1 *3617:D 0
2 *3622:B2 0
3 *4259:A 5.4625e-05
4 *4057:Q 0.000141909
5 *969:14 0.000137103
6 *969:10 0.000224387
7 *3622:A1 *969:10 3.09164e-05
8 *3622:A1 *969:14 0.000117832
9 *3622:B1 *969:14 8.53113e-06
10 *3755:A0 *969:14 0
11 *4057:RESET_B *969:14 0
12 *4092:A *969:10 2.05661e-05
13 *4092:A *969:14 2.05661e-05
14 *905:50 *969:10 0.000115139
15 *967:22 *969:10 7.23533e-05
*RES
1 *4057:Q *969:10 6.375 
2 *969:10 *969:14 3.89 
3 *969:14 *4259:A 2.395 
4 *969:14 *3622:B2 1.6 
5 *969:10 *3617:D 3.6 
*END

*D_NET *970 0.00554888
*CONN
*I *3722:A1 I *D sky130_fd_sc_hd__a21o_2
*I *3725:B1 I *D sky130_fd_sc_hd__o2111a_2
*I *3720:A I *D sky130_fd_sc_hd__nand2_2
*I *3723:A I *D sky130_fd_sc_hd__and3_2
*I *3710:B I *D sky130_fd_sc_hd__xnor2_2
*I *3719:A I *D sky130_fd_sc_hd__or2_2
*I *3906:Q O *D sky130_fd_sc_hd__dfrtp_2
*CAP
1 *3722:A1 0.00021793
2 *3725:B1 9.00676e-05
3 *3720:A 6.70688e-05
4 *3723:A 2.05581e-05
5 *3710:B 0.000381659
6 *3719:A 0.000177361
7 *3906:Q 0
8 *970:47 0.000202921
9 *970:36 0.000104014
10 *970:23 0.000630374
11 *970:4 0.000606335
12 *3719:A *971:22 2.49909e-05
13 *3720:A *3708:B 5.92191e-05
14 *3720:A *971:22 7.30547e-05
15 *3722:A1 *3722:B1 5.83121e-06
16 *3722:A1 *3726:A 0.000345489
17 *3722:A1 *971:22 0.000123139
18 *3722:A1 *971:44 4.75576e-05
19 *3725:B1 *3708:B 3.57349e-05
20 *3725:B1 *972:12 8.23457e-05
21 *970:23 *971:22 5.23362e-05
22 *970:36 *3723:B 3.48063e-05
23 *970:47 *3708:B 8.23457e-05
24 *970:47 *3723:B 8.34281e-06
25 *3714:D *3710:B 5.30673e-05
26 *3719:B *3719:A 0.000375944
27 *3719:B *3722:A1 7.58604e-05
28 *3719:B *970:23 0.000112764
29 *3720:B *3720:A 9.29751e-06
30 *3720:B *970:23 3.60648e-06
31 *3721:A *3722:A1 0.000132192
32 *3721:B *3719:A 4.21973e-05
33 *3721:B *3722:A1 1.19928e-05
34 *3721:C *3720:A 0.000183036
35 *3723:C *970:23 1.88904e-05
36 *582:29 *3719:A 2.75145e-05
37 *582:31 *3719:A 0.000131077
38 *582:33 *3719:A 5.83121e-06
39 *583:16 *970:23 7.4509e-05
40 *587:8 *970:23 0.00019282
41 *588:16 *3710:B 0.000502809
42 *588:16 *3723:A 4.00541e-06
43 *588:16 *970:36 6.99541e-05
44 *588:16 *970:47 4.80285e-05
45 *632:12 *970:23 0
46 *875:58 *3720:A 0
*RES
1 *3906:Q *970:4 1.6 
2 *970:4 *3719:A 6.205 
3 *970:4 *970:23 9.175 
4 *970:23 *3710:B 9.295 
5 *970:23 *970:36 1.3575 
6 *970:36 *3723:A 1.9675 
7 *970:36 *970:47 1.14 
8 *970:47 *3720:A 8 
9 *970:47 *3725:B1 3.085 
10 *970:4 *3722:A1 11.735 
*END

*D_NET *971 0.00598872
*CONN
*I *3712:B I *D sky130_fd_sc_hd__xnor2_2
*I *3722:B1 I *D sky130_fd_sc_hd__a21o_2
*I *3725:C1 I *D sky130_fd_sc_hd__o2111a_2
*I *3723:B I *D sky130_fd_sc_hd__and3_2
*I *3907:Q O *D sky130_fd_sc_hd__dfrtp_2
*CAP
1 *3712:B 0.00075177
2 *3722:B1 2.06094e-05
3 *3725:C1 0.000129786
4 *3723:B 0.000123248
5 *3907:Q 0.000321229
6 *971:44 0.000855868
7 *971:22 0.000620465
8 *971:8 0.00077215
9 *3712:B *3726:A 1.0183e-05
10 *3722:B1 *3726:A 8.65961e-05
11 *3723:B *3708:B 2.49909e-05
12 *3725:C1 *3708:B 4.41506e-05
13 *3725:C1 *972:12 7.08015e-05
14 *971:22 *3708:B 5.23362e-05
15 *971:22 *3726:A 9.5433e-05
16 *971:44 *3726:A 1.73877e-05
17 *3678:A0 *3712:B 3.09164e-05
18 *3678:A1 *3712:B 0.000431139
19 *3715:A1 *3712:B 0.0001032
20 *3715:B1 *3712:B 0
21 *3718:B *3725:C1 0
22 *3719:A *971:22 2.49909e-05
23 *3719:B *971:22 0.000117273
24 *3720:A *971:22 7.30547e-05
25 *3720:B *971:22 1.75056e-05
26 *3721:A *3722:B1 3.73232e-05
27 *3721:C *3712:B 0
28 *3721:C *3725:C1 9.54469e-05
29 *3721:C *971:22 0.000104009
30 *3722:A1 *3722:B1 5.83121e-06
31 *3722:A1 *971:22 0.000123139
32 *3722:A1 *971:44 4.75576e-05
33 *3726:B *971:22 8.18011e-05
34 *3726:B *971:44 0
35 *3891:D *3712:B 5.05437e-05
36 *3905:CLK *3712:B 0
37 *3905:D *3712:B 3.76596e-05
38 *3906:RESET_B *971:8 3.64998e-06
39 *3907:RESET_B *971:8 3.40734e-05
40 *4172:A *3712:B 0
41 *579:10 *3712:B 0.000175855
42 *582:23 *3712:B 0
43 *583:12 *971:22 1.93834e-05
44 *583:16 *971:22 9.22701e-05
45 *587:8 *971:22 3.68596e-05
46 *641:10 *3712:B 0
47 *871:10 *3712:B 0
48 *916:32 *971:8 0.000152744
49 *970:23 *971:22 5.23362e-05
50 *970:36 *3723:B 3.48063e-05
51 *970:47 *3723:B 8.34281e-06
*RES
1 *3907:Q *971:8 7.5 
2 *971:8 *971:22 15.195 
3 *971:22 *3723:B 3.085 
4 *971:22 *3725:C1 7.865 
5 *971:8 *971:44 1.635 
6 *971:44 *3722:B1 4.395 
7 *971:44 *3712:B 18.495 
*END

*D_NET *972 0.00460289
*CONN
*I *3726:A I *D sky130_fd_sc_hd__or2_2
*I *3725:D1 I *D sky130_fd_sc_hd__o2111a_2
*I *3708:B I *D sky130_fd_sc_hd__xnor2_2
*I *3908:Q O *D sky130_fd_sc_hd__dfrtp_2
*CAP
1 *3726:A 0.000419196
2 *3725:D1 0
3 *3708:B 0.00077986
4 *3908:Q 0.000527113
5 *972:12 0.000887777
6 *972:12 *3725:A1 0
7 *3712:B *3726:A 1.0183e-05
8 *3719:B *3726:A 1.97849e-05
9 *3720:A *3708:B 5.92191e-05
10 *3720:B *3708:B 0.000162325
11 *3721:A *3726:A 7.25441e-05
12 *3721:C *3726:A 0.000534144
13 *3721:C *972:12 4.84393e-05
14 *3722:A1 *3726:A 0.000345489
15 *3722:B1 *3726:A 8.65961e-05
16 *3723:B *3708:B 2.49909e-05
17 *3724:C *3726:A 8.73389e-06
18 *3725:B1 *3708:B 3.57349e-05
19 *3725:B1 *972:12 8.23457e-05
20 *3725:C1 *3708:B 4.41506e-05
21 *3725:C1 *972:12 7.08015e-05
22 *583:6 *3726:A 4.82919e-05
23 *583:12 *3726:A 8.40213e-05
24 *774:10 *3708:B 3.64998e-06
25 *970:47 *3708:B 8.23457e-05
26 *971:22 *3708:B 5.23362e-05
27 *971:22 *3726:A 9.5433e-05
28 *971:44 *3726:A 1.73877e-05
*RES
1 *3908:Q *972:12 8.03 
2 *972:12 *3708:B 18.86 
3 *972:12 *3725:D1 1.6 
4 *3908:Q *3726:A 17.775 
*END

*D_NET *973 0.00574256
*CONN
*I *3728:A I *D sky130_fd_sc_hd__nand2_2
*I *3729:A I *D sky130_fd_sc_hd__or2_2
*I *3707:B I *D sky130_fd_sc_hd__xnor2_2
*I *3732:A I *D sky130_fd_sc_hd__and3_2
*I *3731:A1 I *D sky130_fd_sc_hd__a21o_2
*I *3735:A I *D sky130_fd_sc_hd__and4_2
*I *3909:Q O *D sky130_fd_sc_hd__dfrtp_2
*CAP
1 *3728:A 5.7223e-05
2 *3729:A 0
3 *3707:B 0.000505021
4 *3732:A 0.000253124
5 *3731:A1 0.000106225
6 *3735:A 2.26637e-05
7 *3909:Q 3.73071e-05
8 *973:66 0.000199178
9 *973:25 0.00071413
10 *973:12 0.000455991
11 *973:10 0.000976222
12 *973:6 0.000571916
13 *3707:B *3709:B 0
14 *3707:B *975:21 0
15 *3732:A *3732:B 5.95442e-05
16 *3641:A1 *3707:B 0
17 *3712:A *3707:B 0
18 *3713:A *3707:B 7.23602e-05
19 *3713:D *3707:B 3.64998e-06
20 *3715:A2 *3728:A 8.49205e-05
21 *3717:A2 *973:66 0.000168384
22 *3728:B *3728:A 9.02259e-05
23 *3730:C *973:66 2.68721e-05
24 *3732:C *3732:A 0.000171328
25 *3734:B *3732:A 4.36954e-05
26 *3735:D *3735:A 0.00012438
27 *3735:D *973:25 0
28 *3735:D *973:66 0.000114761
29 *3907:CLK *3732:A 1.08758e-05
30 *3909:RESET_B *973:66 0
31 *4397:A *3735:A 5.28586e-05
32 *588:29 *3731:A1 0
33 *588:49 *3731:A1 0
34 *588:49 *973:25 0
35 *588:49 *973:66 5.53249e-06
36 *588:58 *973:25 0
37 *588:58 *973:66 3.05295e-05
38 *593:6 *3732:A 2.68464e-05
39 *619:6 *3732:A 4.82863e-05
40 *619:14 *3731:A1 0.000139238
41 *619:34 *3731:A1 2.92496e-05
42 *619:34 *973:25 0.000172838
43 *619:51 *973:25 0.000163019
44 *619:87 *3732:A 4.66108e-05
45 *646:61 *3707:B 0
46 *916:32 *3732:A 0.000157551
*RES
1 *3909:Q *973:6 2.05 
2 *973:6 *973:10 6.245 
3 *973:10 *973:12 1.125 
4 *973:12 *3735:A 4.74 
5 *973:12 *973:25 6.675 
6 *973:25 *3731:A1 5.49 
7 *973:25 *3732:A 9.615 
8 *973:10 *3707:B 11.07 
9 *973:6 *973:66 7.675 
10 *973:66 *3729:A 1.6 
11 *973:66 *3728:A 3.085 
*END

*D_NET *974 0.0037305
*CONN
*I *3735:B I *D sky130_fd_sc_hd__and4_2
*I *3732:B I *D sky130_fd_sc_hd__and3_2
*I *3731:B1 I *D sky130_fd_sc_hd__a21o_2
*I *3705:B I *D sky130_fd_sc_hd__xnor2_2
*I *3910:Q O *D sky130_fd_sc_hd__dfrtp_2
*CAP
1 *3735:B 0.000282275
2 *3732:B 0.000187369
3 *3731:B1 8.50384e-05
4 *3705:B 0.000137853
5 *3910:Q 0.000151584
6 *974:12 0.000392471
7 *974:10 0.000456363
8 *974:8 0.000533273
9 *3735:B *975:10 0.000150959
10 *3735:B *975:21 4.43871e-06
11 *3714:B *3705:B 2.93678e-05
12 *3732:A *3732:B 5.95442e-05
13 *3733:C *3731:B1 5.45795e-05
14 *3734:B *3732:B 8.41307e-05
15 *3734:B *3735:B 9.05649e-05
16 *3734:B *974:10 9.68709e-05
17 *3734:B *974:12 1.52184e-05
18 *3910:D *3731:B1 0.000124473
19 *3911:D *3735:B 0.000197204
20 *3912:RESET_B *974:8 0.000117359
21 *4091:A *3705:B 0.000105068
22 *4091:A *974:12 8.60912e-05
23 *582:33 *3731:B1 0.00015473
24 *582:44 *3731:B1 1.08758e-05
25 *593:6 *3732:B 0.000122797
*RES
1 *3910:Q *974:8 5.43 
2 *974:8 *974:10 2.145 
3 *974:10 *974:12 2.91 
4 *974:12 *3705:B 6.195 
5 *974:12 *3731:B1 6.48 
6 *974:10 *3732:B 6.12 
7 *974:8 *3735:B 8.88 
*END

*D_NET *975 0.00204226
*CONN
*I *3709:B I *D sky130_fd_sc_hd__xnor2_2
*I *3734:A I *D sky130_fd_sc_hd__or2_2
*I *3735:C I *D sky130_fd_sc_hd__and4_2
*I *3911:Q O *D sky130_fd_sc_hd__dfrtp_2
*CAP
1 *3709:B 9.90646e-05
2 *3734:A 0
3 *3735:C 3.68265e-05
4 *3911:Q 0.000297652
5 *975:21 0.000150984
6 *975:10 0.000386398
7 *3641:A1 *3709:B 0.000139252
8 *3707:B *3709:B 0
9 *3707:B *975:21 0
10 *3734:B *975:10 0.000159269
11 *3734:B *975:21 0.000106655
12 *3735:B *975:10 0.000150959
13 *3735:B *975:21 4.43871e-06
14 *3735:D *3735:C 4.77757e-05
15 *3736:C *3735:C 4.66108e-05
16 *3736:C *975:21 9.54399e-05
17 *4397:A *3735:C 0.000121023
18 *619:51 *975:10 0.000199909
*RES
1 *3911:Q *975:10 8.7 
2 *975:10 *3735:C 4.74 
3 *975:10 *975:21 1.635 
4 *975:21 *3734:A 3.6 
5 *975:21 *3709:B 5.745 
*END

*D_NET *976 0.00357962
*CONN
*I *3741:A I *D sky130_fd_sc_hd__nand3_2
*I *3740:A1 I *D sky130_fd_sc_hd__a21o_2
*I *3737:A I *D sky130_fd_sc_hd__or2_2
*I *3706:B I *D sky130_fd_sc_hd__xnor2_2
*I *3738:A I *D sky130_fd_sc_hd__nand2_2
*I *3912:Q O *D sky130_fd_sc_hd__dfrtp_2
*CAP
1 *3741:A 0.000157975
2 *3740:A1 0.000325121
3 *3737:A 2.48066e-05
4 *3706:B 0.00023087
5 *3738:A 2.08101e-05
6 *3912:Q 0.000268495
7 *976:23 0.000326941
8 *976:21 0.000554504
9 *976:8 0.000289447
10 *3741:A *3711:B 4.18603e-06
11 *3741:A *977:25 2.75538e-05
12 *3705:A *3706:B 0.000160658
13 *3710:A *3706:B 8.40213e-05
14 *3714:B *3706:B 3.79351e-05
15 *3736:B *3740:A1 0.000112349
16 *3736:B *3741:A 0
17 *3736:B *976:21 1.07797e-05
18 *3737:B *3740:A1 2.05056e-05
19 *3737:B *976:21 2.68016e-05
20 *3737:B *976:23 4.88074e-05
21 *3739:C *3706:B 0
22 *3739:C *976:23 0
23 *3740:A2 *3740:A1 0.000130445
24 *3742:B *3740:A1 1.17309e-05
25 *3742:C *3741:A 0.000251595
26 *3912:RESET_B *976:8 5.90938e-05
27 *3912:RESET_B *976:21 1.91597e-05
28 *4311:A *3706:B 6.95248e-05
29 *582:44 *3737:A 2.68526e-05
30 *582:59 *3740:A1 4.82919e-05
31 *595:24 *3741:A 0
32 *595:24 *976:21 4.66108e-05
33 *595:30 *976:21 0.000183745
34 *595:63 *3741:A 0
*RES
1 *3912:Q *976:8 3.445 
2 *976:8 *3738:A 1.96 
3 *976:8 *976:21 5.45 
4 *976:21 *976:23 1.38 
5 *976:23 *3706:B 8.58 
6 *976:23 *3737:A 4.05 
7 *976:21 *3740:A1 7.845 
8 *3912:Q *3741:A 10.875 
*END

*D_NET *977 0.00284772
*CONN
*I *3711:B I *D sky130_fd_sc_hd__xnor2_2
*I *3741:B I *D sky130_fd_sc_hd__nand3_2
*I *3740:B1 I *D sky130_fd_sc_hd__a21o_2
*I *3913:Q O *D sky130_fd_sc_hd__dfrtp_2
*CAP
1 *3711:B 0.000195536
2 *3741:B 0
3 *3740:B1 0.000201048
4 *3913:Q 0.000320381
5 *977:25 0.000381988
6 *977:6 0.000707882
7 *3645:A0 *3711:B 0
8 *3741:A *3711:B 4.18603e-06
9 *3741:A *977:25 2.75538e-05
10 *3742:B *3740:B1 2.75145e-05
11 *3742:C *3740:B1 0
12 *3742:C *977:25 3.86607e-05
13 *3913:D *3740:B1 0
14 *3913:RESET_B *3740:B1 0.000120186
15 *4396:A *3711:B 0.000208491
16 *619:59 *977:6 0.000270598
17 *619:59 *977:25 9.07793e-05
18 *909:63 *3711:B 0
19 *909:63 *3740:B1 0.000125501
20 *909:63 *977:25 0
21 *916:77 *3740:B1 0.000127416
*RES
1 *3913:Q *977:6 5.845 
2 *977:6 *3740:B1 11 
3 *977:6 *977:25 5.12 
4 *977:25 *3741:B 3.6 
5 *977:25 *3711:B 7.53 
*END

*D_NET *978 0.00374363
*CONN
*I *3686:A2 I *D sky130_fd_sc_hd__a21o_2
*I *4275:A I *D sky130_fd_sc_hd__dlygate4sd3_1
*I *3342:A I *D sky130_fd_sc_hd__inv_2
*I *3896:Q O *D sky130_fd_sc_hd__dfrtp_2
*CAP
1 *3686:A2 0
2 *4275:A 0
3 *3342:A 0.000119011
4 *3896:Q 0.000123632
5 *978:18 0.000885336
6 *978:10 0.000889956
7 *3342:A *3451:B2 8.65961e-05
8 *978:10 *3679:B1 0.000259373
9 *978:18 *3451:A2 1.61831e-05
10 *978:18 *3451:B2 8.65348e-05
11 *978:18 *3679:B1 0.000159964
12 *3451:A1 *978:18 1.53583e-05
13 *3451:B1 *3342:A 1.7396e-05
14 *3468:B2 *978:18 1.19928e-05
15 *3953:D *3342:A 0.000120186
16 *4019:CLK *3342:A 0
17 *4116:A *978:18 1.56428e-05
18 *4256:A *978:18 0.000277223
19 *4302:A *978:18 0.000230435
20 *616:29 *3342:A 0
21 *617:124 *978:10 0.000268851
22 *617:124 *978:18 0.000159964
*RES
1 *3896:Q *978:10 7.215 
2 *978:10 *978:18 13.58 
3 *978:18 *3342:A 8.54 
4 *978:18 *4275:A 1.6 
5 *978:10 *3686:A2 3.6 
*END

*D_NET *979 0.000620424
*CONN
*I *4201:A I *D sky130_fd_sc_hd__dlygate4sd3_1
*I *3927:Q O *D sky130_fd_sc_hd__dfrtp_2
*CAP
1 *4201:A 0.000253936
2 *3927:Q 0.000253936
3 *3468:B2 *4201:A 4.85494e-05
4 *4264:A *4201:A 5.05521e-05
5 *603:13 *4201:A 0
6 *766:6 *4201:A 1.34503e-05
*RES
1 *3927:Q *4201:A 10.755 
*END

*D_NET *980 0.00297135
*CONN
*I *4263:A I *D sky130_fd_sc_hd__dlygate4sd3_1
*I *3332:A I *D sky130_fd_sc_hd__inv_2
*I *3680:B2 I *D sky130_fd_sc_hd__a2bb2o_2
*I *4020:Q O *D sky130_fd_sc_hd__dfrtp_2
*CAP
1 *4263:A 0.000235014
2 *3332:A 7.71374e-05
3 *3680:B2 0.000276758
4 *4020:Q 0.000310113
5 *980:25 0.000312151
6 *980:12 0.000586871
7 *3332:A *1006:14 4.66108e-05
8 *3680:B2 *3456:A1 0
9 *3680:B2 *3680:A2_N 0.000122337
10 *3680:B2 *3680:B1 0.00014714
11 *3680:B2 *1006:14 9.37731e-05
12 *4263:A *1006:14 0.000120655
13 *980:12 *3680:B1 1.52184e-05
14 *980:12 *1006:14 1.07797e-05
15 *3455:A2 *3332:A 5.91165e-05
16 *3467:A2 *3332:A 2.46494e-05
17 *3467:A2 *3680:B2 0.000134538
18 *3467:B1 *3680:B2 0
19 *3467:B2 *3680:B2 0
20 *3781:B1 *980:12 0
21 *3828:B1 *4263:A 4.47209e-05
22 *3945:D *3680:B2 7.3664e-05
23 *4020:RESET_B *980:12 4.20162e-05
24 *651:34 *3332:A 0.000103771
25 *651:34 *4263:A 0.000134314
*RES
1 *4020:Q *980:12 7.77 
2 *980:12 *3680:B2 10.71 
3 *980:12 *980:25 2 
4 *980:25 *3332:A 3.55 
5 *980:25 *4263:A 5.86 
*END

*D_NET *981 0.0128911
*CONN
*I *3330:A I *D sky130_fd_sc_hd__inv_2
*I *3685:B2 I *D sky130_fd_sc_hd__a22o_2
*I *3404:B I *D sky130_fd_sc_hd__and2_2
*I *3448:A I *D sky130_fd_sc_hd__and4_2
*I *3687:A2 I *D sky130_fd_sc_hd__a221o_2
*I *3639:A0 I *D sky130_fd_sc_hd__mux2_1
*I *3867:Q O *D sky130_fd_sc_hd__dfrtp_2
*CAP
1 *3330:A 4.27793e-05
2 *3685:B2 0.00055613
3 *3404:B 3.09591e-05
4 *3448:A 0.000210264
5 *3687:A2 0.000253377
6 *3639:A0 0
7 *3867:Q 0
8 *981:76 0.000659028
9 *981:65 0.000521098
10 *981:27 0.00142224
11 *981:10 0.00132826
12 *981:4 0.000799686
13 *3685:B2 *4325:A 0.00012398
14 *3687:A2 *3464:A 0.000108214
15 *3687:A2 *3689:A1 8.33066e-06
16 *3687:A2 *3690:A1 1.2818e-05
17 *3687:A2 *1002:51 0.000143425
18 *981:27 *3445:A 0.000267557
19 *981:65 *4068:A 0.000107853
20 *981:65 *989:20 6.15569e-05
21 *981:76 *989:20 1.18673e-05
22 *3404:A *3330:A 0.000127554
23 *3404:A *3404:B 1.14192e-05
24 *3404:A *981:76 0.000160266
25 *3447:B *3687:A2 6.2139e-05
26 *3458:C *3448:A 8.40213e-05
27 *3464:B *3687:A2 9.56017e-06
28 *3639:S *981:27 0.000379656
29 *3684:B2 *3685:B2 7.97852e-05
30 *3685:A1 *3685:B2 1.74e-05
31 *3685:A2 *3685:B2 3.09164e-05
32 *3685:B1 *3685:B2 3.09164e-05
33 *3687:B1 *3687:A2 7.92982e-06
34 *3688:B1 *3687:A2 4.93336e-05
35 *3867:D *981:10 0
36 *3867:RESET_B *981:10 9.71067e-05
37 *3867:RESET_B *981:27 0.000402041
38 *3894:D *3685:B2 4.24292e-06
39 *3946:RESET_B *3685:B2 0.000504495
40 *3952:D *3448:A 0
41 *3960:D *981:65 2.84224e-05
42 *3962:CLK *981:10 0
43 *3962:RESET_B *981:10 0
44 *3971:CLK *981:65 0.000158308
45 *3977:D *3448:A 0.000171486
46 *3977:D *981:27 0.000111293
47 *3978:D *3330:A 0.000156791
48 *3978:D *981:65 0.000526162
49 *3978:D *981:76 0.000201739
50 *4087:A *3685:B2 0.000165222
51 *4297:A *3685:B2 0.000119873
52 *4386:A *981:65 8.57752e-05
53 *109:28 *3448:A 4.18638e-05
54 *428:12 *3687:A2 4.22944e-05
55 *431:10 *3448:A 0.000257641
56 *434:12 *3687:A2 0.000121043
57 *435:8 *3687:A2 0.0004652
58 *615:8 *3685:B2 4.77769e-05
59 *615:20 *981:65 0.000158748
60 *615:22 *981:65 0.000206123
61 *615:33 *981:65 0.000162325
62 *618:109 *981:10 0
63 *618:109 *981:27 0
64 *618:134 *3448:A 0
65 *633:10 *981:27 0.000303704
66 *634:42 *3448:A 2.76154e-05
67 *634:42 *3687:A2 8.41384e-05
68 *634:42 *981:27 1.46781e-05
69 *638:26 *981:27 1.82571e-05
70 *638:37 *981:27 2.55342e-05
71 *649:46 *981:65 0
72 *802:12 *3685:B2 0.000338289
73 *909:8 *981:27 9.27736e-05
74 *949:38 *3330:A 2.98644e-05
*RES
1 *3867:Q *981:4 1.6 
2 *981:4 *981:10 7.88 
3 *981:10 *3639:A0 3.6 
4 *981:10 *981:27 21.925 
5 *981:27 *3687:A2 15.3588 
6 *981:27 *3448:A 8.325 
7 *981:4 *981:65 14.825 
8 *981:65 *3404:B 4.05 
9 *981:65 *981:76 2.4 
10 *981:76 *3685:B2 21.295 
11 *981:76 *3330:A 5.49 
*END

*D_NET *982 0.00555669
*CONN
*I *4307:A I *D sky130_fd_sc_hd__dlygate4sd3_1
*I *3477:B I *D sky130_fd_sc_hd__or2_2
*I *3478:B I *D sky130_fd_sc_hd__nand2_2
*I *3691:A0 I *D sky130_fd_sc_hd__mux2_1
*I *3856:Q O *D sky130_fd_sc_hd__dfrtp_2
*CAP
1 *4307:A 0
2 *3477:B 0.000254579
3 *3478:B 0.000295884
4 *3691:A0 0.000236899
5 *3856:Q 0.00019951
6 *982:48 0.000464845
7 *982:21 0.000618479
8 *982:10 0.000548739
9 *3477:B *3472:B 7.07488e-05
10 *3478:B *3472:B 0.000155601
11 *982:10 *983:14 0.000157309
12 *982:21 *983:14 0.00030472
13 *3472:A *3477:B 2.73857e-05
14 *3473:A *3478:B 8.41307e-05
15 *3473:A *982:21 2.0794e-05
16 *3473:A *982:48 1.0397e-05
17 *3477:A *3477:B 4.77769e-05
18 *3478:A *3478:B 0.000119247
19 *3484:A1 *3477:B 0.000134822
20 *3484:A1 *982:10 0.000108867
21 *3484:B1 *982:48 5.17226e-05
22 *3484:B2 *3478:B 0.000205403
23 *3484:B2 *982:10 0.000158976
24 *3484:B2 *982:21 0.000274841
25 *3630:A0 *3478:B 0.000232978
26 *3630:A1 *3478:B 0.000100822
27 *3691:S *3691:A0 8.49205e-05
28 *3702:A2 *982:48 0
29 *3902:RESET_B *3477:B 6.92161e-05
30 *3902:RESET_B *982:48 6.03315e-05
31 *4368:A *982:48 1.79483e-05
32 *908:59 *3691:A0 4.41506e-05
33 *909:33 *3478:B 0.00039465
*RES
1 *3856:Q *982:10 7.32 
2 *982:10 *3691:A0 6.81 
3 *982:10 *982:21 3.93 
4 *982:21 *3478:B 12.57 
5 *982:21 *982:48 5.585 
6 *982:48 *3477:B 11.12 
7 *982:48 *4307:A 1.6 
*END

*D_NET *983 0.00643332
*CONN
*I *3693:A0 I *D sky130_fd_sc_hd__mux2_1
*I *3473:B I *D sky130_fd_sc_hd__or2_2
*I *4308:A I *D sky130_fd_sc_hd__dlygate4sd3_1
*I *3472:B I *D sky130_fd_sc_hd__nand2_2
*I *3857:Q O *D sky130_fd_sc_hd__dfrtp_2
*CAP
1 *3693:A0 0.000583286
2 *3473:B 0.000506769
3 *4308:A 0
4 *3472:B 0.00031786
5 *3857:Q 0
6 *983:31 0.000602987
7 *983:14 0.000833414
8 *983:4 0.00100262
9 *3472:B *4318:A 5.31158e-06
10 *3693:A0 *986:27 1.61831e-05
11 *3473:A *3472:B 1.91597e-05
12 *3473:A *3473:B 0.000675042
13 *3473:A *983:31 0.000113007
14 *3477:B *3472:B 7.07488e-05
15 *3478:B *3472:B 0.000155601
16 *3484:A1 *3472:B 3.64998e-06
17 *3484:A2 *3473:B 0.000158536
18 *3484:A2 *983:14 0
19 *3484:B1 *3472:B 0.000363355
20 *3484:B2 *3472:B 0.000119247
21 *3484:B2 *983:14 3.50033e-05
22 *3627:S *983:14 0
23 *3628:A0 *3472:B 1.91597e-05
24 *3693:A1 *3693:A0 8.40269e-05
25 *3694:B2 *3473:B 2.68037e-05
26 *3698:B2 *3473:B 2.29223e-05
27 *3699:A1 *3472:B 4.65865e-05
28 *3699:A1 *3473:B 5.00903e-05
29 *3702:A2 *3473:B 1.33285e-05
30 *3702:A2 *983:31 5.83121e-06
31 *3902:RESET_B *3472:B 4.25801e-05
32 *3903:D *3473:B 4.1652e-06
33 *427:67 *3693:A0 1.19928e-05
34 *908:59 *983:14 3.9848e-05
35 *909:33 *3473:B 2.21697e-05
36 *982:10 *983:14 0.000157309
37 *982:21 *983:14 0.00030472
*RES
1 *3857:Q *983:4 1.6 
2 *983:4 *983:14 12.055 
3 *983:14 *3472:B 13.355 
4 *983:14 *983:31 1.83 
5 *983:31 *4308:A 1.6 
6 *983:31 *3473:B 18.195 
7 *983:4 *3693:A0 7.915 
*END

*D_NET *984 0.00130733
*CONN
*I *4317:A I *D sky130_fd_sc_hd__dlygate4sd3_1
*I *3695:A0 I *D sky130_fd_sc_hd__mux2_1
*I *3476:B I *D sky130_fd_sc_hd__xor2_2
*I *3858:Q O *D sky130_fd_sc_hd__dfrtp_2
*CAP
1 *4317:A 0.000204774
2 *3695:A0 0.000220006
3 *3476:B 0.000260965
4 *3858:Q 0
5 *984:6 0.000276197
6 *3476:A *4317:A 4.11729e-05
7 *3485:B *3695:A0 4.77719e-05
8 *3695:A1 *3695:A0 5.57821e-05
9 *3701:A1 *3476:B 0
10 *3701:A1 *3695:A0 0
11 *3858:RESET_B *3476:B 0.000120186
12 *3858:RESET_B *3695:A0 2.14129e-05
13 *4357:A *3695:A0 1.07797e-05
14 *4381:A *3695:A0 0
15 *427:55 *4317:A 4.82863e-05
*RES
1 *3858:Q *984:6 3.6 
2 *984:6 *3476:B 3.38 
3 *984:6 *3695:A0 7.215 
4 *3476:B *4317:A 4.7575 
*END

*D_NET *985 0.00317004
*CONN
*I *3697:A0 I *D sky130_fd_sc_hd__mux2_1
*I *4318:A I *D sky130_fd_sc_hd__dlygate4sd3_1
*I *3479:B I *D sky130_fd_sc_hd__xor2_2
*I *3859:Q O *D sky130_fd_sc_hd__dfrtp_2
*CAP
1 *3697:A0 0.00050377
2 *4318:A 7.51785e-05
3 *3479:B 0.000113248
4 *3859:Q 6.88584e-05
5 *985:8 0.000188426
6 *985:6 0.000572629
7 *3472:B *4318:A 5.31158e-06
8 *3484:B1 *3479:B 1.73877e-05
9 *3484:B1 *4318:A 1.18673e-05
10 *3484:C1 *3479:B 0.000121437
11 *3628:A0 *4318:A 8.18774e-05
12 *3697:A1 *3479:B 0.000219345
13 *3697:A1 *3697:A0 0.000671084
14 *3697:A1 *4318:A 3.09233e-05
15 *3859:RESET_B *985:6 4.66108e-05
16 *3902:RESET_B *4318:A 0.000200062
17 *620:21 *3697:A0 1.19928e-05
18 *620:21 *985:6 1.19928e-05
19 *908:73 *3479:B 8.2825e-05
20 *913:44 *3479:B 0.000114492
21 *913:44 *4318:A 2.07184e-05
*RES
1 *3859:Q *985:6 2.395 
2 *985:6 *985:8 2 
3 *985:8 *3479:B 5.8475 
4 *985:8 *4318:A 6.255 
5 *985:6 *3697:A0 8.26 
*END

*D_NET *986 0.00323375
*CONN
*I *3482:B I *D sky130_fd_sc_hd__xor2_2
*I *3699:A0 I *D sky130_fd_sc_hd__mux2_1
*I *4321:A I *D sky130_fd_sc_hd__dlygate4sd3_1
*I *3860:Q O *D sky130_fd_sc_hd__dfrtp_2
*CAP
1 *3482:B 0.00019899
2 *3699:A0 0
3 *4321:A 9.15932e-05
4 *3860:Q 0.000278908
5 *986:27 0.000365395
6 *986:10 0.000536906
7 *3631:A0 *3482:B 9.68787e-05
8 *3692:B2 *3482:B 0.000155497
9 *3693:A0 *986:27 1.61831e-05
10 *3693:A1 *4321:A 0.000129451
11 *3693:A1 *986:10 4.34042e-05
12 *3693:A1 *986:27 2.75229e-05
13 *3699:A1 *986:27 5.30673e-05
14 *3700:B2 *3482:B 0.000317468
15 *3700:B2 *986:27 7.00889e-06
16 *4367:A *4321:A 0.000142166
17 *4381:A *3482:B 5.43631e-05
18 *427:55 *3482:B 3.83041e-05
19 *427:55 *986:27 8.8266e-05
20 *427:61 *986:27 0.000276527
21 *427:67 *986:10 4.39001e-05
22 *620:58 *3482:B 0.000154967
23 *913:27 *986:10 0.000116985
*RES
1 *3860:Q *986:10 7.41 
2 *986:10 *4321:A 5.49 
3 *986:10 *986:27 6.71 
4 *986:27 *3699:A0 1.6 
5 *986:27 *3482:B 10.1725 
*END

*D_NET *987 0.00276431
*CONN
*I *4295:A I *D sky130_fd_sc_hd__dlygate4sd3_1
*I *3481:B I *D sky130_fd_sc_hd__nand2_2
*I *3480:B I *D sky130_fd_sc_hd__or2_2
*I *3701:A0 I *D sky130_fd_sc_hd__mux2_1
*I *3861:Q O *D sky130_fd_sc_hd__dfrtp_2
*CAP
1 *4295:A 9.11559e-05
2 *3481:B 0.000115404
3 *3480:B 0
4 *3701:A0 0
5 *3861:Q 0.000369876
6 *987:32 0.000242211
7 *987:23 0.000205653
8 *987:10 0.000539877
9 *3481:A *3481:B 0.00019671
10 *3483:B1 *4295:A 0.000274659
11 *3703:A1 *987:10 4.19967e-05
12 *3704:B2 *3481:B 0
13 *3704:B2 *987:10 2.59981e-05
14 *3704:B2 *987:23 7.4538e-05
15 *3861:RESET_B *987:10 3.67315e-05
16 *4113:A *4295:A 0.000385333
17 *4113:A *987:23 4.60584e-05
18 *4113:A *987:32 5.37018e-05
19 *4170:A *987:10 3.47668e-05
20 *845:10 *987:10 0
21 *845:10 *987:23 0
22 *909:33 *987:23 2.96426e-05
*RES
1 *3861:Q *987:10 8.445 
2 *987:10 *3701:A0 3.6 
3 *987:10 *987:23 5.12 
4 *987:23 *3480:B 1.6 
5 *987:23 *987:32 0.81 
6 *987:32 *3481:B 8 
7 *987:32 *4295:A 5.155 
*END

*D_NET *988 0.00354619
*CONN
*I *4296:A I *D sky130_fd_sc_hd__dlygate4sd3_1
*I *3474:B I *D sky130_fd_sc_hd__or2_2
*I *3703:A0 I *D sky130_fd_sc_hd__mux2_1
*I *3475:B I *D sky130_fd_sc_hd__nand2_2
*I *3862:Q O *D sky130_fd_sc_hd__dfrtp_2
*CAP
1 *4296:A 0.000221011
2 *3474:B 3.93223e-05
3 *3703:A0 0.000338102
4 *3475:B 0.000134435
5 *3862:Q 0.000194432
6 *988:29 0.000412154
7 *988:12 0.000369126
8 *988:6 0.000615404
9 *3483:A1 *3474:B 3.18137e-05
10 *3483:A1 *988:29 1.22676e-05
11 *3483:A2 *3475:B 8.49205e-05
12 *3483:A2 *3703:A0 3.75272e-05
13 *3483:B1 *3703:A0 2.49909e-05
14 *3483:B2 *3703:A0 2.75229e-05
15 *3633:A0 *4296:A 0.00012657
16 *3687:B1 *4296:A 0
17 *3687:B1 *988:12 0
18 *3687:B1 *988:29 0
19 *3862:CLK *988:6 3.03775e-05
20 *3862:CLK *988:12 3.1835e-05
21 *3862:RESET_B *988:6 0.000120741
22 *3977:CLK *3475:B 2.38002e-05
23 *427:20 *3474:B 5.20968e-05
24 *427:20 *3475:B 8.49205e-05
25 *427:20 *3703:A0 6.04218e-05
26 *427:20 *988:12 1.52184e-05
27 *427:20 *988:29 3.9442e-05
28 *427:29 *3703:A0 6.97118e-05
29 *846:12 *4296:A 1.70935e-05
30 *846:23 *4296:A 0.000118978
31 *846:23 *988:12 7.37764e-05
32 *908:16 *4296:A 0.000138175
*RES
1 *3862:Q *988:6 4.12 
2 *988:6 *988:12 5.45 
3 *988:12 *3475:B 6.51 
4 *988:12 *988:29 0.87 
5 *988:29 *3703:A0 7.845 
6 *988:29 *3474:B 4.725 
7 *988:6 *4296:A 10.295 
*END

*D_NET *989 0.00412055
*CONN
*I *4279:A I *D sky130_fd_sc_hd__dlygate4sd3_1
*I *3460:A_N I *D sky130_fd_sc_hd__and3b_2
*I *3965:Q O *D sky130_fd_sc_hd__dfrtp_2
*CAP
1 *4279:A 0
2 *3460:A_N 0.000497918
3 *3965:Q 0.000743207
4 *989:20 0.00124112
5 *3460:A_N *3519:A 0.000140063
6 *3460:A_N *3743:B 1.71013e-05
7 *3460:A_N *1001:21 9.9535e-05
8 *3460:A_N *1001:32 7.26629e-05
9 *3460:A_N *1001:43 8.60912e-05
10 *3460:A_N *1001:54 7.07801e-05
11 *3404:A *989:20 0.000162859
12 *3443:C *989:20 2.30292e-05
13 *3454:A1 *3460:A_N 0
14 *3892:D *3460:A_N 0
15 *3965:RESET_B *989:20 5.05437e-05
16 *3978:D *3460:A_N 0
17 *4123:A *989:20 1.00941e-05
18 *4398:A *989:20 5.30673e-05
19 *426:10 *989:20 0.000272984
20 *615:20 *989:20 8.51441e-05
21 *615:22 *989:20 0.000107666
22 *615:33 *989:20 4.43871e-06
23 *615:97 *989:20 0.000138264
24 *646:12 *989:20 0
25 *691:10 *3460:A_N 0
26 *949:25 *3460:A_N 0
27 *949:38 *989:20 0.000170555
28 *981:65 *989:20 6.15569e-05
29 *981:76 *989:20 1.18673e-05
*RES
1 *3965:Q *989:20 22.265 
2 *989:20 *3460:A_N 15.65 
3 *989:20 *4279:A 1.6 
*END

*D_NET *990 0.00801246
*CONN
*I *4325:A I *D sky130_fd_sc_hd__dlygate4sd3_1
*I *4330:A I *D sky130_fd_sc_hd__dlygate4sd3_1
*I *3341:A I *D sky130_fd_sc_hd__inv_2
*I *3460:B I *D sky130_fd_sc_hd__and3b_2
*I *3971:Q O *D sky130_fd_sc_hd__dfrtp_2
*CAP
1 *4325:A 0.000243932
2 *4330:A 8.0337e-05
3 *3341:A 0.000402705
4 *3460:B 6.91338e-05
5 *3971:Q 0.00061831
6 *990:18 0.000929348
7 *990:12 0.000611813
8 *990:10 0.000936209
9 *990:10 *3653:B 0.000325421
10 *990:10 *1023:10 0.000157418
11 *990:12 *1023:10 0.000123194
12 *990:18 *1001:43 0
13 *990:18 *1003:18 4.37312e-05
14 *3443:B *990:18 0.000151632
15 *3454:A1 *3341:A 4.82919e-05
16 *3454:A1 *990:18 0.000252289
17 *3454:A2 *990:18 0.000625762
18 *3456:A2 *3341:A 0.000157872
19 *3518:B1 *3341:A 5.55722e-05
20 *3685:B2 *4325:A 0.00012398
21 *3945:CLK *3341:A 8.49205e-05
22 *3970:D *990:10 0.000511576
23 *3971:CLK *990:10 7.64552e-05
24 *4087:A *990:12 0.000135258
25 *4087:A *990:18 0.000126193
26 *4088:A *990:18 9.87616e-05
27 *4297:A *990:10 2.54523e-05
28 *4380:A *990:10 3.76964e-05
29 *4398:A *990:10 7.89611e-05
30 *111:10 *3341:A 0.000291365
31 *433:10 *3341:A 1.47347e-05
32 *433:10 *3460:B 3.03684e-05
33 *615:84 *990:18 0
34 *615:121 *4330:A 0.000155608
35 *616:10 *3341:A 0.000115779
36 *616:72 *3341:A 7.00889e-06
37 *649:10 *990:10 2.24423e-05
38 *649:36 *990:10 7.25921e-05
39 *650:10 *990:10 0
40 *650:17 *990:10 0
41 *802:12 *4325:A 4.29365e-05
42 *936:58 *990:18 0.0001274
*RES
1 *3971:Q *990:10 18.81 
2 *990:10 *990:12 2.145 
3 *990:12 *990:18 15.56 
4 *990:18 *3460:B 2.395 
5 *990:18 *3341:A 13.37 
6 *990:12 *4330:A 5.085 
7 *990:10 *4325:A 7.95 
*END

*D_NET *991 0.0015051
*CONN
*I *4255:A I *D sky130_fd_sc_hd__dlygate4sd3_1
*I *3340:A I *D sky130_fd_sc_hd__inv_2
*I *4017:Q O *D sky130_fd_sc_hd__dfrtp_2
*CAP
1 *4255:A 0
2 *3340:A 0.000124858
3 *4017:Q 0.00025202
4 *991:10 0.000376878
5 *3340:A *3451:B2 4.99619e-05
6 *991:10 *4209:A 0.000111149
7 *3451:B1 *3340:A 0
8 *3980:D *3340:A 0.000119285
9 *3980:D *991:10 0.000187648
10 *4017:RESET_B *991:10 0.0002833
11 *4019:RESET_B *991:10 0
*RES
1 *4017:Q *991:10 9.51 
2 *991:10 *3340:A 6.45 
3 *991:10 *4255:A 3.6 
*END

*D_NET *992 0.00621102
*CONN
*I *4168:A I *D sky130_fd_sc_hd__clkdlybuf4s25_1
*I *3976:Q O *D sky130_fd_sc_hd__dfrtp_2
*CAP
1 *4168:A 0.00180396
2 *3976:Q 0.00180396
3 *4168:A *3394:B2 0
4 o_cmd_status_reg[3] *4168:A 3.5644e-05
5 o_cmd_status_reg[6] *4168:A 2.97004e-06
6 *3659:A0 *4168:A 0.000126754
7 *3660:A1 *4168:A 0
8 *3880:RESET_B *4168:A 0.000202969
9 *3881:D *4168:A 0.000266477
10 *3882:D *4168:A 0
11 *4384:A *4168:A 0
12 *4385:A *4168:A 0.000241483
13 *4387:A *4168:A 0.00012256
14 *605:56 *4168:A 0.000725762
15 *648:16 *4168:A 0.0001764
16 *654:72 *4168:A 0.000702078
*RES
1 *3976:Q *4168:A 44.46 
*END

*D_NET *993 0.0138503
*CONN
*I *3744:A1 I *D sky130_fd_sc_hd__a21o_2
*I *3319:A I *D sky130_fd_sc_hd__inv_2
*I *3528:A1 I *D sky130_fd_sc_hd__a21o_2
*I *3436:A1 I *D sky130_fd_sc_hd__a22o_2
*I *4261:A I *D sky130_fd_sc_hd__dlygate4sd3_1
*I *4252:A I *D sky130_fd_sc_hd__dlygate4sd3_1
*I *3914:Q O *D sky130_fd_sc_hd__dfrtp_2
*CAP
1 *3744:A1 0.000417133
2 *3319:A 0
3 *3528:A1 0
4 *3436:A1 0.000312363
5 *4261:A 4.04817e-05
6 *4252:A 0
7 *3914:Q 4.47573e-05
8 *993:58 0.000916737
9 *993:46 0.00180376
10 *993:23 0.00130382
11 *993:14 0.000916665
12 *993:6 0.00131461
13 *3436:A1 *3436:A2 7.28616e-05
14 *3436:A1 *3437:B2 1.19928e-05
15 *3436:A1 *3528:A2 0.000238919
16 *3436:A1 *1051:39 7.67415e-06
17 *3744:A1 *1008:10 4.40643e-05
18 *993:14 *3520:B 9.7872e-05
19 *993:14 *1067:28 0
20 *993:14 *1093:12 9.82856e-06
21 *993:14 *1093:18 3.83732e-05
22 *993:14 *1093:46 1.61461e-05
23 *993:23 *1093:46 1.73877e-05
24 *993:46 *3440:A1 3.90266e-05
25 *993:46 *3625:A 1.94892e-05
26 *993:46 *4262:A 9.50342e-06
27 *993:46 *1093:46 4.70995e-05
28 *993:58 *4262:A 0.000102134
29 *993:58 *1065:10 0.000116158
30 *3361:B *993:14 0
31 *3362:S *993:14 0.000474327
32 *3363:B1 *3436:A1 2.0514e-05
33 *3363:B1 *993:58 8.87364e-05
34 *3433:B2 *993:14 0
35 *3435:B2 *993:58 0.000137578
36 *3436:B2 *3436:A1 8.57024e-05
37 *3438:A1 *993:46 2.50049e-05
38 *3468:B2 *993:14 0
39 *3526:A1 *993:46 0
40 *3528:B1 *993:58 0
41 *3786:A2 *993:58 0.000157886
42 *3792:A2 *993:46 4.75576e-05
43 *3914:D *3744:A1 0.000252275
44 *3914:RESET_B *3744:A1 7.70938e-05
45 *3931:D *993:14 0
46 *3936:CLK *993:14 4.91189e-05
47 *3936:CLK *993:23 1.43521e-05
48 *3936:D *993:14 0.000105068
49 *3936:D *993:23 7.53115e-05
50 *3941:CLK *993:58 0.000158297
51 *3942:D *993:46 0
52 *3942:SET_B *993:46 0.000561252
53 *3944:RESET_B *993:46 0
54 *3985:RESET_B *993:46 2.50049e-05
55 *3986:D *993:58 1.70935e-05
56 *4019:D *993:14 0.000340573
57 *4038:D *993:46 9.54399e-05
58 *4040:CLK *993:46 0.000157959
59 *4302:A *993:14 0
60 *120:12 *993:14 2.24992e-05
61 *354:24 *993:46 6.60257e-06
62 *617:124 *993:14 0.000420762
63 *626:21 *993:58 0.000230863
64 *626:23 *993:58 0.000203762
65 *627:10 *993:23 6.02273e-05
66 *627:10 *993:46 7.67721e-05
67 *627:40 *993:46 5.63974e-05
68 *627:42 *993:46 0.000174604
69 *627:44 *993:46 0.000105508
70 *645:59 *993:46 0
71 *645:78 *993:46 6.85668e-05
72 *645:78 *993:58 8.53113e-06
73 *645:101 *993:58 0.00013773
74 *645:114 *993:58 0
75 *686:10 *993:14 0
76 *880:91 *4261:A 0.000115779
77 *892:23 *993:46 6.63219e-05
78 *892:58 *993:46 4.70621e-05
79 *894:72 *4261:A 0.000198945
80 *958:18 *3744:A1 5.36384e-06
81 *958:18 *993:6 4.11678e-06
82 *958:18 *993:14 0.000914853
*RES
1 *3914:Q *993:6 2.05 
2 *993:6 *993:14 25.61 
3 *993:14 *4252:A 3.6 
4 *993:14 *993:23 2.145 
5 *993:23 *4261:A 5.43 
6 *993:23 *993:46 26.05 
7 *993:46 *993:58 16.25 
8 *993:58 *3436:A1 7.255 
9 *993:58 *3528:A1 1.6 
10 *993:46 *3319:A 3.6 
11 *993:6 *3744:A1 12.065 
*END

*D_NET *994 0.00927455
*CONN
*I *3680:A1_N I *D sky130_fd_sc_hd__a2bb2o_2
*I *4070:A I *D sky130_fd_sc_hd__buf_2
*I *3393:B1_N I *D sky130_fd_sc_hd__o21ba_2
*I *3893:Q O *D sky130_fd_sc_hd__dfrtp_2
*CAP
1 *3680:A1_N 0.000567995
2 *4070:A 0.000141121
3 *3393:B1_N 0.0012991
4 *3893:Q 5.70574e-05
5 *994:18 0.00200976
6 *994:8 0.00119459
7 *3393:B1_N *3393:A1 0.000123225
8 *3393:B1_N *3393:A2 4.86991e-05
9 *3393:B1_N *4067:A 7.10305e-05
10 *3393:B1_N *1022:19 0.00060578
11 *3680:A1_N *4329:A 0.000116853
12 *994:18 *3655:A_N 8.87475e-05
13 *994:18 *3655:B 0.000507378
14 *994:18 *4183:A 0.000330387
15 *3467:B1 *3680:A1_N 5.73851e-05
16 *3652:B1 *4070:A 4.90894e-05
17 *3656:A1 *4070:A 4.66108e-05
18 *3656:A2 *994:18 7.76733e-05
19 *3656:B1 *4070:A 8.41384e-05
20 *3658:A1 *4070:A 4.12775e-05
21 *3681:A *3680:A1_N 4.7043e-05
22 *3681:B *3680:A1_N 2.75229e-05
23 *3879:D *3393:B1_N 6.75156e-05
24 *3879:D *4070:A 9.56017e-06
25 *3879:D *994:18 0.000113966
26 *3880:CLK *3393:B1_N 5.05437e-05
27 *3880:D *3393:B1_N 0.000151543
28 *3880:D *994:18 8.25394e-05
29 *3893:RESET_B *3680:A1_N 5.72073e-05
30 *3945:SET_B *3680:A1_N 3.89528e-05
31 *3951:RESET_B *3680:A1_N 0
32 *3973:CLK *994:18 0.000154481
33 *4065:A *3393:B1_N 4.87317e-05
34 *4126:A *3680:A1_N 0
35 *4167:A *4070:A 0.00015856
36 *605:46 *994:8 5.0751e-05
37 *605:56 *3680:A1_N 0
38 *605:56 *994:18 0
39 *614:10 *3393:B1_N 4.4022e-05
40 *614:63 *994:18 2.39947e-05
41 *614:74 *994:18 0.000517417
42 *652:16 *3680:A1_N 0.000112308
43 *654:72 *3680:A1_N 0
*RES
1 *3893:Q *994:8 4.74 
2 *994:8 *994:18 17.37 
3 *994:18 *3393:B1_N 21.045 
4 *994:18 *4070:A 6.825 
5 *994:8 *3680:A1_N 14.9025 
*END

*D_NET *995 0.00182341
*CONN
*I *4183:A I *D sky130_fd_sc_hd__dlygate4sd3_1
*I *3655:B I *D sky130_fd_sc_hd__and2b_2
*I *3895:Q O *D sky130_fd_sc_hd__dfrtp_2
*CAP
1 *4183:A 0.000139081
2 *3655:B 0.000192035
3 *3895:Q 0
4 *995:6 0.000331116
5 *3961:RESET_B *4183:A 0.000132721
6 *648:35 *3655:B 0.000129687
7 *648:45 *3655:B 4.94404e-05
8 *648:45 *4183:A 1.1561e-05
9 *994:18 *3655:B 0.000507378
10 *994:18 *4183:A 0.000330387
*RES
1 *3895:Q *995:6 3.6 
2 *995:6 *3655:B 9.57 
3 *995:6 *4183:A 8.295 
*END

*D_NET *996 0.00102477
*CONN
*I *3429:B2 I *D sky130_fd_sc_hd__a22o_2
*I *3336:A I *D sky130_fd_sc_hd__inv_2
*I *3980:Q O *D sky130_fd_sc_hd__dfrtp_2
*CAP
1 *3429:B2 1.74667e-05
2 *3336:A 0
3 *3980:Q 0.000381562
4 *996:12 0.000399028
5 *996:12 *3433:A1 0
6 *3433:A2 *996:12 4.19967e-05
7 *4017:D *996:12 3.67924e-05
8 *4265:A *996:12 0
9 *4316:A *996:12 0
10 *603:13 *996:12 0
11 *603:55 *996:12 0
12 *911:42 *3429:B2 2.30292e-05
13 *911:42 *996:12 0.0001249
*RES
1 *3980:Q *996:12 12.2 
2 *996:12 *3336:A 1.6 
3 *996:12 *3429:B2 2.05 
*END

*D_NET *997 0.00362756
*CONN
*I *3422:A1_N I *D sky130_fd_sc_hd__o2bb2a_2
*I *4198:A I *D sky130_fd_sc_hd__dlygate4sd3_1
*I *3975:Q O *D sky130_fd_sc_hd__dfrtp_2
*CAP
1 *3422:A1_N 0.000346651
2 *4198:A 0.000268179
3 *3975:Q 0.000164771
4 *997:10 0.0007796
5 *997:10 *1089:22 4.99619e-05
6 *3426:B1 *3422:A1_N 0.000139238
7 *3426:B1 *4198:A 8.40213e-05
8 *3431:A *997:10 0
9 *3778:B1 *3422:A1_N 4.9119e-05
10 *3928:SET_B *3422:A1_N 1.15688e-05
11 *3928:SET_B *997:10 5.20968e-05
12 *3930:CLK *3422:A1_N 0
13 *4022:CLK *4198:A 2.30292e-05
14 *105:21 *3422:A1_N 0.000749326
15 *603:63 *3422:A1_N 5.05066e-06
16 *607:12 *3422:A1_N 0.000339879
17 *607:16 *3422:A1_N 0.000175207
18 *607:16 *997:10 0.000141606
19 *611:132 *4198:A 0.000160491
20 *611:132 *997:10 6.44959e-05
21 *658:114 *3422:A1_N 0
22 *692:6 *4198:A 2.32688e-05
*RES
1 *3975:Q *997:10 7.215 
2 *997:10 *4198:A 8.205 
3 *997:10 *3422:A1_N 14.6175 
*END

*D_NET *998 0.00119025
*CONN
*I *4189:A I *D sky130_fd_sc_hd__dlygate4sd3_1
*I *3657:B I *D sky130_fd_sc_hd__and2b_2
*I *3894:Q O *D sky130_fd_sc_hd__dfrtp_2
*CAP
1 *4189:A 0.000138669
2 *3657:B 0.000265354
3 *3894:Q 0
4 *998:4 0.000404023
5 *3657:B *3657:A_N 3.50571e-05
6 *3518:A2 *3657:B 0
7 *3894:RESET_B *3657:B 5.05521e-05
8 *3894:RESET_B *4189:A 7.35729e-05
9 *3973:D *4189:A 4.85206e-05
10 *4013:CLK *4189:A 4.66108e-05
11 *543:25 *3657:B 3.12855e-05
12 *648:35 *3657:B 0
13 *682:8 *3657:B 5.05521e-05
14 *682:8 *4189:A 4.60584e-05
*RES
1 *3894:Q *998:4 1.6 
2 *998:4 *3657:B 10.835 
3 *998:4 *4189:A 4.465 
*END

*D_NET *999 0.00138844
*CONN
*I *4182:A I *D sky130_fd_sc_hd__dlygate4sd3_1
*I *3718:A I *D sky130_fd_sc_hd__or2_2
*I *3725:A1 I *D sky130_fd_sc_hd__o2111a_2
*I *3979:Q O *D sky130_fd_sc_hd__dfrtp_2
*CAP
1 *4182:A 0.000243747
2 *3718:A 0
3 *3725:A1 8.49582e-05
4 *3979:Q 0.00047316
5 *999:8 0.000314372
6 *3718:B *3725:A1 0.000143266
7 *3718:B *999:8 2.75229e-05
8 *3721:C *3725:A1 0
9 *3906:D *4182:A 0
10 *3982:D *4182:A 0
11 *621:29 *4182:A 1.08758e-05
12 *621:35 *4182:A 9.05377e-05
13 *972:12 *3725:A1 0
*RES
1 *3979:Q *999:8 5.17 
2 *999:8 *3725:A1 7.49 
3 *999:8 *3718:A 1.6 
4 *3979:Q *4182:A 11.52 
*END

*D_NET *1000 0.00604468
*CONN
*I *4304:A I *D sky130_fd_sc_hd__dlygate4sd3_1
*I *4329:A I *D sky130_fd_sc_hd__dlygate4sd3_1
*I *3456:A1 I *D sky130_fd_sc_hd__a22o_2
*I *3518:A1 I *D sky130_fd_sc_hd__a21o_2
*I *3743:A I *D sky130_fd_sc_hd__nor2_2
*I *3945:Q O *D sky130_fd_sc_hd__dfstp_2
*CAP
1 *4304:A 0.000176042
2 *4329:A 4.06368e-05
3 *3456:A1 0.000181627
4 *3518:A1 0.000369059
5 *3743:A 0.000672776
6 *3945:Q 0.000176042
7 *1000:10 0.0011483
8 *1000:8 0.0009874
9 *1000:4 0.000739942
10 *3456:A1 *3680:A2_N 0.000102534
11 *3743:A *3461:A1 0.000120655
12 *3743:A *1003:12 2.97249e-05
13 *3456:A2 *3456:A1 4.03718e-05
14 *3456:A2 *3518:A1 0
15 *3456:A2 *1000:10 6.65804e-05
16 *3461:B2 *3743:A 1.34967e-05
17 *3467:B2 *3456:A1 0
18 *3518:B1 *3518:A1 0.000337524
19 *3680:A1_N *4329:A 0.000116853
20 *3680:B2 *3456:A1 0
21 *3893:D *3518:A1 0
22 *3945:CLK *1000:8 7.35813e-05
23 *3945:D *3456:A1 0
24 *3945:D *1000:10 0
25 *3948:D *3743:A 9.14692e-05
26 *3950:D *3456:A1 6.38291e-05
27 *3950:D *1000:10 8.53113e-06
28 *3976:D *3518:A1 2.77283e-05
29 *4126:A *4329:A 4.70343e-05
30 *616:76 *3518:A1 0.000181383
31 *616:78 *3518:A1 0.000231557
*RES
1 *3945:Q *1000:4 1.6 
2 *1000:4 *1000:8 9.695 
3 *1000:8 *1000:10 2.145 
4 *1000:10 *3743:A 11.565 
5 *1000:10 *3518:A1 12.435 
6 *1000:8 *3456:A1 6.975 
7 *1000:4 *4329:A 6.98 
8 *3945:Q *4304:A 5.72 
*END

*D_NET *1001 0.00316686
*CONN
*I *3460:C I *D sky130_fd_sc_hd__and3b_2
*I *3743:B I *D sky130_fd_sc_hd__nor2_2
*I *3454:B1 I *D sky130_fd_sc_hd__o21a_2
*I *3682:A2 I *D sky130_fd_sc_hd__a21oi_2
*I *3683:C I *D sky130_fd_sc_hd__and3b_2
*I *3519:A I *D sky130_fd_sc_hd__and2_2
*I *3946:Q O *D sky130_fd_sc_hd__dfrtp_2
*CAP
1 *3460:C 5.57727e-05
2 *3743:B 0.000265575
3 *3454:B1 0
4 *3682:A2 2.22788e-05
5 *3683:C 6.33271e-05
6 *3519:A 0.000195335
7 *3946:Q 4.18826e-05
8 *1001:54 0.00037624
9 *1001:43 0.000138657
10 *1001:32 0.000160747
11 *1001:21 0.000177864
12 *1001:8 0.000297051
13 *3683:C *3683:A_N 8.84163e-05
14 *3443:B *3519:A 0.000114753
15 *3443:B *1001:21 3.86607e-05
16 *3443:C *3519:A 0.000235573
17 *3454:A1 *3743:B 0
18 *3454:A1 *1001:43 4.18603e-06
19 *3454:A1 *1001:54 5.42473e-05
20 *3460:A_N *3519:A 0.000140063
21 *3460:A_N *3743:B 1.71013e-05
22 *3460:A_N *1001:21 9.9535e-05
23 *3460:A_N *1001:32 7.26629e-05
24 *3460:A_N *1001:43 8.60912e-05
25 *3460:A_N *1001:54 7.07801e-05
26 *3946:RESET_B *1001:8 5.35969e-06
27 *433:10 *3460:C 5.2805e-05
28 *433:10 *3743:B 0.000117298
29 *936:47 *3682:A2 4.82863e-05
30 *936:58 *1001:21 6.26489e-05
31 *936:58 *1001:32 6.36578e-05
32 *990:18 *1001:43 0
*RES
1 *3946:Q *1001:8 4.05 
2 *1001:8 *3519:A 8.685 
3 *1001:8 *1001:21 2.145 
4 *1001:21 *3683:C 4.42875 
5 *1001:21 *1001:32 1.635 
6 *1001:32 *3682:A2 4.05 
7 *1001:32 *1001:43 1.89 
8 *1001:43 *3454:B1 3.6 
9 *1001:43 *1001:54 3.635 
10 *1001:54 *3743:B 9.995 
11 *1001:54 *3460:C 2.42875 
*END

*D_NET *1002 0.00787102
*CONN
*I *3462:A1 I *D sky130_fd_sc_hd__a22o_2
*I *3328:A I *D sky130_fd_sc_hd__inv_2
*I *3452:A I *D sky130_fd_sc_hd__and3_2
*I *3446:A I *D sky130_fd_sc_hd__or2_2
*I *3690:A1 I *D sky130_fd_sc_hd__a21o_2
*I *3687:A1 I *D sky130_fd_sc_hd__a221o_2
*I *3689:A1 I *D sky130_fd_sc_hd__a21oi_2
*I *3445:A I *D sky130_fd_sc_hd__nor2_2
*I *3947:Q O *D sky130_fd_sc_hd__dfrtp_2
*CAP
1 *3462:A1 5.14973e-05
2 *3328:A 0
3 *3452:A 0
4 *3446:A 2.0132e-05
5 *3690:A1 0.000101565
6 *3687:A1 0
7 *3689:A1 0.000114027
8 *3445:A 0.000294625
9 *3947:Q 0.000409933
10 *1002:64 0.000101565
11 *1002:51 0.000416959
12 *1002:45 0.000755346
13 *1002:22 0.000726907
14 *1002:20 7.05448e-05
15 *1002:16 0.000458331
16 *1002:8 0.000849217
17 *1002:16 *4306:A 0
18 *1002:45 *1007:10 7.20717e-05
19 *1002:45 *1007:14 0.000234412
20 *3465:A2 *1002:45 6.65409e-05
21 *3466:A *1002:16 0.000283634
22 *3466:B *1002:16 0.000346781
23 *3466:B *1002:20 4.77769e-05
24 *3466:B *1002:45 8.23457e-05
25 *3524:A2 *3445:A 5.13924e-05
26 *3524:A2 *1002:20 4.77807e-05
27 *3524:A2 *1002:45 0.000112714
28 *3687:A2 *3689:A1 8.33066e-06
29 *3687:A2 *3690:A1 1.2818e-05
30 *3687:A2 *1002:51 0.000143425
31 *3687:B1 *3689:A1 3.97492e-05
32 *3687:B1 *3690:A1 4.10387e-05
33 *3687:C1 *3445:A 1.56175e-05
34 *3688:B1 *1002:51 7.27704e-06
35 *3690:A2 *3689:A1 4.77769e-05
36 *3904:RESET_B *1002:45 4.31915e-05
37 *3904:RESET_B *1002:51 0.000109466
38 *3947:D *3462:A1 3.47668e-05
39 *3947:D *1002:16 1.71013e-05
40 *3947:RESET_B *1002:8 0.000120741
41 *3952:RESET_B *3445:A 4.59022e-06
42 *3965:D *3689:A1 2.01737e-05
43 *4090:A *3445:A 4.60814e-05
44 *426:10 *1002:8 7.53407e-05
45 *426:16 *1002:8 9.60582e-07
46 *426:16 *1002:16 0
47 *427:12 *3445:A 5.19006e-06
48 *427:12 *1002:51 1.11262e-05
49 *427:20 *3689:A1 5.5429e-05
50 *427:20 *1002:51 3.75882e-06
51 *428:12 *1002:51 4.23802e-05
52 *434:12 *1002:51 7.08331e-05
53 *434:16 *3690:A1 0.000251388
54 *434:18 *3690:A1 5.19006e-06
55 *618:12 *3445:A 0.000127565
56 *618:95 *3445:A 4.77769e-05
57 *618:134 *3445:A 0.000177148
58 *618:134 *1002:45 0.000103589
59 *634:34 *3445:A 3.79514e-05
60 *634:42 *1002:20 4.03804e-05
61 *638:37 *3462:A1 3.68682e-05
62 *638:37 *1002:16 0
63 *948:20 *1002:16 0
64 *948:20 *1002:45 8.23457e-05
65 *981:27 *3445:A 0.000267557
*RES
1 *3947:Q *1002:8 8.535 
2 *1002:8 *1002:16 10.355 
3 *1002:16 *1002:20 1.5 
4 *1002:20 *1002:22 2 
5 *1002:22 *3445:A 10.95 
6 *1002:22 *1002:45 9.47 
7 *1002:45 *1002:51 7.505 
8 *1002:51 *3689:A1 5.94 
9 *1002:51 *1002:64 2 
10 *1002:64 *3687:A1 1.6 
11 *1002:64 *3690:A1 4.495 
12 *1002:45 *3446:A 1.96 
13 *1002:20 *3452:A 1.6 
14 *1002:16 *3328:A 1.6 
15 *1002:8 *3462:A1 4.725 
*END

*D_NET *1003 0.00822661
*CONN
*I *3451:B2 I *D sky130_fd_sc_hd__a22o_2
*I *3680:A2_N I *D sky130_fd_sc_hd__a2bb2o_2
*I *3461:A1 I *D sky130_fd_sc_hd__a221o_2
*I *3682:B1 I *D sky130_fd_sc_hd__a21oi_2
*I *3683:A_N I *D sky130_fd_sc_hd__and3b_2
*I *3948:Q O *D sky130_fd_sc_hd__dfrtp_2
*CAP
1 *3451:B2 0.000454514
2 *3680:A2_N 0.000526645
3 *3461:A1 4.61269e-05
4 *3682:B1 4.97173e-05
5 *3683:A_N 0.000312378
6 *3948:Q 0.000657455
7 *1003:53 0.00111678
8 *1003:42 0.000228905
9 *1003:18 0.000620586
10 *1003:12 0.000963106
11 *3680:A2_N *3680:B1 4.82919e-05
12 *3340:A *3451:B2 4.99619e-05
13 *3342:A *3451:B2 8.65961e-05
14 *3451:B1 *3451:B2 0.000386226
15 *3454:A1 *1003:18 1.86491e-05
16 *3454:A1 *1003:42 3.13952e-05
17 *3456:A1 *3680:A2_N 0.000102534
18 *3456:A2 *3680:A2_N 4.30176e-06
19 *3456:A2 *3683:A_N 0
20 *3456:A2 *1003:18 0
21 *3456:B1 *3680:A2_N 7.89594e-05
22 *3461:A2 *3451:B2 0.000255886
23 *3461:A2 *3461:A1 2.91343e-05
24 *3461:A2 *1003:42 2.92496e-05
25 *3461:A2 *1003:53 0.000259754
26 *3467:B1 *3680:A2_N 0.000202056
27 *3680:B2 *3680:A2_N 0.000122337
28 *3683:C *3683:A_N 8.84163e-05
29 *3684:B2 *3683:A_N 4.66108e-05
30 *3743:A *3461:A1 0.000120655
31 *3743:A *1003:12 2.97249e-05
32 *3948:D *3461:A1 5.83121e-06
33 *3948:D *1003:12 0.000115779
34 *3948:RESET_B *1003:12 4.20162e-05
35 *3950:RESET_B *3451:B2 1.07797e-05
36 *4087:A *3683:A_N 0.000116158
37 *4088:A *3683:A_N 2.92496e-05
38 *4088:A *1003:18 0.000310636
39 *4256:A *3451:B2 2.75229e-05
40 *111:10 *3451:B2 0
41 *111:10 *1003:18 0
42 *111:10 *1003:53 0
43 *559:10 *3682:B1 1.19928e-05
44 *559:10 *3683:A_N 2.66935e-05
45 *560:10 *3683:A_N 1.91597e-05
46 *605:12 *3682:B1 4.66108e-05
47 *616:10 *1003:12 9.82856e-06
48 *616:10 *1003:18 3.88425e-05
49 *616:10 *1003:42 2.75538e-05
50 *616:21 *1003:42 8.08153e-06
51 *616:21 *1003:53 5.64226e-05
52 *651:8 *3451:B2 2.47313e-05
53 *752:6 *3680:A2_N 0.000201508
54 *978:18 *3451:B2 8.65348e-05
55 *990:18 *1003:18 4.37312e-05
*RES
1 *3948:Q *1003:12 11.6325 
2 *1003:12 *1003:18 5.8875 
3 *1003:18 *3683:A_N 8.805 
4 *1003:18 *3682:B1 4.395 
5 *1003:12 *1003:42 1.2525 
6 *1003:42 *3461:A1 4.74 
7 *1003:42 *1003:53 3.165 
8 *1003:53 *3680:A2_N 12.96 
9 *1003:53 *3451:B2 13.815 
*END

*D_NET *1004 0.00377725
*CONN
*I *4314:A I *D sky130_fd_sc_hd__dlygate4sd3_1
*I *3524:A1 I *D sky130_fd_sc_hd__a31o_2
*I *3457:B1 I *D sky130_fd_sc_hd__a31o_2
*I *3464:A I *D sky130_fd_sc_hd__or2_2
*I *3463:A I *D sky130_fd_sc_hd__nor2_2
*I *3949:Q O *D sky130_fd_sc_hd__dfrtp_2
*CAP
1 *4314:A 0.000212593
2 *3524:A1 2.82574e-05
3 *3457:B1 2.46542e-05
4 *3464:A 4.93524e-05
5 *3463:A 0
6 *3949:Q 0
7 *1004:26 0.00021461
8 *1004:18 0.000490032
9 *1004:12 0.000515363
10 *1004:4 0.000399578
11 *1004:26 *3445:B 0.000131525
12 *3447:B *3464:A 4.77769e-05
13 *3448:C *3457:B1 0.000122325
14 *3449:A1 *1004:18 5.83121e-06
15 *3449:B1 *1004:18 8.4346e-05
16 *3453:A2 *1004:12 3.50033e-05
17 *3457:A3 *3457:B1 0.000122325
18 *3459:A1 *3524:A1 2.75229e-05
19 *3459:A1 *1004:18 3.51884e-05
20 *3459:A2 *1004:18 0.00015639
21 *3464:B *3464:A 8.23457e-05
22 *3524:A3 *4314:A 3.64998e-06
23 *3524:A3 *1004:12 4.38278e-05
24 *3524:B1 *1004:12 1.0183e-05
25 *3524:B1 *1004:18 4.99619e-05
26 *3687:A2 *3464:A 0.000108214
27 *3949:RESET_B *1004:12 0
28 *3972:D *1004:12 0.000160658
29 *4090:A *1004:18 1.79098e-05
30 *4090:A *1004:26 0.000192002
31 *109:28 *1004:18 0.000105266
32 *109:28 *1004:26 0.000154954
33 *428:30 *1004:26 0
34 *429:12 *1004:18 8.53113e-06
35 *429:12 *1004:26 0.000134098
36 *618:57 *1004:26 2.97004e-06
*RES
1 *3949:Q *1004:4 1.6 
2 *1004:4 *1004:12 7.795 
3 *1004:12 *1004:18 6.59 
4 *1004:18 *1004:26 6.74 
5 *1004:26 *3463:A 1.6 
6 *1004:26 *3464:A 3.085 
7 *1004:18 *3457:B1 4.74 
8 *1004:12 *3524:A1 2.05 
9 *1004:4 *4314:A 4.465 
*END

*D_NET *1005 0.00107772
*CONN
*I *4251:A I *D sky130_fd_sc_hd__dlygate4sd3_1
*I *3950:Q O *D sky130_fd_sc_hd__dfrtp_2
*CAP
1 *4251:A 0.000311104
2 *3950:Q 0.000311104
3 *3461:A2 *4251:A 0.000116165
4 *3950:RESET_B *4251:A 0.000116165
5 *616:23 *4251:A 0.000223186
*RES
1 *3950:Q *4251:A 12.135 
*END

*D_NET *1006 0.00213434
*CONN
*I *4238:A I *D sky130_fd_sc_hd__dlygate4sd3_1
*I *3680:B1 I *D sky130_fd_sc_hd__a2bb2o_2
*I *3951:Q O *D sky130_fd_sc_hd__dfrtp_2
*CAP
1 *4238:A 0
2 *3680:B1 0.000223794
3 *3951:Q 0.000274735
4 *1006:14 0.000498529
5 *3332:A *1006:14 4.66108e-05
6 *3467:A1 *3680:B1 0.000189299
7 *3467:A2 *1006:14 7.06865e-05
8 *3467:B1 *3680:B1 4.66108e-05
9 *3680:A2_N *3680:B1 4.82919e-05
10 *3680:B2 *3680:B1 0.00014714
11 *3680:B2 *1006:14 9.37731e-05
12 *3823:B1 *3680:B1 0
13 *3945:D *3680:B1 9.14049e-05
14 *3951:D *1006:14 9.78429e-05
15 *3951:RESET_B *3680:B1 0
16 *3975:D *1006:14 0
17 *4263:A *1006:14 0.000120655
18 *111:10 *1006:14 0
19 *651:34 *1006:14 0.000158965
20 *980:12 *3680:B1 1.52184e-05
21 *980:12 *1006:14 1.07797e-05
*RES
1 *3951:Q *1006:14 10.64 
2 *1006:14 *3680:B1 11.765 
3 *1006:14 *4238:A 1.6 
*END

*D_NET *1007 0.00261421
*CONN
*I *4306:A I *D sky130_fd_sc_hd__dlygate4sd3_1
*I *3447:A_N I *D sky130_fd_sc_hd__nand2b_2
*I *3446:B I *D sky130_fd_sc_hd__or2_2
*I *3445:B I *D sky130_fd_sc_hd__nor2_2
*I *3952:Q O *D sky130_fd_sc_hd__dfrtp_2
*CAP
1 *4306:A 0.000126392
2 *3447:A_N 0
3 *3446:B 0
4 *3445:B 0.000171587
5 *3952:Q 0
6 *1007:14 0.000261326
7 *1007:10 0.000279637
8 *1007:4 0.00031629
9 *3447:B *1007:14 4.66108e-05
10 *3465:A2 *1007:10 6.65409e-05
11 *3904:RESET_B *1007:10 0
12 *3904:RESET_B *1007:14 0.000114834
13 *3952:D *4306:A 0.000124895
14 *3952:D *1007:10 0.000103554
15 *3952:RESET_B *4306:A 4.28468e-05
16 *3952:RESET_B *1007:10 5.83121e-06
17 *4090:A *3445:B 0.000105243
18 *109:28 *1007:10 8.23457e-05
19 *109:28 *1007:14 8.34281e-06
20 *426:16 *4306:A 5.4003e-05
21 *618:57 *3445:B 0.000110317
22 *948:20 *4306:A 0
23 *948:20 *1007:10 0.000155608
24 *1002:16 *4306:A 0
25 *1002:45 *1007:10 7.20717e-05
26 *1002:45 *1007:14 0.000234412
27 *1004:26 *3445:B 0.000131525
*RES
1 *3952:Q *1007:4 1.6 
2 *1007:4 *1007:10 4.62 
3 *1007:10 *1007:14 2.535 
4 *1007:14 *3445:B 9.53 
5 *1007:14 *3446:B 1.6 
6 *1007:10 *3447:A_N 1.6 
7 *1007:4 *4306:A 8.375 
*END

*D_NET *1008 0.00331917
*CONN
*I *3451:A2 I *D sky130_fd_sc_hd__a22o_2
*I *4327:A I *D sky130_fd_sc_hd__dlygate4sd3_1
*I *4197:A I *D sky130_fd_sc_hd__dlygate4sd3_1
*I *3953:Q O *D sky130_fd_sc_hd__dfrtp_2
*CAP
1 *3451:A2 0.000162895
2 *4327:A 0
3 *4197:A 0.000457753
4 *3953:Q 0.000121393
5 *1008:10 0.000537087
6 *1008:8 0.000363621
7 *3451:A1 *3451:A2 0.00010492
8 *3744:A1 *1008:10 4.40643e-05
9 *3744:B1 *4197:A 0
10 *3744:B1 *1008:10 0
11 *3914:D *1008:10 0
12 *3914:RESET_B *3451:A2 0.000185405
13 *3914:RESET_B *1008:8 2.91561e-06
14 *3914:RESET_B *1008:10 5.23362e-05
15 *4116:A *3451:A2 0.000306608
16 *4116:A *4197:A 0.000557923
17 *4116:A *1008:10 0.000224415
18 *4256:A *3451:A2 4.00508e-05
19 *603:13 *3451:A2 0
20 *603:13 *1008:10 0
21 *638:37 *4197:A 0.000141599
22 *978:18 *3451:A2 1.61831e-05
*RES
1 *3953:Q *1008:8 5.085 
2 *1008:8 *1008:10 2.655 
3 *1008:10 *4197:A 13.095 
4 *1008:10 *4327:A 3.6 
5 *1008:8 *3451:A2 8.67 
*END

*D_NET *1009 0.000257067
*CONN
*I *4211:A I *D sky130_fd_sc_hd__dlygate4sd3_1
*I *3954:Q O *D sky130_fd_sc_hd__dfrtp_2
*CAP
1 *4211:A 3.72377e-05
2 *3954:Q 3.72377e-05
3 *3954:RESET_B *4211:A 0.000117832
4 *109:14 *4211:A 6.47594e-05
*RES
1 *3954:Q *4211:A 8.58 
*END

*D_NET *1010 0.00320172
*CONN
*I *4180:A I *D sky130_fd_sc_hd__dlygate4sd3_1
*I *3634:A I *D sky130_fd_sc_hd__or3b_2
*I *3969:Q O *D sky130_fd_sc_hd__dfrtp_2
*CAP
1 *4180:A 0.00011764
2 *3634:A 0.000301153
3 *3969:Q 0.000339844
4 *1010:12 0.000758637
5 *4180:A *4176:A 5.87261e-05
6 *3635:C *3634:A 0.000617727
7 *3635:C *4180:A 0
8 *3863:D *1010:12 4.66108e-05
9 *3863:RESET_B *3634:A 2.15594e-05
10 *3964:CLK *3634:A 2.97004e-06
11 *3964:D *3634:A 0
12 *3968:D *3634:A 0.000141323
13 *4047:D *3634:A 0.000108733
14 *4047:D *4180:A 0.000246964
15 *4174:A *4180:A 0.000184849
16 *4174:A *1010:12 8.65905e-05
17 *4246:A *1010:12 4.34975e-05
18 *4383:A *1010:12 0.000124895
*RES
1 *3969:Q *1010:12 9.345 
2 *1010:12 *3634:A 11.115 
3 *1010:12 *4180:A 7.785 
*END

*D_NET *1011 0.00510064
*CONN
*I *4196:A I *D sky130_fd_sc_hd__dlygate4sd3_1
*I *3648:B I *D sky130_fd_sc_hd__nand2b_2
*I *3635:A I *D sky130_fd_sc_hd__nor3_2
*I *3964:Q O *D sky130_fd_sc_hd__dfrtp_2
*CAP
1 *4196:A 0.000605175
2 *3648:B 0.000203217
3 *3635:A 3.34843e-05
4 *3964:Q 0.000129175
5 *1011:10 0.000815001
6 *1011:6 0.00131265
7 *3648:B *3648:A_N 0.000179077
8 o_int_n *4196:A 5.02217e-05
9 *3634:C_N *4196:A 0
10 *3635:B *3648:B 0.000112909
11 *3635:B *1011:10 7.9642e-06
12 *3635:C *1011:10 0
13 *3659:A1 *4196:A 0.000716407
14 *3659:A1 *1011:6 0.000232262
15 *3863:CLK *1011:10 0.000179776
16 *3863:D *1011:10 0.000263309
17 *3964:D *4196:A 2.75229e-05
18 *3964:D *1011:10 0
19 *3964:RESET_B *1011:6 7.00769e-05
20 *3964:RESET_B *1011:10 0
21 *3968:RESET_B *1011:10 0
22 *4383:A *4196:A 6.71882e-05
23 *543:6 *3648:B 2.69217e-05
24 *613:10 *3648:B 4.91616e-05
25 *613:10 *1011:10 2.99518e-06
26 *613:16 *1011:10 1.61456e-05
27 *613:22 *1011:10 0
*RES
1 *3964:Q *1011:6 5.155 
2 *1011:6 *1011:10 12.305 
3 *1011:10 *3635:A 4.05 
4 *1011:10 *3648:B 8.325 
5 *1011:6 *4196:A 18.47 
*END

*D_NET *1012 0.00244378
*CONN
*I *3648:A_N I *D sky130_fd_sc_hd__nand2b_2
*I *4173:A I *D sky130_fd_sc_hd__dlygate4sd3_1
*I *3968:Q O *D sky130_fd_sc_hd__dfrtp_2
*CAP
1 *3648:A_N 0.000145537
2 *4173:A 0
3 *3968:Q 0.000409941
4 *1012:14 0.000555477
5 *3394:A3 *1012:14 0.000246586
6 *3634:B *1012:14 1.03755e-05
7 *3648:B *3648:A_N 0.000179077
8 *3650:A2 *1012:14 6.04361e-05
9 *3876:D *1012:14 2.14921e-05
10 *4085:A *3648:A_N 0.000147688
11 *4085:A *1012:14 8.41384e-05
12 *4389:A *1012:14 2.61299e-05
13 *613:10 *3648:A_N 9.88165e-05
14 *613:22 *1012:14 3.27177e-05
15 *654:10 *1012:14 0
16 *655:111 *1012:14 0
17 *706:12 *1012:14 0.000425373
*RES
1 *3968:Q *1012:14 14.69 
2 *1012:14 *4173:A 1.6 
3 *1012:14 *3648:A_N 9.485 
*END

*D_NET *1013 0.00409544
*CONN
*I *3395:A I *D sky130_fd_sc_hd__or3_2
*I *3326:A I *D sky130_fd_sc_hd__inv_2
*I *3863:Q O *D sky130_fd_sc_hd__dfrtp_2
*CAP
1 *3395:A 0.000506625
2 *3326:A 0.000300703
3 *3863:Q 0.000163976
4 *1013:10 0.000971304
5 *1013:10 *1026:6 3.00381e-05
6 *3394:A3 *1013:10 6.78134e-05
7 *3395:B *3395:A 0.000156622
8 *3650:A1 *3395:A 4.12775e-05
9 *3659:A1 *3395:A 0.000222061
10 *3659:A1 *1013:10 0.000158811
11 *3967:CLK *3395:A 0.000107999
12 *3969:CLK *3395:A 0.000123724
13 *3973:RESET_B *3395:A 0.000261926
14 *4246:A *3395:A 0.000269343
15 *4341:A *3395:A 0
16 *4379:A *3395:A 4.77769e-05
17 *4385:A *3395:A 0
18 *4389:A *3326:A 0
19 *745:10 *3395:A 0.000347444
20 *910:10 *3395:A 8.56947e-05
21 *910:10 *1013:10 8.16788e-05
22 *910:50 *3395:A 1.8279e-05
23 *921:12 *3395:A 0.000132347
*RES
1 *3863:Q *1013:10 7.32 
2 *1013:10 *3326:A 7.515 
3 *1013:10 *3395:A 19.515 
*END

*D_NET *1014 0.00131439
*CONN
*I *3655:A_N I *D sky130_fd_sc_hd__and2b_2
*I *3961:Q O *D sky130_fd_sc_hd__dfrtp_2
*CAP
1 *3655:A_N 0.000339133
2 *3961:Q 0.000339133
3 *3973:CLK *3655:A_N 0.000162325
4 *3973:D *3655:A_N 5.20968e-05
5 *605:56 *3655:A_N 0
6 *614:74 *3655:A_N 0.000332954
7 *994:18 *3655:A_N 8.87475e-05
*RES
1 *3961:Q *3655:A_N 15.15 
*END

*D_NET *1015 0.007967
*CONN
*I *4268:A I *D sky130_fd_sc_hd__dlygate4sd3_1
*I *3393:A2 I *D sky130_fd_sc_hd__o21ba_2
*I *4068:A I *D sky130_fd_sc_hd__buf_2
*I *3879:Q O *D sky130_fd_sc_hd__dfrtp_2
*CAP
1 *4268:A 0.000194242
2 *3393:A2 0.000288421
3 *4068:A 0.00209787
4 *3879:Q 0.000289678
5 *1015:8 0.00248173
6 *3393:A2 *3393:A1 6.52265e-05
7 *3393:A2 *4067:A 7.37256e-05
8 *3393:A2 *1022:19 0.000536993
9 *1015:8 *4266:A 0.000135464
10 *3393:B1_N *3393:A2 4.86991e-05
11 *3395:C *4068:A 0.00021011
12 *3395:C *1015:8 0.000271733
13 *3656:A1 *1015:8 7.03276e-05
14 *3970:D *4068:A 0
15 *4065:A *3393:A2 0.000260234
16 *4085:A *4268:A 6.69327e-05
17 *4123:A *4068:A 0
18 *4379:A *4068:A 0.000114689
19 *4379:A *1015:8 3.74773e-05
20 *4386:A *4068:A 3.34494e-05
21 *605:56 *4268:A 0.000122202
22 *649:36 *4068:A 0.000138162
23 *649:46 *4068:A 0.000163713
24 *921:12 *3393:A2 0.000158072
25 *981:65 *4068:A 0.000107853
*RES
1 *3879:Q *1015:8 7.02 
2 *1015:8 *4068:A 14.4057 
3 *1015:8 *3393:A2 12.69 
4 *3879:Q *4268:A 6.425 
*END

*D_NET *1016 0.00253317
*CONN
*I *3966:D I *D sky130_fd_sc_hd__dfrtp_2
*I *3651:B I *D sky130_fd_sc_hd__and2b_2
*I *3404:X O *D sky130_fd_sc_hd__and2_2
*CAP
1 *3966:D 0
2 *3651:B 0.000729774
3 *3404:X 0.000292015
4 *1016:10 0.00102179
5 *3651:B *3651:A_N 2.75229e-05
6 *3651:B *3653:A_N 2.75229e-05
7 *3651:B *3653:B 0.000272984
8 *1016:10 *3963:D 1.79098e-05
9 *3654:A2 *3651:B 3.81908e-06
10 *3970:D *3651:B 5.21953e-05
11 *4297:A *3651:B 4.23878e-05
12 *4297:A *1016:10 4.52531e-05
13 *615:14 *1016:10 0
*RES
1 *3404:X *1016:10 7.41 
2 *1016:10 *3651:B 13.035 
3 *1016:10 *3966:D 3.6 
*END

*D_NET *1017 0.000430763
*CONN
*I *3651:A_N I *D sky130_fd_sc_hd__and2b_2
*I *3966:Q O *D sky130_fd_sc_hd__dfrtp_2
*CAP
1 *3651:A_N 0.000146498
2 *3966:Q 0.000146498
3 *3651:A_N *3653:A_N 4.13215e-05
4 *3651:B *3651:A_N 2.75229e-05
5 *3878:D *3651:A_N 5.95831e-05
6 *4167:A *3651:A_N 9.34083e-06
*RES
1 *3966:Q *3651:A_N 9.825 
*END

*D_NET *1018 0.00220462
*CONN
*I *4258:A I *D sky130_fd_sc_hd__dlygate4sd3_1
*I *4066:A I *D sky130_fd_sc_hd__buf_2
*I *3394:A2 I *D sky130_fd_sc_hd__o32a_2
*I *3877:Q O *D sky130_fd_sc_hd__dfrtp_2
*CAP
1 *4258:A 4.42186e-05
2 *4066:A 5.58374e-05
3 *3394:A2 5.79114e-05
4 *3877:Q 8.88903e-05
5 *1018:23 0.000236371
6 *1018:8 0.000283116
7 *3394:A2 *1025:12 5.69898e-06
8 *4066:A *1025:8 3.23663e-05
9 *4258:A *4067:A 4.84393e-05
10 *3660:A1 *3394:A2 0.000108257
11 *3660:A1 *1018:23 0.000271798
12 *3660:S *1018:23 4.66108e-05
13 *3877:RESET_B *1018:8 0.000120655
14 *3880:D *4258:A 3.25831e-05
15 *3881:CLK *3394:A2 8.76904e-05
16 *3881:CLK *1018:23 6.45236e-05
17 *4167:A *4258:A 0.000164686
18 *4384:A *4066:A 3.00381e-05
19 *4384:A *1018:23 5.89823e-05
20 *614:12 *4258:A 0
21 *614:12 *1018:23 0.000178634
22 *910:60 *4258:A 3.09233e-05
23 *910:60 *1018:23 0.00015639
*RES
1 *3877:Q *1018:8 4.74 
2 *1018:8 *3394:A2 4.98 
3 *1018:8 *1018:23 6.74 
4 *1018:23 *4066:A 2.74 
5 *1018:23 *4258:A 7.49 
*END

*D_NET *1019 0.00205303
*CONN
*I *4218:A I *D sky130_fd_sc_hd__dlygate4sd3_1
*I *3394:B2 I *D sky130_fd_sc_hd__o32a_2
*I *3882:Q O *D sky130_fd_sc_hd__dfrtp_2
*CAP
1 *4218:A 6.34573e-05
2 *3394:B2 0.000576235
3 *3882:Q 0.000639693
4 *3659:A1 *4218:A 0.000122331
5 *3660:A1 *3394:B2 0.000109931
6 *3877:RESET_B *3394:B2 0.00019568
7 *3882:RESET_B *3394:B2 4.24575e-05
8 *4168:A *3394:B2 0
9 *4379:A *4218:A 6.47594e-05
10 *4385:A *4218:A 0.000116158
11 *910:50 *4218:A 0.000122331
*RES
1 *3882:Q *3394:B2 14.205 
2 *3882:Q *4218:A 9.72 
*END

*D_NET *1020 0.000707885
*CONN
*I *4177:A I *D sky130_fd_sc_hd__dlygate4sd3_1
*I *3970:Q O *D sky130_fd_sc_hd__dfrtp_2
*CAP
1 *4177:A 0.000208438
2 *3970:Q 0.000208438
3 *3970:D *4177:A 1.73877e-05
4 *3970:RESET_B *4177:A 0
5 *4297:A *4177:A 0.000273621
6 *649:46 *4177:A 0
*RES
1 *3970:Q *4177:A 11.415 
*END

*D_NET *1021 0.000638333
*CONN
*I *3657:A_N I *D sky130_fd_sc_hd__and2b_2
*I *3959:Q O *D sky130_fd_sc_hd__dfrtp_2
*CAP
1 *3657:A_N 0.000244869
2 *3959:Q 0.000244869
3 *3657:B *3657:A_N 3.50571e-05
4 *3959:RESET_B *3657:A_N 0.000113537
*RES
1 *3959:Q *3657:A_N 10.5 
*END

*D_NET *1022 0.00340437
*CONN
*I *3393:A1 I *D sky130_fd_sc_hd__o21ba_2
*I *4069:A I *D sky130_fd_sc_hd__buf_2
*I *4266:A I *D sky130_fd_sc_hd__dlygate4sd3_1
*I *3880:Q O *D sky130_fd_sc_hd__dfrtp_2
*CAP
1 *3393:A1 4.57781e-05
2 *4069:A 0.000165279
3 *4266:A 0.000239302
4 *3880:Q 0
5 *1022:19 0.00032816
6 *1022:4 0.000356405
7 *3393:A2 *3393:A1 6.52265e-05
8 *3393:A2 *1022:19 0.000536993
9 *3393:B1_N *3393:A1 0.000123225
10 *3393:B1_N *1022:19 0.00060578
11 *3656:A1 *4266:A 9.55262e-06
12 *4341:A *4069:A 0.000162342
13 *4379:A *4266:A 0.000133804
14 *614:8 *4266:A 7.30505e-05
15 *614:101 *4266:A 0.000264606
16 *654:10 *4069:A 0.000159406
17 *1015:8 *4266:A 0.000135464
*RES
1 *3880:Q *1022:4 1.6 
2 *1022:4 *4266:A 11.135 
3 *1022:4 *1022:19 5.625 
4 *1022:19 *4069:A 10.295 
5 *1022:19 *3393:A1 3.1 
*END

*D_NET *1023 0.0024898
*CONN
*I *3963:D I *D sky130_fd_sc_hd__dfrtp_2
*I *3653:B I *D sky130_fd_sc_hd__and2b_2
*I *3403:X O *D sky130_fd_sc_hd__and2_2
*CAP
1 *3963:D 0.000147899
2 *3653:B 0.000210439
3 *3403:X 0.000258532
4 *1023:10 0.00061687
5 *3651:B *3653:B 0.000272984
6 *3654:A2 *3653:B 1.4399e-05
7 *3970:D *3653:B 3.64998e-06
8 *4297:A *3653:B 0.000178654
9 *4297:A *1023:10 8.26522e-05
10 *615:121 *1023:10 7.97759e-05
11 *990:10 *3653:B 0.000325421
12 *990:10 *1023:10 0.000157418
13 *990:12 *1023:10 0.000123194
14 *1016:10 *3963:D 1.79098e-05
*RES
1 *3403:X *1023:10 8.85 
2 *1023:10 *3653:B 10.05 
3 *1023:10 *3963:D 5.775 
*END

*D_NET *1024 0.000566239
*CONN
*I *3653:A_N I *D sky130_fd_sc_hd__and2b_2
*I *3963:Q O *D sky130_fd_sc_hd__dfrtp_2
*CAP
1 *3653:A_N 0.000171099
2 *3963:Q 0.000171099
3 *3651:A_N *3653:A_N 4.13215e-05
4 *3651:B *3653:A_N 2.75229e-05
5 *3654:A2 *3653:A_N 0.000155196
6 *3878:D *3653:A_N 0
*RES
1 *3963:Q *3653:A_N 11.07 
*END

*D_NET *1025 0.00321441
*CONN
*I *4067:A I *D sky130_fd_sc_hd__buf_2
*I *3394:A1 I *D sky130_fd_sc_hd__o32a_2
*I *4257:A I *D sky130_fd_sc_hd__dlygate4sd3_1
*I *3878:Q O *D sky130_fd_sc_hd__dfrtp_2
*CAP
1 *4067:A 0.000703082
2 *3394:A1 5.12323e-05
3 *4257:A 7.52675e-05
4 *3878:Q 0.000194176
5 *1025:12 0.000309299
6 *1025:8 0.00108006
7 *3394:A1 *3394:B1 0
8 *3393:A2 *4067:A 7.37256e-05
9 *3393:B1_N *4067:A 7.10305e-05
10 *3394:A2 *1025:12 5.69898e-06
11 *3394:A3 *3394:A1 5.4155e-06
12 *3395:C *3394:A1 4.35432e-05
13 *3395:C *4257:A 5.83121e-06
14 *3880:D *4067:A 8.49205e-05
15 *3881:CLK *3394:A1 1.16578e-05
16 *3881:CLK *1025:12 7.86512e-05
17 *4066:A *1025:8 3.23663e-05
18 *4167:A *4067:A 1.7635e-05
19 *4258:A *4067:A 4.84393e-05
20 *4384:A *1025:8 0.000124895
21 *4388:A *4067:A 0
22 *4388:A *1025:12 0
23 *614:12 *4067:A 8.92657e-05
24 *614:12 *1025:12 5.92191e-05
25 *910:60 *4067:A 4.90071e-05
*RES
1 *3878:Q *1025:8 6.12 
2 *1025:8 *1025:12 5.42 
3 *1025:12 *4257:A 2.74 
4 *1025:12 *3394:A1 2.755 
5 *1025:8 *4067:A 13.575 
*END

*D_NET *1026 0.0016327
*CONN
*I *3394:B1 I *D sky130_fd_sc_hd__o32a_2
*I *4221:A I *D sky130_fd_sc_hd__dlygate4sd3_1
*I *3881:Q O *D sky130_fd_sc_hd__dfrtp_2
*CAP
1 *3394:B1 0.000259446
2 *4221:A 5.50611e-05
3 *3881:Q 0.000155717
4 *1026:6 0.000470224
5 *3394:A1 *3394:B1 0
6 *3394:A3 *3394:B1 0.000342857
7 *3394:A3 *1026:6 1.6147e-05
8 *3395:C *3394:B1 0.000100738
9 *3659:A1 *4221:A 2.66935e-05
10 *3881:CLK *3394:B1 5.7942e-05
11 *4385:A *4221:A 0.000117832
12 *910:10 *4221:A 0
13 *1013:10 *1026:6 3.00381e-05
*RES
1 *3881:Q *1026:6 3.43 
2 *1026:6 *4221:A 6.98 
3 *1026:6 *3394:B1 8.2 
*END

*D_NET *1027 0.00038438
*CONN
*I *4178:A I *D sky130_fd_sc_hd__dlygate4sd3_1
*I *4045:Q O *D sky130_fd_sc_hd__dfrtp_2
*CAP
1 *4178:A 0.000173544
2 *4045:Q 0.000173544
3 *4044:D *4178:A 3.72916e-05
*RES
1 *4045:Q *4178:A 6.065 
*END

*D_NET *1028 0.00151823
*CONN
*I *3391:A2 I *D sky130_fd_sc_hd__a21o_2
*I *4190:A I *D sky130_fd_sc_hd__dlygate4sd3_1
*I *4044:Q O *D sky130_fd_sc_hd__dfrtp_2
*CAP
1 *3391:A2 7.02541e-05
2 *4190:A 0.000381348
3 *4044:Q 5.64779e-05
4 *1028:8 0.00050808
5 *4190:A *4169:A 4.82919e-05
6 *3391:A1 *4190:A 0
7 *3392:A2 *4190:A 4.47125e-05
8 *3853:A2 *4190:A 5.39961e-05
9 *3853:A2 *1028:8 0.000118527
10 *4044:RESET_B *3391:A2 3.00381e-05
11 *4044:RESET_B *1028:8 0
12 *659:75 *3391:A2 1.34503e-05
13 *659:75 *4190:A 0
14 *659:77 *3391:A2 0.000164874
15 *659:90 *1028:8 0
16 *683:6 *4190:A 2.8185e-05
17 *901:69 *4190:A 0
*RES
1 *4044:Q *1028:8 4.98 
2 *1028:8 *4190:A 9.645 
3 *1028:8 *3391:A2 5.43 
*END

*D_NET *1029 0.000697202
*CONN
*I *4234:A I *D sky130_fd_sc_hd__dlygate4sd3_1
*I *4043:Q O *D sky130_fd_sc_hd__dfrtp_2
*CAP
1 *4234:A 0.000201405
2 *4043:Q 0.000201405
3 *4234:A *1030:16 8.65961e-05
4 *3915:D *4234:A 0.000207797
5 *3915:RESET_B *4234:A 0
6 *4153:A *4234:A 0
7 *911:10 *4234:A 0
*RES
1 *4043:Q *4234:A 11.415 
*END

*D_NET *1030 0.0101425
*CONN
*I *4169:A I *D sky130_fd_sc_hd__clkdlybuf4s25_1
*I *3527:B1 I *D sky130_fd_sc_hd__o211a_2
*I *3437:A1 I *D sky130_fd_sc_hd__a22o_2
*I *3439:A I *D sky130_fd_sc_hd__and2_2
*I *3440:A1 I *D sky130_fd_sc_hd__a21oi_2
*I *3915:Q O *D sky130_fd_sc_hd__dfrtp_2
*CAP
1 *4169:A 0.000112834
2 *3527:B1 0.000812031
3 *3437:A1 0
4 *3439:A 0
5 *3440:A1 0.000378665
6 *3915:Q 5.06588e-05
7 *1030:28 0.000695786
8 *1030:18 0.000544524
9 *1030:16 0.00204787
10 *1030:8 0.00117193
11 *3440:A1 *3439:B 8.65961e-05
12 *3527:B1 *3434:B 0
13 *1030:18 *4213:A 0
14 *1030:28 *3438:A2 0
15 *1030:28 *3439:B 0.000121437
16 *1030:28 *3442:A1 0.000277497
17 *1030:28 *4213:A 0
18 *1030:28 *1035:12 3.66286e-05
19 *3363:A3 *3527:B1 0.000113732
20 *3391:B1 *4169:A 0
21 *3391:B1 *1030:16 5.43769e-05
22 *3392:A2 *4169:A 4.82919e-05
23 *3436:B1 *1030:16 4.24292e-06
24 *3436:B1 *1030:18 0.000167481
25 *3440:B1 *3440:A1 0
26 *3526:A2 *3527:B1 4.41506e-05
27 *3526:B1 *3527:B1 0.000160635
28 *3527:C1 *3527:B1 9.47454e-05
29 *3786:B1 *3527:B1 2.15986e-05
30 *3790:B1 *1030:28 2.15594e-05
31 *3791:B1 *3440:A1 1.33285e-05
32 *3792:A1 *3440:A1 0
33 *3940:RESET_B *1030:18 0
34 *3942:SET_B *1030:28 0.000130106
35 *4038:D *3440:A1 0.000495107
36 *4038:D *1030:28 0.000148084
37 *4043:D *4169:A 0.000164686
38 *4043:D *1030:8 9.54399e-05
39 *4190:A *4169:A 4.82919e-05
40 *4234:A *1030:16 8.65961e-05
41 *4253:A *3527:B1 0.000124007
42 *4253:A *1030:16 5.20968e-05
43 *94:10 *1030:16 9.54469e-05
44 *94:10 *1030:18 2.92496e-05
45 *360:33 *3440:A1 0.000358944
46 *367:20 *3527:B1 0.000104476
47 *628:12 *1030:8 0
48 *628:12 *1030:16 4.82919e-05
49 *645:78 *3440:A1 0.000173979
50 *645:101 *3527:B1 0.000223639
51 *659:75 *4169:A 1.52945e-05
52 *709:10 *1030:28 5.02217e-05
53 *878:53 *3440:A1 8.40269e-05
54 *892:23 *1030:28 1.01851e-05
55 *892:58 *3440:A1 8.53113e-06
56 *893:8 *1030:16 0.000352161
57 *911:10 *4169:A 0
58 *934:28 *3440:A1 0.000124007
59 *993:46 *3440:A1 3.90266e-05
*RES
1 *3915:Q *1030:8 4.725 
2 *1030:8 *1030:16 20.32 
3 *1030:16 *1030:18 4.95 
4 *1030:18 *1030:28 10.01 
5 *1030:28 *3440:A1 16.325 
6 *1030:28 *3439:A 1.6 
7 *1030:18 *3437:A1 3.6 
8 *1030:16 *3527:B1 20.485 
9 *1030:8 *4169:A 6.45 
*END

*D_NET *1031 0.000409739
*CONN
*I *4175:A I *D sky130_fd_sc_hd__dlygate4sd3_1
*I *4042:Q O *D sky130_fd_sc_hd__dfrtp_2
*CAP
1 *4175:A 0.000163209
2 *4042:Q 0.000163209
3 *3850:A1 *4175:A 9.50342e-06
4 *4041:D *4175:A 3.86607e-05
5 *4151:A *4175:A 2.03321e-05
6 *11:10 *4175:A 0
7 *934:28 *4175:A 1.48249e-05
*RES
1 *4042:Q *4175:A 9.72 
*END

*D_NET *1032 0.000693505
*CONN
*I *3389:A2 I *D sky130_fd_sc_hd__a21o_2
*I *4186:A I *D sky130_fd_sc_hd__dlygate4sd3_1
*I *4041:Q O *D sky130_fd_sc_hd__dfrtp_2
*CAP
1 *3389:A2 1.96262e-05
2 *4186:A 0.000128918
3 *4041:Q 0.000109292
4 *679:8 *4186:A 5.34747e-05
5 *934:28 *3389:A2 3.00381e-05
6 *934:28 *4186:A 0.000352156
*RES
1 *4041:Q *4186:A 6.41 
2 *4186:A *3389:A2 3.65 
*END

*D_NET *1033 0.000673672
*CONN
*I *4227:A I *D sky130_fd_sc_hd__dlygate4sd3_1
*I *4040:Q O *D sky130_fd_sc_hd__dfrtp_2
*CAP
1 *4227:A 0.000183316
2 *4040:Q 0.000183316
3 *4040:CLK *4227:A 0.000307041
*RES
1 *4040:Q *4227:A 6.68 
*END

*D_NET *1034 0.00239332
*CONN
*I *4226:A I *D sky130_fd_sc_hd__dlygate4sd3_1
*I *3389:A1 I *D sky130_fd_sc_hd__a21o_2
*I *3324:A I *D sky130_fd_sc_hd__inv_2
*I *3916:Q O *D sky130_fd_sc_hd__dfrtp_2
*CAP
1 *4226:A 0.000231254
2 *3389:A1 7.9684e-05
3 *3324:A 0.000319794
4 *3916:Q 0.000293342
5 *1034:6 0.000461567
6 *3324:A *3396:B 7.81954e-05
7 *3390:B1 *3324:A 9.30787e-05
8 *3434:A *3389:A1 0.000249928
9 *3846:A1 *3324:A 0.000252289
10 *3916:D *3324:A 0
11 *3916:RESET_B *3389:A1 6.65717e-05
12 *4111:A *4226:A 0
13 *723:10 *3324:A 1.56428e-05
14 *723:10 *3389:A1 7.5416e-05
15 *723:10 *4226:A 8.40213e-05
16 *723:10 *1034:6 3.03775e-05
17 *878:92 *3324:A 6.21553e-05
*RES
1 *3916:Q *1034:6 2.395 
2 *1034:6 *3324:A 11.45 
3 *1034:6 *3389:A1 8.51 
4 *3916:Q *4226:A 6.425 
*END

*D_NET *1035 0.00330406
*CONN
*I *3442:A1 I *D sky130_fd_sc_hd__o21a_2
*I *3439:B I *D sky130_fd_sc_hd__and2_2
*I *3942:Q O *D sky130_fd_sc_hd__dfstp_2
*CAP
1 *3442:A1 0.000159568
2 *3439:B 4.21955e-05
3 *3942:Q 0.000495888
4 *1035:12 0.000697651
5 *1035:12 *4217:A 0.000315789
6 *3440:A1 *3439:B 8.65961e-05
7 *3442:A2 *3442:A1 8.42239e-05
8 *3526:A1 *3442:A1 0
9 *3790:A2 *3442:A1 5.16418e-05
10 *3791:A2 *1035:12 2.30292e-05
11 *3791:B1 *3439:B 0.000194694
12 *3791:B1 *1035:12 0.000306155
13 *3943:RESET_B *1035:12 9.19672e-05
14 *4038:D *1035:12 7.99009e-05
15 *603:55 *1035:12 0
16 *603:105 *1035:12 0
17 *627:40 *1035:12 0
18 *878:16 *1035:12 0.000120881
19 *878:33 *1035:12 0
20 *892:23 *3442:A1 4.76303e-05
21 *892:46 *3442:A1 7.06865e-05
22 *1030:28 *3439:B 0.000121437
23 *1030:28 *3442:A1 0.000277497
24 *1030:28 *1035:12 3.66286e-05
*RES
1 *3942:Q *1035:12 17.165 
2 *1035:12 *3439:B 3.43 
3 *1035:12 *3442:A1 9.785 
*END

*D_NET *1036 0.000792011
*CONN
*I *4217:A I *D sky130_fd_sc_hd__dlygate4sd3_1
*I *3943:Q O *D sky130_fd_sc_hd__dfrtp_2
*CAP
1 *4217:A 0.000198946
2 *3943:Q 0.000198946
3 *4038:D *4217:A 4.82919e-05
4 *603:105 *4217:A 0
5 *627:98 *4217:A 3.00381e-05
6 *1035:12 *4217:A 0.000315789
*RES
1 *3943:Q *4217:A 11.205 
*END

*D_NET *1037 0.000151255
*CONN
*I *4185:A I *D sky130_fd_sc_hd__dlygate4sd3_1
*I *3944:Q O *D sky130_fd_sc_hd__dfrtp_2
*CAP
1 *4185:A 7.56277e-05
2 *3944:Q 7.56277e-05
*RES
1 *3944:Q *4185:A 4.34 
*END

*D_NET *1038 0.000910948
*CONN
*I *3396:A I *D sky130_fd_sc_hd__and4_2
*I *4016:Q O *D sky130_fd_sc_hd__dfstp_2
*CAP
1 *3396:A 0.000237803
2 *4016:Q 0.000237803
3 *3396:A *4192:A 8.23457e-05
4 *4016:D *3396:A 3.83194e-05
5 *4122:A *3396:A 8.40269e-05
6 *354:24 *3396:A 0.000116158
7 *894:51 *3396:A 0.000114492
*RES
1 *4016:Q *3396:A 11.55 
*END

*D_NET *1039 0.00176052
*CONN
*I *3396:B I *D sky130_fd_sc_hd__and4_2
*I *4038:Q O *D sky130_fd_sc_hd__dfstp_2
*CAP
1 *3396:B 0.00040969
2 *4038:Q 0.00040969
3 *3324:A *3396:B 7.81954e-05
4 *3361:A *3396:B 0.000227529
5 *3396:C *3396:B 0.000249511
6 *3398:A *3396:B 0
7 *3662:A2 *3396:B 0
8 *3846:A2 *3396:B 0
9 *4073:TE_B *3396:B 0.000124007
10 *359:8 *3396:B 0.00024139
11 *937:12 *3396:B 2.05056e-05
12 *939:16 *3396:B 0
*RES
1 *4038:Q *3396:B 17.22 
*END

*D_NET *1040 0.000480707
*CONN
*I *3761:A I *D sky130_fd_sc_hd__buf_1
*I *3996:Q O *D sky130_fd_sc_hd__dfstp_2
*CAP
1 *3761:A 0.000203567
2 *3996:Q 0.000203567
3 *4044:D *3761:A 0
4 *4045:CLK *3761:A 0
5 *4071:A *3761:A 0
6 *4071:TE_B *3761:A 7.35729e-05
*RES
1 *3996:Q *3761:A 10.665 
*END

*D_NET *1041 0.00457842
*CONN
*I *3365:D I *D sky130_fd_sc_hd__and4_2
*I *3387:A2 I *D sky130_fd_sc_hd__o21ai_2
*I *3385:A2 I *D sky130_fd_sc_hd__a21o_2
*I *3507:A I *D sky130_fd_sc_hd__xor2_2
*I *3364:C I *D sky130_fd_sc_hd__and3_2
*I *3388:A2 I *D sky130_fd_sc_hd__a21oi_2
*I *3917:Q O *D sky130_fd_sc_hd__dfrtp_2
*CAP
1 *3365:D 0.000391877
2 *3387:A2 0
3 *3385:A2 0
4 *3507:A 0.000158407
5 *3364:C 8.0655e-05
6 *3388:A2 0
7 *3917:Q 0.000710932
8 *1041:40 0.000244483
9 *1041:25 0.000176211
10 *1041:23 8.66517e-05
11 *1041:21 0.000596935
12 *1041:10 0.000838817
13 *3364:C *3364:A 8.65905e-05
14 *3365:D *3365:B 0.000196376
15 *3507:A *3507:B 0
16 *3507:A *1042:29 0.000161529
17 *1041:21 *3364:B 0
18 *1041:21 *3387:A1 0
19 *1041:23 *3364:A 4.82863e-05
20 *1041:25 *3364:A 4.82919e-05
21 *1041:40 *3364:B 0
22 *1041:40 *3387:A1 1.52184e-05
23 *1041:40 *1050:27 5.65627e-05
24 *3388:B1 *3364:C 5.83121e-06
25 *3388:B1 *1041:10 0
26 *3388:B1 *1041:21 0
27 *3388:B1 *1041:25 2.16917e-05
28 *3767:A1 *3365:D 8.49205e-05
29 *3767:B1 *1041:21 4.70343e-05
30 *3917:CLK *1041:10 7.00889e-06
31 *3917:D *1041:10 2.67022e-05
32 *3918:CLK *3365:D 7.4027e-05
33 *3918:D *3365:D 7.23533e-05
34 *391:10 *3364:C 4.35432e-05
35 *391:10 *3365:D 1.16578e-05
36 *391:10 *1041:23 8.24245e-05
37 *641:54 *3364:C 2.49909e-05
38 *641:54 *1041:10 0
39 *644:27 *1041:10 8.65961e-05
40 *876:20 *3365:D 4.47209e-05
41 *876:20 *3507:A 4.70919e-05
42 *877:14 *1041:10 0
43 *877:14 *1041:21 0
*RES
1 *3917:Q *1041:10 11.895 
2 *1041:10 *3388:A2 3.6 
3 *1041:10 *1041:21 4.145 
4 *1041:21 *1041:23 1.83 
5 *1041:23 *1041:25 0.45 
6 *1041:25 *3364:C 3.445 
7 *1041:25 *1041:40 5.635 
8 *1041:40 *3507:A 4.48 
9 *1041:40 *3385:A2 1.6 
10 *1041:23 *3387:A2 1.6 
11 *1041:21 *3365:D 11.885 
*END

*D_NET *1042 0.00401367
*CONN
*I *3385:B1 I *D sky130_fd_sc_hd__a21o_2
*I *3508:A I *D sky130_fd_sc_hd__xnor2_2
*I *3364:B I *D sky130_fd_sc_hd__and3_2
*I *3365:C I *D sky130_fd_sc_hd__and4_2
*I *3918:Q O *D sky130_fd_sc_hd__dfrtp_2
*CAP
1 *3385:B1 0
2 *3508:A 0.00019468
3 *3364:B 0.000166646
4 *3365:C 0
5 *3918:Q 0.000356646
6 *1042:29 0.000419285
7 *1042:25 0.000290499
8 *1042:10 0.000589187
9 *3364:B *3387:A1 0
10 *1042:25 *1050:16 0.000625308
11 *1042:29 *3385:A1 4.82863e-05
12 *1042:29 *1050:16 4.82919e-05
13 *3383:A2 *3508:A 0
14 *3387:B1 *3508:A 0
15 *3507:A *1042:29 0.000161529
16 *3514:A *3508:A 1.22676e-05
17 *3667:B *3364:B 7.47215e-05
18 *3766:A2 *1042:10 2.67022e-05
19 *3766:A2 *1042:25 2.66935e-05
20 *3803:B1 *3364:B 0
21 *3803:B1 *3508:A 0
22 *3918:D *1042:25 6.87975e-05
23 *11:10 *1042:10 4.25561e-05
24 *11:10 *1042:25 3.5724e-05
25 *392:10 *1042:25 3.00381e-05
26 *641:54 *3364:B 3.09164e-05
27 *876:6 *1042:10 0.000190751
28 *876:20 *1042:25 0.000341885
29 *876:20 *1042:29 0.000158689
30 *890:27 *3508:A 7.35729e-05
31 *1041:21 *3364:B 0
32 *1041:40 *3364:B 0
*RES
1 *3918:Q *1042:10 8.715 
2 *1042:10 *3365:C 3.6 
3 *1042:10 *1042:25 9.2 
4 *1042:25 *1042:29 4.52 
5 *1042:29 *3364:B 6.255 
6 *1042:29 *3508:A 7.14 
7 *1042:25 *3385:B1 1.6 
*END

*D_NET *1043 0.00311781
*CONN
*I *3506:A I *D sky130_fd_sc_hd__xor2_2
*I *3383:A1 I *D sky130_fd_sc_hd__o21ai_2
*I *3365:B I *D sky130_fd_sc_hd__and4_2
*I *3919:Q O *D sky130_fd_sc_hd__dfrtp_2
*CAP
1 *3506:A 0.000322555
2 *3383:A1 0.000423658
3 *3365:B 0.000219091
4 *3919:Q 0.000133639
5 *1043:8 0.000453834
6 *3365:B *1050:16 0.000454245
7 *3365:D *3365:B 0.000196376
8 *3383:A2 *3383:A1 5.00612e-05
9 *3383:A2 *3506:A 8.65961e-05
10 *3386:C *3365:B 8.94496e-05
11 *3513:C1 *3383:A1 0
12 *3513:C1 *3506:A 0.000230908
13 *3919:RESET_B *3365:B 7.98967e-05
14 *3919:RESET_B *3383:A1 3.76596e-05
15 *3919:RESET_B *1043:8 3.001e-05
16 *396:32 *3383:A1 9.42302e-05
17 *625:92 *3383:A1 0
18 *877:31 *3365:B 0.00015356
19 *877:31 *3383:A1 5.4003e-05
20 *890:27 *1043:8 8.0356e-06
*RES
1 *3919:Q *1043:8 5.085 
2 *1043:8 *3365:B 9.735 
3 *1043:8 *3383:A1 6.51 
4 *3383:A1 *3506:A 9.515 
*END

*D_NET *1044 0.00447052
*CONN
*I *3367:C I *D sky130_fd_sc_hd__and4_2
*I *3379:A1 I *D sky130_fd_sc_hd__a21o_2
*I *3323:A I *D sky130_fd_sc_hd__inv_2
*I *3366:B I *D sky130_fd_sc_hd__and3_2
*I *4237:A I *D sky130_fd_sc_hd__dlygate4sd3_1
*I *3381:A1 I *D sky130_fd_sc_hd__o21ai_2
*I *3920:Q O *D sky130_fd_sc_hd__dfrtp_2
*CAP
1 *3367:C 0
2 *3379:A1 4.44024e-05
3 *3323:A 0.000110879
4 *3366:B 3.58965e-05
5 *4237:A 0.000295779
6 *3381:A1 0.000311887
7 *3920:Q 2.11528e-05
8 *1044:53 0.000452969
9 *1044:49 0.000404408
10 *1044:45 0.00024606
11 *1044:8 0.00043657
12 *3366:B *3321:A 2.75145e-05
13 *3379:A1 *3367:A 4.78195e-05
14 *1044:45 *1048:35 9.29176e-05
15 *1044:53 *3321:A 4.35432e-05
16 *1044:53 *3367:A 0.000343977
17 *3366:C *3379:A1 2.76311e-05
18 *3367:D *1044:49 1.91597e-05
19 *3381:B1 *3381:A1 0
20 *3382:A1 *1044:45 0.000137454
21 *3514:B *3323:A 0
22 *3920:RESET_B *4237:A 0
23 *3920:RESET_B *1044:45 0
24 *3997:CLK *3381:A1 0.000239153
25 *3997:D *3381:A1 2.36616e-05
26 *4097:A *3381:A1 0.000150453
27 *4097:A *4237:A 7.5416e-05
28 *4097:A *1044:8 1.56428e-05
29 *355:18 *3323:A 0
30 *355:18 *1044:45 0.000467074
31 *392:29 *1044:45 8.53113e-06
32 *392:44 *3379:A1 1.01145e-05
33 *392:44 *1044:45 0.00018305
34 *392:44 *1044:49 9.53428e-06
35 *392:50 *3379:A1 4.72605e-05
36 *392:50 *1044:49 2.05056e-05
37 *396:16 *1044:8 2.49909e-05
38 *396:57 *3323:A 0
39 *606:67 *3381:A1 5.4003e-05
40 *891:62 *4237:A 4.11112e-05
*RES
1 *3920:Q *1044:8 4.05 
2 *1044:8 *3381:A1 10.02 
3 *1044:8 *4237:A 5.745 
4 *4237:A *1044:45 11.99 
5 *1044:45 *1044:49 1.155 
6 *1044:49 *1044:53 4.515 
7 *1044:53 *3366:B 2.05 
8 *1044:53 *3323:A 7.235 
9 *1044:49 *3379:A1 3.5425 
10 *1044:45 *3367:C 1.6 
*END

*D_NET *1045 0.00272906
*CONN
*I *3367:B I *D sky130_fd_sc_hd__and4_2
*I *3379:B1 I *D sky130_fd_sc_hd__a21o_2
*I *3366:A I *D sky130_fd_sc_hd__and3_2
*I *3322:A I *D sky130_fd_sc_hd__inv_2
*I *3921:Q O *D sky130_fd_sc_hd__dfrtp_2
*CAP
1 *3367:B 4.94361e-05
2 *3379:B1 0
3 *3366:A 2.08101e-05
4 *3322:A 2.2266e-05
5 *3921:Q 0.000454892
6 *1045:18 0.000120303
7 *1045:16 0.000288927
8 *1045:6 0.000716029
9 *3322:A *3321:A 4.82919e-05
10 *3366:A *3321:A 0
11 *1045:16 *3367:A 2.16917e-05
12 *1045:18 *3321:A 0.000189845
13 *1045:18 *3367:A 8.95933e-05
14 *3366:C *3366:A 0
15 *3366:C *1045:16 2.49909e-05
16 *3366:C *1045:18 0.000183112
17 *3380:C *1045:18 4.99619e-05
18 *3921:CLK *1045:16 0.000114492
19 *3921:D *1045:16 5.85626e-05
20 *3921:RESET_B *1045:6 0.000119066
21 *11:10 *3367:B 4.06273e-05
22 *396:57 *1045:16 0.000116165
*RES
1 *3921:Q *1045:6 6.88 
2 *1045:6 *1045:16 7.66 
3 *1045:16 *1045:18 3.21 
4 *1045:18 *3322:A 2.05 
5 *1045:18 *3366:A 1.96 
6 *1045:16 *3379:B1 1.6 
7 *1045:6 *3367:B 6.47 
*END

*D_NET *1046 0.00285196
*CONN
*I *4322:A I *D sky130_fd_sc_hd__dlygate4sd3_1
*I *3367:A I *D sky130_fd_sc_hd__and4_2
*I *3321:A I *D sky130_fd_sc_hd__inv_2
*I *3922:Q O *D sky130_fd_sc_hd__dfrtp_2
*CAP
1 *4322:A 0.000219522
2 *3367:A 9.87691e-05
3 *3321:A 0.000140755
4 *3922:Q 0
5 *1046:10 0.00046164
6 *1046:6 0.000441638
7 *3322:A *3321:A 4.82919e-05
8 *3366:A *3321:A 0
9 *3366:B *3321:A 2.75145e-05
10 *3366:C *3367:A 7.67415e-06
11 *3377:A2 *4322:A 0.00011852
12 *3377:A2 *1046:10 0.000251301
13 *3379:A1 *3367:A 4.78195e-05
14 *3380:C *1046:10 9.30787e-05
15 *355:18 *1046:10 0
16 *357:12 *3321:A 8.8266e-05
17 *393:10 *1046:10 0.00011852
18 *396:57 *1046:10 0
19 *1044:53 *3321:A 4.35432e-05
20 *1044:53 *3367:A 0.000343977
21 *1045:16 *3367:A 2.16917e-05
22 *1045:18 *3321:A 0.000189845
23 *1045:18 *3367:A 8.95933e-05
*RES
1 *3922:Q *1046:6 3.6 
2 *1046:6 *1046:10 6.95 
3 *1046:10 *3321:A 5.17 
4 *1046:10 *3367:A 5.185 
5 *1046:6 *4322:A 7.155 
*END

*D_NET *1047 0.00586492
*CONN
*I *3373:A2 I *D sky130_fd_sc_hd__a311o_2
*I *3372:A1 I *D sky130_fd_sc_hd__a21oi_2
*I *3320:A I *D sky130_fd_sc_hd__inv_2
*I *3370:C I *D sky130_fd_sc_hd__nand4_2
*I *4320:A I *D sky130_fd_sc_hd__dlygate4sd3_1
*I *3368:A2 I *D sky130_fd_sc_hd__a31o_2
*I *3375:A1 I *D sky130_fd_sc_hd__o21ai_2
*I *3923:Q O *D sky130_fd_sc_hd__dfrtp_2
*CAP
1 *3373:A2 0.000122346
2 *3372:A1 0
3 *3320:A 6.14369e-05
4 *3370:C 1.88809e-05
5 *4320:A 0.000169178
6 *3368:A2 5.42089e-05
7 *3375:A1 8.07666e-05
8 *3923:Q 4.58526e-05
9 *1047:76 0.000657737
10 *1047:68 0.000900043
11 *1047:39 0.00035186
12 *1047:20 0.000399965
13 *1047:14 0.000279631
14 *1047:8 0.000297274
15 *3320:A *1048:35 0.000111901
16 *3370:C *1048:69 0
17 *3373:A2 *3373:A1 3.09195e-05
18 *3373:A2 *3373:B1 9.53428e-06
19 *3375:A1 *1049:6 3.66286e-05
20 *3375:A1 *1049:8 0.000159741
21 *1047:20 *3368:A1 0.000147057
22 *1047:39 *3368:A1 4.24292e-06
23 *1047:39 *3368:B1 7.06865e-05
24 *3373:A3 *1047:14 0.000203178
25 *3373:A3 *1047:68 1.1561e-05
26 *3374:B *1047:76 0.000205925
27 *3375:A2 *3375:A1 5.4155e-06
28 *3376:A1 *3368:A2 3.7712e-05
29 *3376:A1 *4320:A 8.8266e-05
30 *3768:A1 *1047:14 0.000279787
31 *3768:A1 *1047:20 4.82919e-05
32 *3773:B1 *1047:68 0.000291372
33 *3923:RESET_B *1047:20 0
34 *3925:CLK *3375:A1 1.83756e-05
35 *3925:D *3375:A1 3.10513e-05
36 *3925:RESET_B *1047:8 7.23602e-05
37 *3925:RESET_B *1047:20 0
38 *394:52 *3368:A2 1.08758e-05
39 *394:58 *3368:A2 9.53428e-06
40 *394:58 *4320:A 9.72742e-06
41 *394:85 *3370:C 5.4155e-06
42 *394:85 *1047:14 3.90495e-05
43 *394:85 *1047:20 3.00381e-05
44 *396:14 *1047:76 5.35969e-06
45 *396:96 *1047:76 0.000116158
46 *626:56 *1047:76 0.000199833
47 *644:77 *1047:76 6.10014e-05
48 *644:83 *3320:A 7.47366e-05
*RES
1 *3923:Q *1047:8 4.725 
2 *1047:8 *1047:14 4.97 
3 *1047:14 *1047:20 6.635 
4 *1047:20 *3375:A1 5.79 
5 *1047:20 *1047:39 4.28 
6 *1047:39 *3368:A2 2.755 
7 *1047:39 *4320:A 4.825 
8 *1047:14 *3370:C 1.96 
9 *1047:8 *1047:68 5.93 
10 *1047:68 *1047:76 12.385 
11 *1047:76 *3320:A 3.43 
12 *1047:76 *3372:A1 1.6 
13 *1047:68 *3373:A2 3.565 
*END

*D_NET *1048 0.00913204
*CONN
*I *3373:A1 I *D sky130_fd_sc_hd__a311o_2
*I *3370:B I *D sky130_fd_sc_hd__nand4_2
*I *3368:A1 I *D sky130_fd_sc_hd__a31o_2
*I *3509:B2 I *D sky130_fd_sc_hd__o221a_2
*I *3510:B2 I *D sky130_fd_sc_hd__a221o_2
*I *3372:B1 I *D sky130_fd_sc_hd__a21oi_2
*I *3924:Q O *D sky130_fd_sc_hd__dfrtp_2
*CAP
1 *3373:A1 9.86499e-05
2 *3370:B 0
3 *3368:A1 0.000160001
4 *3509:B2 9.49818e-05
5 *3510:B2 0.000222658
6 *3372:B1 0
7 *3924:Q 2.6834e-05
8 *1048:69 0.000355578
9 *1048:35 0.00169879
10 *1048:10 0.00214888
11 *1048:6 0.000697636
12 *3368:A1 *3368:B1 3.86607e-05
13 *3373:A1 *3373:B1 7.00889e-06
14 *3509:B2 *3505:B 0
15 *3509:B2 *3509:A2 7.3664e-05
16 *3509:B2 *3513:B1 0.000127366
17 *3510:B2 *3509:A2 0.000214296
18 *3510:B2 *3513:B1 5.4003e-05
19 *3510:B2 *1056:6 2.49708e-05
20 *1048:35 *3513:B1 2.75229e-05
21 *1048:69 *3370:A 4.82919e-05
22 *3320:A *1048:35 0.000111901
23 *3370:C *1048:69 0
24 *3371:C *1048:69 1.52184e-05
25 *3373:A2 *3373:A1 3.09195e-05
26 *3373:A3 *3373:A1 7.23533e-05
27 *3375:A2 *1048:69 5.16418e-05
28 *3382:A1 *1048:35 0.000325629
29 *3382:A2 *1048:35 2.71296e-05
30 *3510:B1 *3510:B2 2.66464e-05
31 *3513:B2 *1048:35 0.000149279
32 *3513:C1 *1048:35 5.64111e-05
33 *3768:A1 *1048:69 0.000139815
34 *3772:B1 *1048:10 7.52765e-05
35 *3803:B1 *3510:B2 0
36 *3924:D *1048:10 4.66108e-05
37 *3924:RESET_B *1048:6 4.82919e-05
38 *3924:RESET_B *1048:10 7.69078e-05
39 *355:18 *1048:35 0.000542994
40 *358:8 *1048:35 0.000159867
41 *394:44 *1048:69 4.85795e-05
42 *394:52 *3368:A1 0.000464196
43 *394:52 *1048:69 7.21296e-06
44 *394:85 *1048:69 4.82919e-05
45 *626:64 *1048:10 2.59835e-05
46 *626:70 *1048:10 1.61831e-05
47 *626:70 *1048:35 0.000122331
48 *626:70 *1048:69 3.60566e-05
49 *644:77 *1048:69 3.9442e-05
50 *644:83 *1048:35 2.86265e-06
51 *1044:45 *1048:35 9.29176e-05
52 *1047:20 *3368:A1 0.000147057
53 *1047:39 *3368:A1 4.24292e-06
*RES
1 *3924:Q *1048:6 2.05 
2 *1048:6 *1048:10 7.275 
3 *1048:10 *3372:B1 1.6 
4 *1048:10 *1048:35 24.65 
5 *1048:35 *3510:B2 8.535 
6 *1048:35 *3509:B2 5.685 
7 *1048:10 *1048:69 8.605 
8 *1048:69 *3368:A1 11.06 
9 *1048:69 *3370:B 1.6 
10 *1048:6 *3373:A1 7.28 
*END

*D_NET *1049 0.00663044
*CONN
*I *3368:B1 I *D sky130_fd_sc_hd__a31o_2
*I *3370:A I *D sky130_fd_sc_hd__nand4_2
*I *3505:A I *D sky130_fd_sc_hd__xnor2_2
*I *3925:Q O *D sky130_fd_sc_hd__dfrtp_2
*CAP
1 *3368:B1 4.39902e-05
2 *3370:A 0.000162635
3 *3505:A 0.00139633
4 *3925:Q 0.000525866
5 *1049:8 0.00179156
6 *1049:6 0.000802454
7 *3368:A1 *3368:B1 3.86607e-05
8 *3375:A1 *1049:6 3.66286e-05
9 *3375:A1 *1049:8 0.000159741
10 *3375:A2 *3370:A 0.000332802
11 *3375:A2 *1049:8 1.19928e-05
12 *3375:B1 *3370:A 7.21296e-06
13 *3375:B1 *3505:A 2.75229e-05
14 *3376:B1 *3370:A 2.92496e-05
15 *3376:B1 *3505:A 4.82863e-05
16 *3376:B1 *1049:8 3.57349e-05
17 *3768:A1 *3370:A 3.83194e-05
18 *3922:CLK *3505:A 0.000238537
19 *3922:RESET_B *3505:A 0.00015737
20 *3923:D *3370:A 2.05583e-05
21 *3923:RESET_B *3368:B1 0
22 *3925:CLK *1049:8 1.6418e-05
23 *11:8 *3505:A 0.000106897
24 *394:27 *3370:A 4.82863e-05
25 *394:44 *3370:A 8.40269e-05
26 *394:52 *3368:B1 8.08153e-06
27 *626:70 *3370:A 0.000182342
28 *626:81 *3370:A 0.00015995
29 *644:103 *3370:A 0
30 *1047:39 *3368:B1 7.06865e-05
31 *1048:69 *3370:A 4.82919e-05
*RES
1 *3925:Q *1049:6 7.225 
2 *1049:6 *1049:8 2.865 
3 *1049:8 *3505:A 19.675 
4 *1049:8 *3370:A 11.435 
5 *1049:6 *3368:B1 6.725 
*END

*D_NET *1050 0.00548273
*CONN
*I *3363:A1 I *D sky130_fd_sc_hd__a31o_2
*I *4219:A I *D sky130_fd_sc_hd__dlygate4sd3_1
*I *3365:A I *D sky130_fd_sc_hd__and4_2
*I *3364:A I *D sky130_fd_sc_hd__and3_2
*I *3387:A1 I *D sky130_fd_sc_hd__o21ai_2
*I *3385:A1 I *D sky130_fd_sc_hd__a21o_2
*I *3926:Q O *D sky130_fd_sc_hd__dfrtp_2
*CAP
1 *3363:A1 0.00047992
2 *4219:A 0.000196067
3 *3365:A 0
4 *3364:A 3.13665e-05
5 *3387:A1 3.47125e-05
6 *3385:A1 2.55105e-05
7 *3926:Q 0.000647175
8 *1050:27 0.000119312
9 *1050:16 0.000354985
10 *1050:8 0.000462045
11 *1050:6 0.000549125
12 *3363:A1 *3434:B 6.65876e-05
13 *3363:A2 *3363:A1 1.86443e-05
14 *3363:A3 *3363:A1 4.82919e-05
15 *3364:B *3387:A1 0
16 *3364:C *3364:A 8.65905e-05
17 *3365:B *1050:16 0.000454245
18 *3386:A_N *1050:16 4.66108e-05
19 *3386:C *1050:16 6.6406e-05
20 *3387:B1 *3387:A1 2.97004e-06
21 *3387:B1 *1050:27 4.19967e-05
22 *3766:A2 *4219:A 0
23 *3774:B1 *3363:A1 8.65961e-05
24 *3918:RESET_B *4219:A 0
25 *3926:D *3363:A1 1.47256e-05
26 *4137:A *3363:A1 6.55328e-05
27 *4150:A *1050:6 4.82863e-05
28 *391:10 *3364:A 0.000160635
29 *606:67 *4219:A 0.00020272
30 *877:31 *3363:A1 4.80285e-05
31 *877:48 *3363:A1 2.42236e-05
32 *890:8 *1050:8 0.000142669
33 *891:62 *3363:A1 6.65066e-05
34 *1041:21 *3387:A1 0
35 *1041:23 *3364:A 4.82863e-05
36 *1041:25 *3364:A 4.82919e-05
37 *1041:40 *3387:A1 1.52184e-05
38 *1041:40 *1050:27 5.65627e-05
39 *1042:25 *1050:16 0.000625308
40 *1042:29 *3385:A1 4.82863e-05
41 *1042:29 *1050:16 4.82919e-05
*RES
1 *3926:Q *1050:6 4.12 
2 *1050:6 *1050:8 3.555 
3 *1050:8 *1050:16 8.175 
4 *1050:16 *3385:A1 2.05 
5 *1050:16 *1050:27 3.38 
6 *1050:27 *3387:A1 4.215 
7 *1050:27 *3364:A 5.085 
8 *1050:8 *3365:A 1.6 
9 *1050:6 *4219:A 9.785 
10 *3926:Q *3363:A1 15.765 
*END

*D_NET *1051 0.00664969
*CONN
*I *3369:B I *D sky130_fd_sc_hd__nor2_2
*I *3373:B1 I *D sky130_fd_sc_hd__a311o_2
*I *3437:B2 I *D sky130_fd_sc_hd__a22o_2
*I *3333:A I *D sky130_fd_sc_hd__inv_2
*I *3434:B I *D sky130_fd_sc_hd__or2_2
*I *3997:Q O *D sky130_fd_sc_hd__dfrtp_2
*CAP
1 *3369:B 0
2 *3373:B1 0.000176258
3 *3437:B2 0.000352103
4 *3333:A 3.26704e-05
5 *3434:B 0.00072534
6 *3997:Q 0.000219164
7 *1051:39 0.000541228
8 *1051:20 0.0011893
9 *1051:16 0.000568522
10 *1051:10 0.000303922
11 *3333:A *3436:A2 1.85674e-05
12 *3373:B1 *4291:A 0
13 *3437:B2 *3436:A2 8.53113e-06
14 *3437:B2 *3437:A2 0.000161529
15 *3437:B2 *3438:A2 9.50342e-06
16 *3437:B2 *1062:10 0.000139238
17 *3437:B2 *1062:30 0.000379663
18 *1051:16 *3369:A 4.82863e-05
19 *1051:39 *3436:A2 5.4155e-06
20 *1051:39 *3528:A2 3.09179e-05
21 *3363:A1 *3434:B 6.65876e-05
22 *3363:A2 *3434:B 7.94881e-06
23 *3363:A3 *3434:B 0
24 *3363:B1 *3434:B 0.000201511
25 *3363:B1 *1051:20 2.86623e-05
26 *3363:B1 *1051:39 4.80285e-05
27 *3373:A1 *3373:B1 7.00889e-06
28 *3373:A2 *3373:B1 9.53428e-06
29 *3434:A *3434:B 8.8266e-05
30 *3436:A1 *3437:B2 1.19928e-05
31 *3436:A1 *1051:39 7.67415e-06
32 *3436:B1 *3437:B2 0
33 *3436:B2 *3437:B2 5.83121e-06
34 *3527:B1 *3434:B 0
35 *3528:B1 *3434:B 2.75145e-05
36 *3773:B1 *3373:B1 5.72091e-05
37 *3926:D *3434:B 8.40213e-05
38 *3926:RESET_B *3434:B 9.23971e-05
39 *3986:RESET_B *1051:20 0
40 *3996:CLK *1051:10 0.000151541
41 *3996:CLK *1051:16 3.7712e-05
42 *4098:A *1051:10 8.8266e-05
43 *396:14 *1051:10 0.000256157
44 *626:8 *1051:10 0.000163204
45 *644:55 *3434:B 5.50989e-05
46 *645:114 *3373:B1 2.16389e-05
47 *645:114 *1051:20 0.000221728
48 *879:37 *1051:20 0
*RES
1 *3997:Q *1051:10 7.345 
2 *1051:10 *1051:16 3.5 
3 *1051:16 *1051:20 8.48 
4 *1051:20 *3434:B 16.475 
5 *1051:20 *1051:39 2.19 
6 *1051:39 *3333:A 2.215 
7 *1051:39 *3437:B2 13.505 
8 *1051:16 *3373:B1 6.81 
9 *1051:10 *3369:B 1.6 
*END

*D_NET *1052 0.00151522
*CONN
*I *4291:A I *D sky130_fd_sc_hd__dlygate4sd3_1
*I *3369:A I *D sky130_fd_sc_hd__nor2_2
*I *3986:Q O *D sky130_fd_sc_hd__dfrtp_2
*CAP
1 *4291:A 0.000204303
2 *3369:A 0.000173649
3 *3986:Q 4.74729e-05
4 *1052:8 0.000425426
5 *3373:B1 *4291:A 0
6 *3794:B1 *4291:A 2.78732e-05
7 *3986:RESET_B *1052:8 0
8 *3996:CLK *3369:A 0.000284977
9 *879:59 *4291:A 3.25831e-05
10 *879:59 *1052:8 9.71067e-05
11 *879:68 *4291:A 0.00017354
12 *1051:16 *3369:A 4.82863e-05
*RES
1 *3986:Q *1052:8 4.725 
2 *1052:8 *3369:A 7.38 
3 *1052:8 *4291:A 7.485 
*END

*D_NET *1053 0.0020027
*CONN
*I *3507:B I *D sky130_fd_sc_hd__xor2_2
*I *3987:Q O *D sky130_fd_sc_hd__dfrtp_2
*CAP
1 *3507:B 0.000559515
2 *3987:Q 0.000559515
3 *3507:A *3507:B 0
4 *3795:A2 *3507:B 0.000122797
5 *3795:B1 *3507:B 4.21579e-05
6 *3796:B1 *3507:B 2.05056e-05
7 *3987:RESET_B *3507:B 0.000274855
8 *3988:D *3507:B 0.000273639
9 *3989:D *3507:B 0
10 *876:26 *3507:B 9.43747e-05
11 *876:30 *3507:B 8.73389e-06
12 *890:37 *3507:B 4.66108e-05
*RES
1 *3987:Q *3507:B 16.3925 
*END

*D_NET *1054 0.000283199
*CONN
*I *3508:B I *D sky130_fd_sc_hd__xnor2_2
*I *3988:Q O *D sky130_fd_sc_hd__dfrtp_2
*CAP
1 *3508:B 0.000104227
2 *3988:Q 0.000104227
3 *890:27 *3508:B 7.47457e-05
*RES
1 *3988:Q *3508:B 5.03 
*END

*D_NET *1055 0.00142742
*CONN
*I *3506:B I *D sky130_fd_sc_hd__xor2_2
*I *3989:Q O *D sky130_fd_sc_hd__dfrtp_2
*CAP
1 *3506:B 0.000569412
2 *3989:Q 0.000569412
3 *3513:C1 *3506:B 2.65337e-05
4 *3988:D *3506:B 0.000160658
5 *3990:CLK *3506:B 0.00010141
*RES
1 *3989:Q *3506:B 15.2525 
*END

*D_NET *1056 0.00165275
*CONN
*I *3509:A2 I *D sky130_fd_sc_hd__o221a_2
*I *3510:A2 I *D sky130_fd_sc_hd__a221o_2
*I *3990:Q O *D sky130_fd_sc_hd__dfrtp_2
*CAP
1 *3509:A2 0.000164711
2 *3510:A2 3.60935e-05
3 *3990:Q 0.000127205
4 *1056:6 0.000328009
5 *3509:A1 *3509:A2 1.26626e-05
6 *3509:B2 *3509:A2 7.3664e-05
7 *3510:A1 *3509:A2 6.00081e-05
8 *3510:A1 *3510:A2 5.20437e-05
9 *3510:B1 *1056:6 5.30673e-05
10 *3510:B2 *3509:A2 0.000214296
11 *3510:B2 *1056:6 2.49708e-05
12 *3510:C1 *1056:6 0.000122331
13 *3515:B *3509:A2 0.000383684
*RES
1 *3990:Q *1056:6 4.12 
2 *1056:6 *3510:A2 2.42875 
3 *1056:6 *3509:A2 11.57 
*END

*D_NET *1057 0.0022285
*CONN
*I *3513:A2 I *D sky130_fd_sc_hd__a221oi_2
*I *3512:A2 I *D sky130_fd_sc_hd__o221a_2
*I *3991:Q O *D sky130_fd_sc_hd__dfrtp_2
*CAP
1 *3513:A2 0
2 *3512:A2 0.000232394
3 *3991:Q 0.000215256
4 *1057:12 0.00044765
5 *3510:B1 *3512:A2 7.24866e-05
6 *3510:B1 *1057:12 0.000183738
7 *3512:C1 *3512:A2 2.75145e-05
8 *3799:A1 *1057:12 1.91597e-05
9 *3799:B1 *1057:12 4.82863e-05
10 *3803:B1 *1057:12 0.000183738
11 *387:14 *3512:A2 4.43871e-06
12 *625:8 *1057:12 0.000137277
13 *641:99 *1057:12 0.000234181
14 *876:70 *1057:12 0.000224523
15 *876:87 *3512:A2 0
16 *890:79 *1057:12 0.000197853
*RES
1 *3991:Q *1057:12 14.06 
2 *1057:12 *3512:A2 9.68 
3 *1057:12 *3513:A2 1.6 
*END

*D_NET *1058 0.0027089
*CONN
*I *3511:B1 I *D sky130_fd_sc_hd__o2bb2a_2
*I *3513:B1 I *D sky130_fd_sc_hd__a221oi_2
*I *3992:Q O *D sky130_fd_sc_hd__dfrtp_2
*CAP
1 *3511:B1 0.000131205
2 *3513:B1 0.000164446
3 *3992:Q 0.000566914
4 *1058:6 0.000862566
5 *3509:B2 *3513:B1 0.000127366
6 *3509:C1 *3511:B1 4.11112e-05
7 *3509:C1 *3513:B1 5.16348e-05
8 *3510:B2 *3513:B1 5.4003e-05
9 *3511:B2 *3511:B1 0
10 *3512:A1 *3513:B1 3.23391e-05
11 *3512:C1 *3511:B1 7.57202e-05
12 *3512:C1 *1058:6 0.000495107
13 *3513:A1 *3513:B1 7.89611e-05
14 *1048:35 *3513:B1 2.75229e-05
*RES
1 *3992:Q *1058:6 8.605 
2 *1058:6 *3513:B1 9.305 
3 *1058:6 *3511:B1 7.775 
*END

*D_NET *1059 0.00336694
*CONN
*I *3512:B1 I *D sky130_fd_sc_hd__o221a_2
*I *3511:A2_N I *D sky130_fd_sc_hd__o2bb2a_2
*I *3993:Q O *D sky130_fd_sc_hd__dfrtp_2
*CAP
1 *3512:B1 5.61866e-05
2 *3511:A2_N 0.000565777
3 *3993:Q 0.000549077
4 *1059:10 0.00117104
5 *1059:10 *3354:A 4.88555e-05
6 *3512:B2 *3511:A2_N 0.000290058
7 *3512:B2 *3512:B1 0.000112123
8 *3512:B2 *1059:10 7.70828e-05
9 *3512:C1 *3512:B1 1.12643e-05
10 *3801:A1 *1059:10 6.21763e-05
11 *3801:B1 *1059:10 1.77665e-05
12 *3803:A1 *1059:10 0.000120655
13 *3993:RESET_B *1059:10 0.000122797
14 *387:14 *1059:10 0
15 *876:87 *3512:B1 4.40725e-05
16 *876:100 *3512:B1 2.97004e-06
17 *876:100 *1059:10 9.64383e-05
18 *890:113 *1059:10 6.91408e-06
19 *890:120 *1059:10 1.16854e-05
*RES
1 *3993:Q *1059:10 11.955 
2 *1059:10 *3511:A2_N 10.71 
3 *1059:10 *3512:B1 5.08875 
*END

*D_NET *1060 0.000249347
*CONN
*I *3354:A I *D sky130_fd_sc_hd__inv_2
*I *3994:Q O *D sky130_fd_sc_hd__dfrtp_2
*CAP
1 *3354:A 7.00782e-05
2 *3994:Q 7.00782e-05
3 *3802:A1 *3354:A 5.67399e-05
4 *876:100 *3354:A 3.59531e-06
5 *1059:10 *3354:A 4.88555e-05
*RES
1 *3994:Q *3354:A 8.58 
*END

*D_NET *1061 0.000414151
*CONN
*I *3505:B I *D sky130_fd_sc_hd__xnor2_2
*I *3995:Q O *D sky130_fd_sc_hd__dfrtp_2
*CAP
1 *3505:B 0.000176211
2 *3995:Q 0.000176211
3 *3509:B2 *3505:B 0
4 *3509:C1 *3505:B 8.66107e-06
5 *3512:B2 *3505:B 5.30673e-05
*RES
1 *3995:Q *3505:B 9.93 
*END

*D_NET *1062 0.00367181
*CONN
*I *3436:A2 I *D sky130_fd_sc_hd__a22o_2
*I *3528:A2 I *D sky130_fd_sc_hd__a21o_2
*I *3334:A I *D sky130_fd_sc_hd__inv_2
*I *3438:A2 I *D sky130_fd_sc_hd__a22o_2
*I *3938:Q O *D sky130_fd_sc_hd__dfstp_2
*CAP
1 *3436:A2 0.00023125
2 *3528:A2 8.9657e-05
3 *3334:A 0
4 *3438:A2 0.000235013
5 *3938:Q 6.21999e-05
6 *1062:30 0.000481147
7 *1062:10 0.000273187
8 *1062:8 0.000260613
9 *1062:8 *1063:8 8.40269e-05
10 *3333:A *3436:A2 1.85674e-05
11 *3363:B1 *3528:A2 0.000160635
12 *3363:B1 *1062:30 5.72829e-05
13 *3436:A1 *3436:A2 7.28616e-05
14 *3436:A1 *3528:A2 0.000238919
15 *3436:B1 *3436:A2 1.94805e-05
16 *3436:B1 *3438:A2 0
17 *3436:B2 *3436:A2 4.82919e-05
18 *3437:B2 *3436:A2 8.53113e-06
19 *3437:B2 *3438:A2 9.50342e-06
20 *3437:B2 *1062:10 0.000139238
21 *3437:B2 *1062:30 0.000379663
22 *3438:B1 *3438:A2 9.8106e-05
23 *3442:B1 *3438:A2 0.000129116
24 *3526:A1 *3438:A2 0.000164686
25 *3526:A1 *1062:10 0.000129047
26 *3526:A1 *1062:30 0.000244453
27 *709:10 *3438:A2 0
28 *1030:28 *3438:A2 0
29 *1051:39 *3436:A2 5.4155e-06
30 *1051:39 *3528:A2 3.09179e-05
*RES
1 *3938:Q *1062:8 4.395 
2 *1062:8 *1062:10 1.635 
3 *1062:10 *3438:A2 8.505 
4 *1062:10 *3334:A 3.6 
5 *1062:8 *1062:30 4.95 
6 *1062:30 *3528:A2 6.225 
7 *1062:30 *3436:A2 7.68375 
*END

*D_NET *1063 0.00314787
*CONN
*I *3437:A2 I *D sky130_fd_sc_hd__a22o_2
*I *4319:A I *D sky130_fd_sc_hd__dlygate4sd3_1
*I *3527:A1 I *D sky130_fd_sc_hd__o211a_2
*I *3939:Q O *D sky130_fd_sc_hd__dfrtp_2
*CAP
1 *3437:A2 0.00032808
2 *4319:A 0
3 *3527:A1 0.000497334
4 *3939:Q 0.000279263
5 *1063:29 0.000375659
6 *1063:8 0.000824175
7 *3527:A1 *3527:A2 0.000112734
8 *3363:B1 *1063:29 6.36578e-05
9 *3434:A *3527:A1 0
10 *3437:B1 *3437:A2 4.82919e-05
11 *3437:B2 *3437:A2 0.000161529
12 *3527:C1 *3527:A1 1.47347e-05
13 *3528:B1 *3527:A1 2.99016e-05
14 *3938:CLK *3527:A1 5.20476e-05
15 *3938:D *3527:A1 0.00013493
16 *3938:D *1063:29 6.5525e-05
17 *367:12 *3437:A2 2.75145e-05
18 *424:12 *3527:A1 4.84687e-05
19 *1062:8 *1063:8 8.40269e-05
*RES
1 *3939:Q *1063:8 5.515 
2 *1063:8 *3527:A1 8.72125 
3 *1063:8 *1063:29 5.38 
4 *1063:29 *4319:A 1.6 
5 *1063:29 *3437:A2 7.01875 
*END

*D_NET *1064 0.00117913
*CONN
*I *4213:A I *D sky130_fd_sc_hd__dlygate4sd3_1
*I *3940:Q O *D sky130_fd_sc_hd__dfrtp_2
*CAP
1 *4213:A 0.000533917
2 *3940:Q 0.000533917
3 *3526:B1 *4213:A 4.92935e-05
4 *3788:B1 *4213:A 0
5 *3940:D *4213:A 6.19997e-05
6 *3940:RESET_B *4213:A 0
7 *1030:18 *4213:A 0
8 *1030:28 *4213:A 0
*RES
1 *3940:Q *4213:A 15.18 
*END

*D_NET *1065 0.00169508
*CONN
*I *3527:A2 I *D sky130_fd_sc_hd__o211a_2
*I *4262:A I *D sky130_fd_sc_hd__dlygate4sd3_1
*I *3338:A I *D sky130_fd_sc_hd__inv_2
*I *3941:Q O *D sky130_fd_sc_hd__dfrtp_2
*CAP
1 *3527:A2 0.000203678
2 *4262:A 9.65989e-05
3 *3338:A 0
4 *3941:Q 0.000284252
5 *1065:10 0.000177173
6 *3434:A *3527:A2 0.000105799
7 *3435:B2 *1065:10 4.66108e-05
8 *3438:A1 *4262:A 0.000207797
9 *3438:A1 *1065:10 1.1561e-05
10 *3527:A1 *3527:A2 0.000112734
11 *3527:C1 *3527:A2 9.83662e-06
12 *3528:B1 *3527:A2 2.67184e-05
13 *3786:A2 *1065:10 3.18137e-05
14 *3941:CLK *3527:A2 9.17155e-05
15 *645:101 *3527:A2 6.10014e-05
16 *993:46 *4262:A 9.50342e-06
17 *993:58 *4262:A 0.000102134
18 *993:58 *1065:10 0.000116158
*RES
1 *3941:Q *1065:10 5.43 
2 *1065:10 *3338:A 3.6 
3 *1065:10 *4262:A 6.45 
4 *3941:Q *3527:A2 11.22 
*END

*D_NET *1066 0.000475379
*CONN
*I *4222:A I *D sky130_fd_sc_hd__dlygate4sd3_1
*I *3998:Q O *D sky130_fd_sc_hd__dfrtp_2
*CAP
1 *4222:A 0.000136037
2 *3998:Q 0.000136037
3 *4222:A *3520:B 0.00012657
4 *3433:B1 *4222:A 7.67345e-05
*RES
1 *3998:Q *4222:A 6.065 
*END

*D_NET *1067 0.0112154
*CONN
*I *3399:A I *D sky130_fd_sc_hd__inv_2
*I *3400:B I *D sky130_fd_sc_hd__and2_2
*I *3522:B I *D sky130_fd_sc_hd__and2_2
*I *3679:B1 I *D sky130_fd_sc_hd__a22o_2
*I *3998:D I *D sky130_fd_sc_hd__dfrtp_2
*I *3398:Y O *D sky130_fd_sc_hd__nor2_2
*CAP
1 *3399:A 6.39466e-05
2 *3400:B 0
3 *3522:B 0.000152747
4 *3679:B1 0.000827967
5 *3998:D 0.000717282
6 *3398:Y 0.000327407
7 *1067:70 0.000334515
8 *1067:53 0.00146189
9 *1067:28 0.00225642
10 *3337:A *3679:B1 0
11 *3337:A *1067:28 0
12 *3361:B *1067:28 0.000103192
13 *3362:S *1067:28 7.1001e-05
14 *3363:A2 *3998:D 0.000132401
15 *3400:A *3399:A 8.8266e-05
16 *3430:B1 *1067:28 9.36526e-05
17 *3432:A2 *3399:A 2.30292e-05
18 *3433:B1 *1067:28 9.01848e-05
19 *3462:B2 *3679:B1 0
20 *3468:B1 *3679:B1 0.00027064
21 *3525:A0 *3679:B1 3.32709e-05
22 *3525:A1 *3679:B1 0
23 *3525:S *3679:B1 0.000117832
24 *3661:A1 *3998:D 0.000220637
25 *3686:A1 *3679:B1 3.79555e-05
26 *3686:B1 *3679:B1 0.00020183
27 *3927:RESET_B *3679:B1 0.000343914
28 *3932:D *3399:A 1.34594e-05
29 *3932:D *1067:70 3.03684e-05
30 *3956:CLK *3679:B1 0.000186099
31 *3956:D *3679:B1 1.82476e-05
32 *3980:RESET_B *3522:B 0.000231564
33 *3998:RESET_B *3679:B1 0
34 *4016:SET_B *3998:D 0.000274675
35 *4019:D *3679:B1 2.04147e-05
36 *4164:A *3679:B1 4.41468e-05
37 *4301:A *3679:B1 6.49616e-05
38 *120:12 *3679:B1 0.000350946
39 *120:12 *1067:28 1.7635e-05
40 *354:24 *3998:D 0.000492013
41 *617:124 *3679:B1 0.000438104
42 *646:53 *3998:D 0.000155601
43 *749:12 *3679:B1 0
44 *894:32 *3998:D 9.42224e-05
45 *898:16 *3522:B 2.49909e-05
46 *898:18 *3522:B 5.4003e-05
47 *898:46 *3522:B 0.000251803
48 *898:46 *1067:70 6.28008e-05
49 *978:10 *3679:B1 0.000259373
50 *978:18 *3679:B1 0.000159964
51 *993:14 *1067:28 0
*RES
1 *3398:Y *3998:D 17.13 
2 *3998:D *1067:28 11.6625 
3 *1067:28 *3679:B1 26.9025 
4 *1067:28 *1067:53 3.25213 
5 *1067:53 *3522:B 7.9425 
6 *1067:53 *1067:70 5.9525 
7 *1067:70 *3400:B 1.6 
8 *1067:70 *3399:A 3.085 
*END

*D_NET *1068 0.0041269
*CONN
*I *3499:A_N I *D sky130_fd_sc_hd__and2b_2
*I *3497:A1 I *D sky130_fd_sc_hd__a211o_2
*I *3486:A I *D sky130_fd_sc_hd__xor2_2
*I *3854:Q O *D sky130_fd_sc_hd__dfstp_2
*CAP
1 *3499:A_N 0.000230422
2 *3497:A1 0.000205767
3 *3486:A 0.000241301
4 *3854:Q 7.83845e-05
5 *1068:19 0.000641386
6 *1068:8 0.000524882
7 *3486:A *3496:B 0.000185405
8 *3486:A *3539:A 4.83328e-05
9 *3486:A *1069:12 0.000163019
10 *3486:A *1069:18 0
11 *3486:A *1081:53 1.22676e-05
12 *3499:A_N *3350:A 3.74161e-05
13 *3499:A_N *3499:B 8.65905e-05
14 *3499:A_N *1109:46 0.000308969
15 *1068:8 *1069:8 8.40269e-05
16 *1068:19 *3495:B 0.000152807
17 *1068:19 *3496:B 0.000238043
18 *1068:19 *1069:12 3.09233e-05
19 *1068:19 *1109:46 0.000358937
20 *3497:A2 *3499:A_N 5.05437e-05
21 *3497:B1 *3497:A1 5.20897e-05
22 *3539:B *3486:A 0.000100536
23 *3637:A0 *1068:19 2.15594e-05
24 *4025:D *3499:A_N 6.44134e-05
25 *4026:CLK *3499:A_N 0
26 *4026:CLK *1068:19 0
27 *4145:A *1068:19 6.73751e-05
28 *485:10 *3486:A 0
29 *610:98 *1068:19 0
30 *685:10 *1068:19 5.57814e-05
31 *901:32 *3499:A_N 8.57237e-05
*RES
1 *3854:Q *1068:8 4.74 
2 *1068:8 *3486:A 9.315 
3 *1068:8 *1068:19 6.99 
4 *1068:19 *3497:A1 6.48 
5 *1068:19 *3499:A_N 9.795 
*END

*D_NET *1069 0.00340628
*CONN
*I *3495:B I *D sky130_fd_sc_hd__and2b_2
*I *3496:A_N I *D sky130_fd_sc_hd__and2b_2
*I *3487:A1 I *D sky130_fd_sc_hd__a21o_2
*I *3489:A_N I *D sky130_fd_sc_hd__and2b_2
*I *3855:Q O *D sky130_fd_sc_hd__dfstp_2
*CAP
1 *3495:B 7.31597e-05
2 *3496:A_N 0
3 *3487:A1 0
4 *3489:A_N 0.000173123
5 *3855:Q 6.34003e-05
6 *1069:18 0.000694108
7 *1069:12 0.000569153
8 *1069:8 0.000184728
9 *3489:A_N *3489:B 0.000124895
10 *1069:18 *3496:B 6.05539e-05
11 *3486:A *1069:12 0.000163019
12 *3486:A *1069:18 0
13 *3487:B1 *1069:18 0
14 *3539:B *3489:A_N 1.34361e-05
15 *3539:B *1069:18 0.000306778
16 *3543:C1 *3489:A_N 4.99619e-05
17 *3626:A2 *3489:A_N 0
18 *3626:A2 *1069:18 0
19 *3637:A0 *3495:B 0.000160651
20 *3637:A0 *1069:12 0.000183738
21 *3808:B1 *1069:18 0
22 *483:86 *3489:A_N 7.82993e-05
23 *660:27 *3495:B 0.000119756
24 *900:18 *3495:B 0.000119756
25 *1068:8 *1069:8 8.40269e-05
26 *1068:19 *3495:B 0.000152807
27 *1068:19 *1069:12 3.09233e-05
*RES
1 *3855:Q *1069:8 4.74 
2 *1069:8 *1069:12 4.145 
3 *1069:12 *1069:18 11.84 
4 *1069:18 *3489:A_N 6.885 
5 *1069:18 *3487:A1 3.6 
6 *1069:12 *3496:A_N 1.6 
7 *1069:8 *3495:B 6.63 
*END

*D_NET *1070 0.00191711
*CONN
*I *3335:A I *D sky130_fd_sc_hd__inv_2
*I *4315:A I *D sky130_fd_sc_hd__dlygate4sd3_1
*I *3427:A2 I *D sky130_fd_sc_hd__a22o_2
*I *4015:Q O *D sky130_fd_sc_hd__dfrtp_2
*CAP
1 *3335:A 0.000338216
2 *4315:A 8.65883e-05
3 *3427:A2 1.23906e-05
4 *4015:Q 0.00014789
5 *1070:12 9.89789e-05
6 *1070:10 0.000486106
7 *3427:A1 *4315:A 3.23663e-05
8 *3427:B1 *4315:A 9.91257e-05
9 *3427:B2 *3335:A 0
10 *3427:B2 *1070:10 0
11 *3432:A2 *3335:A 0.000133095
12 *3781:B1 *1070:10 0
13 *4216:A *3335:A 0.00013994
14 *4216:A *1070:10 5.16348e-05
15 *883:36 *4315:A 0.000188719
16 *898:16 *1070:10 4.99619e-05
17 *898:91 *3335:A 5.20981e-05
*RES
1 *4015:Q *1070:10 5.685 
2 *1070:10 *1070:12 2 
3 *1070:12 *3427:A2 1.855 
4 *1070:12 *4315:A 4.825 
5 *1070:10 *3335:A 9.495 
*END

*D_NET *1071 0.00683625
*CONN
*I *3532:B I *D sky130_fd_sc_hd__nand2_2
*I *3536:B I *D sky130_fd_sc_hd__and4_2
*I *3490:A I *D sky130_fd_sc_hd__or4b_2
*I *3531:B I *D sky130_fd_sc_hd__or2_2
*I *3534:A2 I *D sky130_fd_sc_hd__a31o_2
*I *3537:A2 I *D sky130_fd_sc_hd__a31o_2
*I *4289:A I *D sky130_fd_sc_hd__dlygate4sd3_1
*I *3999:Q O *D sky130_fd_sc_hd__dfrtp_2
*CAP
1 *3532:B 0.000203017
2 *3536:B 0
3 *3490:A 0.00015547
4 *3531:B 0
5 *3534:A2 6.44352e-05
6 *3537:A2 0.000160721
7 *4289:A 0.000150455
8 *3999:Q 0
9 *1071:64 0.00041442
10 *1071:53 0.000344446
11 *1071:49 0.00032335
12 *1071:38 0.000217637
13 *1071:21 0.000445768
14 *1071:6 0.000317138
15 *3490:A *1080:21 9.30717e-05
16 *3532:B *3532:A 4.28483e-05
17 *3532:B *1078:10 0.000148769
18 *3532:B *1078:12 1.22762e-05
19 *3532:B *1087:10 0
20 *3534:A2 *3534:A3 1.47256e-05
21 *3537:A2 *3537:A3 0.000331053
22 *3537:A2 *3537:B1 0
23 *1071:38 *3537:A3 0.000111455
24 *1071:38 *1078:14 1.82476e-05
25 *1071:49 *1078:12 3.18137e-05
26 *1071:49 *1078:14 2.97004e-06
27 *1071:53 *3531:A 4.82863e-05
28 *1071:64 *4292:A 7.17811e-05
29 *1071:64 *1080:21 2.07184e-05
30 *3494:B *3490:A 5.05437e-05
31 *3529:A2 *4289:A 0
32 *3529:B1 *4289:A 0
33 *3530:A1 *3490:A 2.42236e-05
34 *3530:A2 *3490:A 7.00889e-06
35 *3533:A *3532:B 2.86817e-05
36 *3533:A *1071:38 7.17312e-05
37 *3533:B *3532:B 7.23533e-05
38 *3535:A1 *1071:53 6.52349e-05
39 *3535:A1 *1071:64 0.000111909
40 *3535:A2 *3532:B 0.000183731
41 *3535:B1 *3532:B 2.30797e-05
42 *3535:B1 *1071:38 3.25831e-05
43 *3535:B1 *1071:49 8.76033e-05
44 *3538:B *3537:A2 0.00032378
45 *3538:B *1071:38 4.66108e-05
46 *3807:A1 *1071:21 0
47 *3810:A2 *3490:A 0.000121296
48 *4002:CLK *4289:A 0
49 *4002:CLK *1071:21 0
50 *4002:D *1071:21 7.09999e-05
51 *4015:D *1071:21 0
52 *4132:A *3532:B 0
53 *479:10 *4289:A 0.000231564
54 *479:10 *1071:21 0.000267591
55 *479:21 *1071:21 6.05081e-05
56 *479:21 *1071:38 9.34773e-06
57 *479:42 *1071:38 6.71767e-05
58 *481:8 *3532:B 0.000252282
59 *612:6 *4289:A 8.40269e-05
60 *612:43 *4289:A 0
61 *656:109 *3534:A2 1.16578e-05
62 *656:109 *1071:38 8.30039e-05
63 *897:60 *3490:A 0.000195244
64 *897:60 *1071:64 0.000345455
65 *902:50 *3534:A2 1.03423e-05
66 *904:44 *3490:A 9.41342e-05
67 *904:44 *1071:64 5.7672e-05
*RES
1 *3999:Q *1071:6 3.6 
2 *1071:6 *4289:A 7.05 
3 *1071:6 *1071:21 5.93 
4 *1071:21 *3537:A2 6.385 
5 *1071:21 *1071:38 5.54 
6 *1071:38 *3534:A2 4.395 
7 *1071:38 *1071:49 1.125 
8 *1071:49 *1071:53 3.485 
9 *1071:53 *3531:B 1.6 
10 *1071:53 *1071:64 8.015 
11 *1071:64 *3490:A 8.325 
12 *1071:64 *3536:B 3.6 
13 *1071:49 *3532:B 10.335 
*END

*D_NET *1072 0.00305514
*CONN
*I *3555:B1 I *D sky130_fd_sc_hd__a21oi_2
*I *3492:D I *D sky130_fd_sc_hd__or4_2
*I *3556:B I *D sky130_fd_sc_hd__and3_2
*I *3558:D I *D sky130_fd_sc_hd__and4_2
*I *4009:Q O *D sky130_fd_sc_hd__dfrtp_2
*CAP
1 *3555:B1 0
2 *3492:D 0
3 *3556:B 0.000146109
4 *3558:D 0
5 *4009:Q 0.00016862
6 *1072:24 0.000283692
7 *1072:14 0.000342012
8 *1072:10 0.000373049
9 *3556:B *3492:C 3.25515e-05
10 *3556:B *3556:A 0.000154153
11 *1072:10 *4161:A 4.61744e-05
12 *1072:14 *3555:A1 7.68843e-05
13 *1072:24 *3492:C 0.000226617
14 *1072:24 *3555:A1 0.000121437
15 *1072:24 *3556:A 4.66108e-05
16 *1072:24 *3558:A 4.82863e-05
17 *1072:24 *3558:B 0.000224344
18 *3493:B *3556:B 0.000162311
19 *3493:B *1072:24 9.80943e-06
20 *828:42 *1072:10 0
21 *902:10 *1072:10 5.72004e-05
22 *902:19 *1072:10 6.23206e-05
23 *910:20 *1072:10 0.000472961
*RES
1 *4009:Q *1072:10 11.06 
2 *1072:10 *1072:14 2.88 
3 *1072:14 *1072:24 4.83 
4 *1072:24 *3558:D 1.6 
5 *1072:24 *3556:B 5.35 
6 *1072:14 *3492:D 1.6 
7 *1072:10 *3555:B1 1.6 
*END

*D_NET *1073 0.00241376
*CONN
*I *4239:A I *D sky130_fd_sc_hd__dlygate4sd3_1
*I *3492:C I *D sky130_fd_sc_hd__or4_2
*I *3558:C I *D sky130_fd_sc_hd__and4_2
*I *4010:Q O *D sky130_fd_sc_hd__dfrtp_2
*CAP
1 *4239:A 0.000146031
2 *3492:C 9.22821e-05
3 *3558:C 0
4 *4010:Q 5.06588e-05
5 *1073:22 0.000301908
6 *1073:10 0.000406316
7 *3492:C *3555:A1 4.66108e-05
8 *1073:10 *1086:36 9.54399e-05
9 *1073:22 *3556:A 2.49e-05
10 *1073:22 *1086:36 1.59309e-05
11 *1073:22 *1086:57 1.28428e-05
12 *1073:22 *1086:74 0
13 *3493:B *3492:C 0.000203178
14 *3556:B *3492:C 3.25515e-05
15 *3557:B *4239:A 0.000267187
16 *3557:B *1073:22 1.91597e-05
17 *3557:C *1073:22 0.000120655
18 *4009:D *1073:22 9.54469e-05
19 *657:23 *1073:10 0
20 *896:10 *4239:A 4.82919e-05
21 *904:105 *1073:22 0.000154447
22 *904:111 *1073:22 5.33085e-05
23 *1072:24 *3492:C 0.000226617
*RES
1 *4010:Q *1073:10 6.725 
2 *1073:10 *1073:22 8.44 
3 *1073:22 *3558:C 1.6 
4 *1073:22 *3492:C 4.825 
5 *1073:10 *4239:A 4.93 
*END

*D_NET *1074 0.00216354
*CONN
*I *3565:B I *D sky130_fd_sc_hd__and2_2
*I *3562:A I *D sky130_fd_sc_hd__or2_2
*I *3563:A I *D sky130_fd_sc_hd__nand2_2
*I *3491:B I *D sky130_fd_sc_hd__or4_2
*I *4011:Q O *D sky130_fd_sc_hd__dfrtp_2
*CAP
1 *3565:B 0.000138858
2 *3562:A 2.55105e-05
3 *3563:A 6.8584e-05
4 *3491:B 1.57715e-05
5 *4011:Q 0.00022742
6 *1074:38 0.000164369
7 *1074:16 0.000156892
8 *1074:14 0.000299956
9 *3491:B *3491:C 5.16348e-05
10 *3491:B *3491:D 5.16348e-05
11 *1074:14 *3491:A 4.49987e-05
12 *1074:14 *4326:A 4.05358e-05
13 *1074:14 *1075:12 8.95366e-05
14 *1074:16 *3491:A 7.36562e-05
15 *1074:16 *3491:C 8.53113e-06
16 *1074:16 *3491:D 2.23922e-05
17 *3562:B *3563:A 3.00381e-05
18 *3562:B *1074:16 4.40812e-05
19 *3563:B *3563:A 5.4155e-06
20 *3564:A *1074:14 5.2089e-05
21 *3564:B *1074:14 7.23533e-05
22 *3564:C *3562:A 4.82863e-05
23 *3564:C *3565:B 0.000198945
24 *3564:C *1074:14 0
25 *3567:A1 *1074:14 4.82863e-05
26 *3820:A1 *1074:14 0
27 *4084:A *3563:A 1.34594e-05
28 *498:21 *3563:A 3.96653e-05
29 *501:12 *3563:A 4.82919e-05
30 *501:12 *1074:14 0
31 *501:12 *1074:16 0
32 *904:86 *3563:A 8.23457e-05
*RES
1 *4011:Q *1074:14 8.535 
2 *1074:14 *1074:16 1.89 
3 *1074:16 *3491:B 4.215 
4 *1074:16 *3563:A 5.445 
5 *1074:14 *1074:38 2 
6 *1074:38 *3562:A 2.05 
7 *1074:38 *3565:B 4.135 
*END

*D_NET *1075 0.00185589
*CONN
*I *4326:A I *D sky130_fd_sc_hd__dlygate4sd3_1
*I *3565:A I *D sky130_fd_sc_hd__and2_2
*I *3491:A I *D sky130_fd_sc_hd__or4_2
*I *4012:Q O *D sky130_fd_sc_hd__dfrtp_2
*CAP
1 *4326:A 7.42621e-05
2 *3565:A 3.48054e-05
3 *3491:A 0.000110757
4 *4012:Q 0
5 *1075:12 0.000264113
6 *1075:6 0.000192812
7 *3493:A *3491:A 0
8 *3564:A *4326:A 0
9 *3564:B *1075:12 7.4027e-05
10 *3564:C *3491:A 1.0183e-05
11 *3564:C *3565:A 7.57202e-05
12 *3564:C *1075:12 0.000119756
13 *3567:A1 *4326:A 0.000247465
14 *3567:A1 *1075:12 0.000231571
15 *3820:A1 *4326:A 1.01661e-05
16 *4011:D *4326:A 0.000161529
17 *1074:14 *3491:A 4.49987e-05
18 *1074:14 *4326:A 4.05358e-05
19 *1074:14 *1075:12 8.95366e-05
20 *1074:16 *3491:A 7.36562e-05
*RES
1 *4012:Q *1075:6 3.6 
2 *1075:6 *1075:12 5.795 
3 *1075:12 *3491:A 7.745 
4 *1075:12 *3565:A 2.395 
5 *1075:6 *4326:A 6.465 
*END

*D_NET *1076 0.00418746
*CONN
*I *3569:A1 I *D sky130_fd_sc_hd__o21a_2
*I *3491:D I *D sky130_fd_sc_hd__or4_2
*I *3568:A1 I *D sky130_fd_sc_hd__a21oi_2
*I *3570:A1 I *D sky130_fd_sc_hd__a21oi_2
*I *3571:A2 I *D sky130_fd_sc_hd__a31o_2
*I *4013:Q O *D sky130_fd_sc_hd__dfrtp_2
*CAP
1 *3569:A1 0
2 *3491:D 0.000250461
3 *3568:A1 3.45763e-05
4 *3570:A1 0.000352228
5 *3571:A2 0
6 *4013:Q 0.000136347
7 *1076:33 0.000502694
8 *1076:31 0.000539127
9 *1076:23 0.000399109
10 *1076:12 0.000362681
11 *3491:D *3491:C 4.9498e-05
12 *1076:23 *3571:A1 4.43467e-05
13 *3491:B *3491:D 5.16348e-05
14 *3568:B1 *1076:31 3.79555e-05
15 *3569:B1 *1076:31 0.000293719
16 *3570:A2 *3570:A1 3.00381e-05
17 *3570:B1 *3568:A1 8.8266e-05
18 *3571:A3 *1076:23 0.000205925
19 *3571:A3 *1076:31 4.82863e-05
20 *3572:A *3570:A1 0.000120186
21 *3572:B *3568:A1 8.65905e-05
22 *3820:A2 *1076:12 0
23 *4013:RESET_B *1076:12 3.44935e-05
24 *4014:D *3570:A1 0.000118527
25 *4014:RESET_B *1076:12 7.4027e-05
26 *4128:A *3491:D 1.12129e-05
27 *4128:A *1076:12 0
28 *4128:A *1076:31 0.000193757
29 *501:12 *3491:D 1.65192e-05
30 *503:16 *3568:A1 1.74043e-05
31 *503:16 *3570:A1 0
32 *503:18 *3568:A1 2.97004e-06
33 *503:18 *3570:A1 0
34 *503:18 *1076:31 0
35 *503:24 *1076:31 2.0514e-05
36 *654:72 *3570:A1 0
37 *904:86 *3491:D 4.1977e-05
38 *919:10 *1076:31 0
39 *1074:16 *3491:D 2.23922e-05
*RES
1 *4013:Q *1076:12 8.03 
2 *1076:12 *3571:A2 1.6 
3 *1076:12 *1076:23 4.275 
4 *1076:23 *1076:31 7.8625 
5 *1076:31 *1076:33 0.2128 
6 *1076:33 *3570:A1 7.26837 
7 *1076:33 *3568:A1 5.3825 
8 *1076:31 *3491:D 6.44683 
9 *1076:23 *3569:A1 1.6 
*END

*D_NET *1077 0.00167508
*CONN
*I *4294:A I *D sky130_fd_sc_hd__dlygate4sd3_1
*I *3491:C I *D sky130_fd_sc_hd__or4_2
*I *3571:A1 I *D sky130_fd_sc_hd__a31o_2
*I *4014:Q O *D sky130_fd_sc_hd__dfrtp_2
*CAP
1 *4294:A 0
2 *3491:C 0.000120108
3 *3571:A1 0.000120983
4 *4014:Q 4.28024e-05
5 *1077:27 0.000312326
6 *1077:8 0.000356004
7 *3491:B *3491:C 5.16348e-05
8 *3491:D *3491:C 4.9498e-05
9 *3493:A *3491:C 0
10 *3571:A3 *3571:A1 5.4155e-06
11 *3571:B1 *3571:A1 1.85674e-05
12 *3572:B *3491:C 1.52184e-05
13 *3572:B *3571:A1 3.89528e-05
14 *3572:B *1077:27 0.000175646
15 *3820:A2 *1077:27 6.52265e-05
16 *4014:RESET_B *3571:A1 0.000139933
17 *4014:RESET_B *1077:8 1.1392e-05
18 *4014:RESET_B *1077:27 9.84957e-05
19 *4128:A *3491:C 0
20 *4128:A *3571:A1 0
21 *1074:16 *3491:C 8.53113e-06
22 *1076:23 *3571:A1 4.43467e-05
*RES
1 *4014:Q *1077:8 4.05 
2 *1077:8 *3571:A1 6.3 
3 *1077:8 *1077:27 6.485 
4 *1077:27 *3491:C 7.745 
5 *1077:27 *4294:A 1.6 
*END

*D_NET *1078 0.00458205
*CONN
*I *3532:A I *D sky130_fd_sc_hd__nand2_2
*I *3531:A I *D sky130_fd_sc_hd__or2_2
*I *3534:A1 I *D sky130_fd_sc_hd__a31o_2
*I *3536:A I *D sky130_fd_sc_hd__and4_2
*I *3537:A1 I *D sky130_fd_sc_hd__a31o_2
*I *3490:D_N I *D sky130_fd_sc_hd__or4b_2
*I *4000:Q O *D sky130_fd_sc_hd__dfrtp_2
*CAP
1 *3532:A 0.000181404
2 *3531:A 9.73191e-06
3 *3534:A1 0
4 *3536:A 3.50956e-05
5 *3537:A1 0.000299317
6 *3490:D_N 0.000163818
7 *4000:Q 3.81447e-05
8 *1078:16 0.00050691
9 *1078:14 0.000167473
10 *1078:12 0.000139449
11 *1078:10 0.000201331
12 *1078:8 0.000360301
13 *3532:A *1087:10 0
14 *3536:A *3537:A3 0.000158072
15 *3537:A1 *3537:A3 3.23663e-05
16 *3537:A1 *3537:B1 0.000200087
17 *3530:A2 *3490:D_N 6.54766e-05
18 *3532:B *3532:A 4.28483e-05
19 *3532:B *1078:10 0.000148769
20 *3532:B *1078:12 1.22762e-05
21 *3533:B *1078:10 3.86529e-05
22 *3535:A1 *3531:A 4.82863e-05
23 *3538:A_N *3537:A1 4.66108e-05
24 *3538:C *3537:A1 1.43717e-05
25 *3809:A1 *3532:A 8.65905e-05
26 *3809:A2 *3532:A 4.82863e-05
27 *3810:A1 *3490:D_N 0.000160536
28 *3810:A1 *1078:14 4.61256e-05
29 *3810:A1 *1078:16 4.40713e-05
30 *3810:A2 *3490:D_N 0.000121437
31 *3810:B1 *3490:D_N 0.000229203
32 *4000:RESET_B *1078:8 1.4399e-05
33 *4001:RESET_B *3532:A 2.67022e-05
34 *4001:RESET_B *1078:10 7.04021e-05
35 *479:42 *3536:A 0.000158072
36 *656:109 *3490:D_N 7.06865e-05
37 *656:109 *1078:14 0.00014684
38 *656:109 *1078:16 8.17626e-05
39 *882:58 *1078:10 0.000143501
40 *882:58 *1078:12 6.28765e-05
41 *882:58 *1078:14 5.84456e-05
42 *1071:38 *1078:14 1.82476e-05
43 *1071:49 *1078:12 3.18137e-05
44 *1071:49 *1078:14 2.97004e-06
45 *1071:53 *3531:A 4.82863e-05
*RES
1 *4000:Q *1078:8 4.05 
2 *1078:8 *1078:10 4.95 
3 *1078:10 *1078:12 1.38 
4 *1078:12 *1078:14 2.4 
5 *1078:14 *1078:16 1.125 
6 *1078:16 *3490:D_N 8.865 
7 *1078:16 *3537:A1 7.5 
8 *1078:14 *3536:A 5.085 
9 *1078:12 *3534:A1 3.6 
10 *1078:10 *3531:A 4.05 
11 *1078:8 *3532:A 7.17 
*END

*D_NET *1079 0.00537593
*CONN
*I *3344:A I *D sky130_fd_sc_hd__inv_2
*I *3534:A3 I *D sky130_fd_sc_hd__a31o_2
*I *3537:A3 I *D sky130_fd_sc_hd__a31o_2
*I *3488:A I *D sky130_fd_sc_hd__or4b_2
*I *3536:C I *D sky130_fd_sc_hd__and4_2
*I *4001:Q O *D sky130_fd_sc_hd__dfrtp_2
*CAP
1 *3344:A 7.91294e-05
2 *3534:A3 0.00012999
3 *3537:A3 0.000206296
4 *3488:A 0.000183571
5 *3536:C 2.06293e-05
6 *4001:Q 0.000229949
7 *1079:16 0.000226691
8 *1079:12 0.000296661
9 *1079:10 0.000348685
10 *3534:A3 *4292:A 0.000159741
11 *3536:C *3536:D 4.66108e-05
12 *3537:A3 *3536:D 0.000118081
13 *3537:A3 *3537:B1 0.000496431
14 *3490:C *3488:A 0.00023468
15 *3534:A2 *3534:A3 1.47256e-05
16 *3534:B1 *3534:A3 4.66108e-05
17 *3535:A1 *1079:10 6.36578e-05
18 *3536:A *3537:A3 0.000158072
19 *3537:A1 *3537:A3 3.23663e-05
20 *3537:A2 *3537:A3 0.000331053
21 *3538:A_N *3488:A 3.66286e-05
22 *3538:A_N *3536:C 8.40269e-05
23 *3543:B1 *3488:A 0
24 *3543:C1 *3488:A 0.000308719
25 *3543:C1 *1079:10 2.86623e-05
26 *3543:C1 *1079:12 7.87234e-05
27 *3543:C1 *1079:16 1.56477e-05
28 *3626:A1 *1079:10 2.54436e-05
29 *3626:A1 *1079:16 8.09021e-06
30 *3626:A2 *3488:A 0.000139245
31 *451:10 *3534:A3 4.66108e-05
32 *451:10 *1079:12 0.000124302
33 *451:10 *1079:16 4.90031e-05
34 *479:42 *3488:A 2.10134e-05
35 *479:42 *3537:A3 0.000157877
36 *487:12 *3488:A 0
37 *656:109 *3534:A3 7.08913e-05
38 *882:52 *3344:A 8.95933e-05
39 *882:58 *3344:A 7.00889e-06
40 *897:60 *1079:10 0.000166096
41 *897:60 *1079:12 1.1561e-05
42 *902:50 *3534:A3 0.000291516
43 *904:8 *1079:10 4.50017e-05
44 *904:25 *3534:A3 3.51884e-05
45 *1071:38 *3537:A3 0.000111455
*RES
1 *4001:Q *1079:10 7.725 
2 *1079:10 *1079:12 1.89 
3 *1079:12 *1079:16 2.615 
4 *1079:16 *3536:C 2.395 
5 *1079:16 *3488:A 10.79 
6 *1079:12 *3537:A3 11.655 
7 *1079:10 *3534:A3 7.86 
8 *4001:Q *3344:A 5.045 
*END

*D_NET *1080 0.00259147
*CONN
*I *3536:D I *D sky130_fd_sc_hd__and4_2
*I *3537:B1 I *D sky130_fd_sc_hd__a31o_2
*I *3488:D_N I *D sky130_fd_sc_hd__or4b_2
*I *4002:Q O *D sky130_fd_sc_hd__dfrtp_2
*CAP
1 *3536:D 3.67006e-05
2 *3537:B1 0.000141576
3 *3488:D_N 0.000223297
4 *4002:Q 0
5 *1080:21 0.00024094
6 *1080:4 0.000285962
7 *3490:A *1080:21 9.30717e-05
8 *3494:A *3488:D_N 9.52434e-05
9 *3536:C *3536:D 4.66108e-05
10 *3537:A1 *3537:B1 0.000200087
11 *3537:A2 *3537:B1 0
12 *3537:A3 *3536:D 0.000118081
13 *3537:A3 *3537:B1 0.000496431
14 *3538:A_N *3536:D 3.24882e-05
15 *3538:A_N *3537:B1 0.000230435
16 *3538:C *3537:B1 1.43717e-05
17 *142:12 *3488:D_N 4.66742e-05
18 *483:27 *3488:D_N 0.000205904
19 *904:44 *1080:21 6.28765e-05
20 *1071:64 *1080:21 2.07184e-05
*RES
1 *4002:Q *1080:4 1.6 
2 *1080:4 *3488:D_N 5.875 
3 *1080:4 *1080:21 5.38 
4 *1080:21 *3537:B1 7 
5 *1080:21 *3536:D 2.74 
*END

*D_NET *1081 0.00490178
*CONN
*I *3539:A I *D sky130_fd_sc_hd__nand2_2
*I *3486:B I *D sky130_fd_sc_hd__xor2_2
*I *3540:A I *D sky130_fd_sc_hd__or2_2
*I *3542:A I *D sky130_fd_sc_hd__and3_2
*I *3547:A I *D sky130_fd_sc_hd__and4_2
*I *4003:Q O *D sky130_fd_sc_hd__dfrtp_2
*CAP
1 *3539:A 5.97485e-05
2 *3486:B 7.84582e-05
3 *3540:A 6.50989e-05
4 *3542:A 3.85926e-05
5 *3547:A 0.000225677
6 *4003:Q 0.000609084
7 *1081:53 0.000273959
8 *1081:12 0.000445665
9 *1081:10 0.00028624
10 *1081:8 0.000784582
11 *3542:A *3488:C 0.000122337
12 *3542:A *3547:C 8.40213e-05
13 *3547:A *3547:B 4.66108e-05
14 *3547:A *1082:31 4.82863e-05
15 *3547:A *1084:27 3.96088e-05
16 *3486:A *3539:A 4.83328e-05
17 *3486:A *1081:53 1.22676e-05
18 *3539:B *1081:53 0
19 *3540:B *3540:A 0.000198939
20 *3541:C *3540:A 4.60584e-05
21 *4003:CLK *1081:10 0.000129047
22 *4003:CLK *1081:12 0.000133555
23 *4003:CLK *1081:53 4.61595e-05
24 *485:10 *3539:A 7.3664e-05
25 *485:10 *1081:10 0.000137571
26 *485:10 *1081:12 4.9968e-05
27 *485:10 *1081:53 0.000195649
28 *490:8 *3547:A 0
29 *612:98 *3547:A 1.88904e-05
30 *612:98 *1081:12 0.000167529
31 *656:109 *3540:A 0.000275548
32 *882:52 *3486:B 0.000160635
*RES
1 *4003:Q *1081:8 9.915 
2 *1081:8 *1081:10 1.635 
3 *1081:10 *1081:12 3.675 
4 *1081:12 *3547:A 6.6 
5 *1081:12 *3542:A 4.74 
6 *1081:10 *3540:A 6.48 
7 *1081:8 *1081:53 3.72 
8 *1081:53 *3486:B 3.7925 
9 *1081:53 *3539:A 5.235 
*END

*D_NET *1082 0.00272792
*CONN
*I *3345:A I *D sky130_fd_sc_hd__inv_2
*I *3542:B I *D sky130_fd_sc_hd__and3_2
*I *3488:B I *D sky130_fd_sc_hd__or4b_2
*I *3547:B I *D sky130_fd_sc_hd__and4_2
*I *4004:Q O *D sky130_fd_sc_hd__dfrtp_2
*CAP
1 *3345:A 0
2 *3542:B 0
3 *3488:B 0.000219947
4 *3547:B 2.84454e-05
5 *4004:Q 0.000398127
6 *1082:31 0.000593663
7 *1082:16 0.000440129
8 *1082:14 0.000436095
9 *3488:B *3488:C 7.67345e-05
10 *3547:B *1084:27 8.40213e-05
11 *1082:31 *3488:C 8.30885e-05
12 *1082:31 *1084:27 2.26018e-05
13 *3543:A1 *3547:B 7.00889e-06
14 *3543:A1 *1082:14 2.46089e-05
15 *3543:A1 *1082:16 3.00381e-05
16 *3547:A *3547:B 4.66108e-05
17 *3547:A *1082:31 4.82863e-05
18 *4004:RESET_B *1082:14 7.23533e-05
19 *483:27 *3488:B 2.66586e-05
20 *483:39 *3488:B 2.75145e-05
21 *483:39 *1082:31 2.49909e-05
22 *656:89 *1082:14 0
23 *902:50 *1082:14 3.7002e-05
*RES
1 *4004:Q *1082:14 10.64 
2 *1082:14 *1082:16 0.795 
3 *1082:16 *3547:B 2.74 
4 *1082:16 *1082:31 5.325 
5 *1082:31 *3488:B 4.465 
6 *1082:31 *3542:B 1.6 
7 *1082:14 *3345:A 1.6 
*END

*D_NET *1083 0.00490967
*CONN
*I *3547:C I *D sky130_fd_sc_hd__and4_2
*I *3346:A I *D sky130_fd_sc_hd__inv_2
*I *3489:B I *D sky130_fd_sc_hd__and2b_2
*I *3544:A I *D sky130_fd_sc_hd__nand2_2
*I *3545:A I *D sky130_fd_sc_hd__or2_2
*I *4005:Q O *D sky130_fd_sc_hd__dfrtp_2
*CAP
1 *3547:C 0.000175992
2 *3346:A 6.26739e-05
3 *3489:B 9.95394e-05
4 *3544:A 0.000108498
5 *3545:A 0
6 *4005:Q 0.000570147
7 *1083:38 0.000251442
8 *1083:36 0.000350009
9 *1083:23 0.000333191
10 *1083:10 0.000710052
11 *3547:C *3488:C 3.90495e-05
12 *3547:C *1084:27 4.99619e-05
13 *1083:10 *3347:A 9.18292e-06
14 *1083:10 *1084:10 6.89704e-05
15 *1083:10 *1084:27 4.76581e-05
16 *1083:23 *1084:27 2.78732e-05
17 *3489:A_N *3489:B 0.000124895
18 *3541:A *3346:A 3.23391e-05
19 *3542:A *3547:C 8.40213e-05
20 *3543:A2 *3346:A 9.21178e-05
21 *3543:A2 *1083:38 4.92861e-05
22 *3543:C1 *3489:B 6.90876e-05
23 *3545:B *3544:A 2.99597e-05
24 *3545:B *1083:23 1.12578e-05
25 *3546:A *3346:A 5.75242e-06
26 *3546:A *3544:A 2.49909e-05
27 *3546:A *1083:36 4.03932e-05
28 *3546:A *1083:38 7.45509e-05
29 *3546:B *3544:A 6.33103e-05
30 *3546:B *1083:23 2.75229e-05
31 *3546:C *1083:23 0.000234674
32 *4003:CLK *3346:A 3.50033e-05
33 *4004:D *3489:B 0.000120655
34 *4005:D *1083:10 3.18219e-05
35 *479:42 *3489:B 0.000349587
36 *483:39 *1083:36 0.000158297
37 *487:12 *3544:A 4.66108e-05
38 *490:8 *1083:10 0
39 *612:98 *3547:C 1.88904e-05
40 *612:98 *1083:36 0.000116571
41 *612:98 *1083:38 4.48591e-05
42 *902:50 *3346:A 7.06865e-05
43 *902:50 *3489:B 4.82863e-05
*RES
1 *4005:Q *1083:10 10.935 
2 *1083:10 *3545:A 3.6 
3 *1083:10 *1083:23 5.135 
4 *1083:23 *3544:A 3.79 
5 *1083:23 *1083:36 4.7825 
6 *1083:36 *1083:38 1.7625 
7 *1083:38 *3489:B 7.5 
8 *1083:38 *3346:A 5.49 
9 *1083:36 *3547:C 6.1125 
*END

*D_NET *1084 0.00345613
*CONN
*I *3547:D I *D sky130_fd_sc_hd__and4_2
*I *3488:C I *D sky130_fd_sc_hd__or4b_2
*I *3347:A I *D sky130_fd_sc_hd__inv_2
*I *4006:Q O *D sky130_fd_sc_hd__dfrtp_2
*CAP
1 *3547:D 0
2 *3488:C 0.000163326
3 *3347:A 0.000314985
4 *4006:Q 0.0003852
5 *1084:27 0.00048833
6 *1084:10 0.00102519
7 *3488:B *3488:C 7.67345e-05
8 *3542:A *3488:C 0.000122337
9 *3542:C *3488:C 3.57349e-05
10 *3547:A *1084:27 3.96088e-05
11 *3547:B *1084:27 8.40213e-05
12 *3547:C *3488:C 3.90495e-05
13 *3547:C *1084:27 4.99619e-05
14 *4005:D *3347:A 4.82919e-05
15 *4005:RESET_B *1084:10 0
16 *483:27 *3488:C 0.000198934
17 *483:39 *3488:C 8.23457e-05
18 *490:8 *1084:10 0
19 *490:8 *1084:27 0
20 *612:94 *3347:A 4.27071e-05
21 *656:78 *1084:10 0
22 *656:78 *1084:27 0
23 *1082:31 *3488:C 8.30885e-05
24 *1082:31 *1084:27 2.26018e-05
25 *1083:10 *3347:A 9.18292e-06
26 *1083:10 *1084:10 6.89704e-05
27 *1083:10 *1084:27 4.76581e-05
28 *1083:23 *1084:27 2.78732e-05
*RES
1 *4006:Q *1084:10 8.61 
2 *1084:10 *3347:A 7.425 
3 *1084:10 *1084:27 7.415 
4 *1084:27 *3488:C 6.55 
5 *1084:27 *3547:D 1.6 
*END

*D_NET *1085 0.00380842
*CONN
*I *3550:B1 I *D sky130_fd_sc_hd__a21oi_2
*I *3492:B I *D sky130_fd_sc_hd__or4_2
*I *3558:B I *D sky130_fd_sc_hd__and4_2
*I *3551:A I *D sky130_fd_sc_hd__and3_2
*I *4007:Q O *D sky130_fd_sc_hd__dfrtp_2
*CAP
1 *3550:B1 0.000274999
2 *3492:B 0
3 *3558:B 0.000304345
4 *3551:A 0.000412577
5 *4007:Q 0.000288567
6 *1085:19 0.000406272
7 *1085:17 0.000376926
8 *1085:6 0.000701144
9 *3558:B *3558:A 4.99619e-05
10 *3552:B *3550:B1 0
11 *3552:B *1085:19 0
12 *3555:A2 *3558:B 7.47215e-05
13 *3555:A2 *1085:19 0.00011379
14 *3815:A1 *1085:19 7.47284e-05
15 *4007:CLK *3551:A 2.11084e-05
16 *4007:D *3550:B1 0
17 *656:69 *3558:B 1.62093e-05
18 *656:69 *1085:19 1.97849e-05
19 *657:23 *3558:B 8.1877e-05
20 *657:23 *1085:19 4.10318e-05
21 *657:36 *3550:B1 0.000232258
22 *657:36 *1085:19 9.37731e-05
23 *1072:24 *3558:B 0.000224344
*RES
1 *4007:Q *1085:6 4.465 
2 *1085:6 *3551:A 6.205 
3 *1085:6 *1085:17 2 
4 *1085:17 *1085:19 2.91 
5 *1085:19 *3558:B 8.4 
6 *1085:19 *3492:B 3.6 
7 *1085:17 *3550:B1 8.775 
*END

*D_NET *1086 0.00522612
*CONN
*I *3555:A1 I *D sky130_fd_sc_hd__a21oi_2
*I *3492:A I *D sky130_fd_sc_hd__or4_2
*I *3558:A I *D sky130_fd_sc_hd__and4_2
*I *3556:A I *D sky130_fd_sc_hd__and3_2
*I *3553:A1 I *D sky130_fd_sc_hd__a21oi_2
*I *3554:A1 I *D sky130_fd_sc_hd__o21a_2
*I *4008:Q O *D sky130_fd_sc_hd__dfrtp_2
*CAP
1 *3555:A1 0.000132747
2 *3492:A 0
3 *3558:A 1.61063e-05
4 *3556:A 0.00033522
5 *3553:A1 0.000215995
6 *3554:A1 0.000106317
7 *4008:Q 0.000347268
8 *1086:74 0.000255327
9 *1086:57 0.000253859
10 *1086:36 0.00069552
11 *1086:21 0.000630057
12 *1086:8 0.000622519
13 *3554:A1 *1118:14 4.89395e-05
14 *3492:C *3555:A1 4.66108e-05
15 *3553:A2 *3553:A1 4.82863e-05
16 *3556:B *3556:A 0.000154153
17 *3556:C *3556:A 4.66108e-05
18 *3558:B *3558:A 4.99619e-05
19 *4008:RESET_B *1086:8 4.20711e-05
20 *4009:CLK *3553:A1 6.99796e-05
21 *4009:D *3553:A1 3.00381e-05
22 *4009:D *1086:36 0.000213515
23 *4129:A *1086:8 2.49909e-05
24 *613:82 *1086:21 0
25 *613:97 *1086:21 0
26 *613:97 *1086:36 0
27 *613:103 *3553:A1 0.000193801
28 *655:6 *1086:8 8.34281e-06
29 *655:14 *1086:8 0.000128878
30 *657:23 *1086:21 0
31 *657:23 *1086:36 0
32 *657:23 *1086:74 1.88904e-05
33 *881:23 *3554:A1 4.77807e-05
34 *1072:14 *3555:A1 7.68843e-05
35 *1072:24 *3555:A1 0.000121437
36 *1072:24 *3556:A 4.66108e-05
37 *1072:24 *3558:A 4.82863e-05
38 *1073:10 *1086:36 9.54399e-05
39 *1073:22 *3556:A 2.49e-05
40 *1073:22 *1086:36 1.59309e-05
41 *1073:22 *1086:57 1.28428e-05
42 *1073:22 *1086:74 0
*RES
1 *4008:Q *1086:8 7.845 
2 *1086:8 *3554:A1 5.43 
3 *1086:8 *1086:21 2.655 
4 *1086:21 *3553:A1 7.965 
5 *1086:21 *1086:36 5.5875 
6 *1086:36 *3556:A 8.6475 
7 *1086:36 *1086:57 1.41 
8 *1086:57 *3558:A 4.2825 
9 *1086:57 *1086:74 3.3725 
10 *1086:74 *3492:A 1.6 
11 *1086:74 *3555:A1 4.6 
*END

*D_NET *1087 0.00297291
*CONN
*I *4163:A I *D sky130_fd_sc_hd__clkdlybuf4s25_1
*I *4292:A I *D sky130_fd_sc_hd__dlygate4sd3_1
*I *4018:Q O *D sky130_fd_sc_hd__dfrtp_2
*CAP
1 *4163:A 0
2 *4292:A 0.000105864
3 *4018:Q 0.000705022
4 *1087:10 0.000810886
5 *3532:A *1087:10 0
6 *3532:B *1087:10 0
7 *3534:A3 *4292:A 0.000159741
8 *3809:A2 *1087:10 7.24866e-05
9 *4001:RESET_B *1087:10 0.000272313
10 *610:23 *1087:10 0.000261123
11 *882:58 *4292:A 8.0005e-05
12 *882:58 *1087:10 0.000120875
13 *897:60 *4292:A 9.3062e-06
14 *897:60 *1087:10 0.0001369
15 *904:25 *4292:A 0.000158072
16 *904:44 *4292:A 8.53113e-06
17 *1071:64 *4292:A 7.17811e-05
*RES
1 *4018:Q *1087:10 16.98 
2 *1087:10 *4292:A 6.975 
3 *1087:10 *4163:A 3.6 
*END

*D_NET *1088 0.00197178
*CONN
*I *3429:B1 I *D sky130_fd_sc_hd__a22o_2
*I *3433:A1 I *D sky130_fd_sc_hd__a22o_2
*I *3931:Q O *D sky130_fd_sc_hd__dfstp_2
*CAP
1 *3429:B1 0
2 *3433:A1 0.000379048
3 *3931:Q 0.00036308
4 *1088:10 0.000742128
5 *3433:A1 *3520:B 0.000147331
6 *1088:10 *1092:10 5.07419e-05
7 *3429:A2 *1088:10 7.89611e-05
8 *3433:A2 *3433:A1 0.000136416
9 *3520:A *3433:A1 5.30673e-05
10 *3931:SET_B *1088:10 0
11 *4316:A *3433:A1 2.10034e-05
12 *898:46 *3433:A1 0
13 *911:30 *3433:A1 0
14 *911:30 *1088:10 0
15 *996:12 *3433:A1 0
*RES
1 *3931:Q *1088:10 10.125 
2 *1088:10 *3433:A1 9.915 
3 *1088:10 *3429:B1 3.6 
*END

*D_NET *1089 0.00601856
*CONN
*I *4235:A I *D sky130_fd_sc_hd__dlygate4sd3_1
*I *3625:B I *D sky130_fd_sc_hd__nor3_2
*I *3932:Q O *D sky130_fd_sc_hd__dfrtp_2
*CAP
1 *4235:A 0
2 *3625:B 0.000364297
3 *3932:Q 0.000833436
4 *1089:22 0.00119773
5 *3428:B1 *3625:B 0.00122702
6 *3521:A *3625:B 0.000131791
7 *3521:B *1089:22 0.000157595
8 *3783:B1 *1089:22 0.000114492
9 *3932:RESET_B *1089:22 7.4027e-05
10 *3975:D *1089:22 7.89269e-05
11 *3975:RESET_B *1089:22 0.000371249
12 *4083:A *1089:22 5.98004e-06
13 *4099:A *3625:B 0.00102881
14 *4104:A *1089:22 4.82919e-05
15 *360:12 *1089:22 0
16 *360:14 *3625:B 0.000208908
17 *627:8 *3625:B 8.65905e-05
18 *658:50 *1089:22 3.9442e-05
19 *997:10 *1089:22 4.99619e-05
*RES
1 *3932:Q *1089:22 23.445 
2 *1089:22 *3625:B 21.23 
3 *1089:22 *4235:A 1.6 
*END

*D_NET *1090 0.00153371
*CONN
*I *4212:A I *D sky130_fd_sc_hd__dlygate4sd3_1
*I *3933:Q O *D sky130_fd_sc_hd__dfrtp_2
*CAP
1 *4212:A 0.000315897
2 *3933:Q 0.000315897
3 *4212:A *4215:A 0
4 *3521:B *4212:A 0.0004262
5 *3780:A2 *4212:A 0
6 *3937:D *4212:A 7.4027e-05
7 *3937:RESET_B *4212:A 0
8 *4216:A *4212:A 0.000276441
9 *611:8 *4212:A 8.65905e-05
10 *883:122 *4212:A 3.86607e-05
11 *898:102 *4212:A 0
*RES
1 *3933:Q *4212:A 14.97 
*END

*D_NET *1091 0.00138577
*CONN
*I *4192:A I *D sky130_fd_sc_hd__dlygate4sd3_1
*I *3934:Q O *D sky130_fd_sc_hd__dfrtp_2
*CAP
1 *4192:A 0.000331197
2 *3934:Q 0.000331197
3 *3396:A *4192:A 8.23457e-05
4 *3782:B1 *4192:A 0.000292059
5 *3934:CLK *4192:A 6.3124e-06
6 *880:59 *4192:A 0.000342657
*RES
1 *3934:Q *4192:A 13.485 
*END

*D_NET *1092 0.00191849
*CONN
*I *4232:A I *D sky130_fd_sc_hd__dlygate4sd3_1
*I *3431:B I *D sky130_fd_sc_hd__and2_2
*I *3935:Q O *D sky130_fd_sc_hd__dfrtp_2
*CAP
1 *4232:A 0
2 *3431:B 0.000214908
3 *3935:Q 0.000321089
4 *1092:10 0.000535997
5 *3431:A *3431:B 6.97461e-05
6 *3783:A1 *3431:B 2.30292e-05
7 *3783:A2 *3431:B 0.000119756
8 *3783:B1 *3431:B 8.23457e-05
9 *3935:RESET_B *3431:B 0.000163985
10 *3935:RESET_B *1092:10 0.000118513
11 *4233:A *3431:B 4.35432e-05
12 *898:46 *3431:B 9.78543e-06
13 *911:30 *3431:B 0.00010506
14 *911:30 *1092:10 5.99925e-05
15 *1088:10 *1092:10 5.07419e-05
*RES
1 *3935:Q *1092:10 8.19 
2 *1092:10 *3431:B 9.315 
3 *1092:10 *4232:A 3.6 
*END

*D_NET *1093 0.00614809
*CONN
*I *3625:A I *D sky130_fd_sc_hd__nor3_2
*I *3428:A2 I *D sky130_fd_sc_hd__a21o_2
*I *4278:A I *D sky130_fd_sc_hd__dlygate4sd3_1
*I *3520:B I *D sky130_fd_sc_hd__and2_2
*I *3936:Q O *D sky130_fd_sc_hd__dfrtp_2
*CAP
1 *3625:A 3.21229e-05
2 *3428:A2 0.000412358
3 *4278:A 5.57369e-05
4 *3520:B 0.000432797
5 *3936:Q 0.000548907
6 *1093:46 0.000748918
7 *1093:18 0.000660514
8 *1093:12 0.00102532
9 *3428:B1 *3428:A2 0.000649795
10 *3430:A2 *1093:18 2.05056e-05
11 *3433:A1 *3520:B 0.000147331
12 *3433:A2 *3520:B 0.000138097
13 *3433:B1 *3520:B 0.000187037
14 *3625:C *3625:A 0
15 *3625:C *1093:46 0
16 *3931:D *4278:A 3.00381e-05
17 *3934:D *1093:46 0
18 *3936:CLK *1093:12 4.98015e-05
19 *3936:D *1093:46 0.000320834
20 *4120:A *1093:18 8.8266e-05
21 *4222:A *3520:B 0.00012657
22 *4265:A *3520:B 4.82863e-05
23 *4316:A *3520:B 5.05521e-05
24 *686:10 *1093:46 0
25 *911:42 *4278:A 9.07793e-05
26 *911:42 *1093:18 3.73239e-05
27 *993:14 *3520:B 9.7872e-05
28 *993:14 *1093:12 9.82856e-06
29 *993:14 *1093:18 3.83732e-05
30 *993:14 *1093:46 1.61461e-05
31 *993:23 *1093:46 1.73877e-05
32 *993:46 *3625:A 1.94892e-05
33 *993:46 *1093:46 4.70995e-05
*RES
1 *3936:Q *1093:12 9.9075 
2 *1093:12 *1093:18 5.0825 
3 *1093:18 *3520:B 15.575 
4 *1093:18 *4278:A 3.085 
5 *1093:12 *1093:46 6.3525 
6 *1093:46 *3428:A2 10.035 
7 *1093:46 *3625:A 4.215 
*END

*D_NET *1094 0.00108264
*CONN
*I *4215:A I *D sky130_fd_sc_hd__dlygate4sd3_1
*I *3937:Q O *D sky130_fd_sc_hd__dfrtp_2
*CAP
1 *4215:A 0.000340361
2 *3937:Q 0.000340361
3 *3933:RESET_B *4215:A 5.92849e-05
4 *3937:CLK *4215:A 4.65515e-05
5 *4212:A *4215:A 0
6 *4216:A *4215:A 0.000296081
7 *883:103 *4215:A 0
8 *883:122 *4215:A 0
*RES
1 *3937:Q *4215:A 13.14 
*END

*D_NET *1095 0.000607751
*CONN
*I *4209:A I *D sky130_fd_sc_hd__dlygate4sd3_1
*I *4019:Q O *D sky130_fd_sc_hd__dfrtp_2
*CAP
1 *4209:A 0.000131171
2 *4019:Q 0.000131171
3 *3980:D *4209:A 0.000112823
4 *4154:A *4209:A 0.000121437
5 *991:10 *4209:A 0.000111149
*RES
1 *4019:Q *4209:A 9.72 
*END

*D_NET *1096 0.00428874
*CONN
*I *3421:A_N I *D sky130_fd_sc_hd__and2b_2
*I *3425:A1 I *D sky130_fd_sc_hd__a21oi_2
*I *3423:A I *D sky130_fd_sc_hd__nand2_2
*I *4037:Q O *D sky130_fd_sc_hd__dfrtp_2
*CAP
1 *3421:A_N 6.13785e-05
2 *3425:A1 0
3 *3423:A 0.000407586
4 *4037:Q 0.00018498
5 *1096:29 0.000620817
6 *1096:8 0.00115201
7 *3421:A_N *3421:B 3.00381e-05
8 *3421:A_N *1116:38 2.18022e-05
9 *3423:A *1115:8 5.12859e-05
10 *1096:29 *3425:B1 0.000160635
11 *1096:29 *1116:38 4.16262e-05
12 *3397:B *3423:A 0.000116158
13 *3424:A3 *3423:A 0.000533443
14 *3424:B2 *3423:A 0
15 *3426:C1 *1096:29 2.30292e-05
16 *3431:A *3423:A 0
17 *3521:A *3423:A 8.8266e-05
18 *3783:B1 *3423:A 4.13092e-05
19 *3930:CLK *1096:8 0
20 *3930:CLK *1096:29 3.19284e-05
21 *3930:D *1096:8 9.30717e-05
22 *3930:RESET_B *1096:29 0.000193501
23 *4099:A *3423:A 5.05521e-05
24 *4149:A *3423:A 0
25 *4149:A *1096:8 0
26 *688:12 *3423:A 5.13155e-05
27 *889:16 *3423:A 5.09216e-05
28 *911:10 *3423:A 0.000136121
29 *911:10 *1096:8 0.000146965
30 *911:24 *3423:A 0
*RES
1 *4037:Q *1096:8 7.785 
2 *1096:8 *3423:A 14.805 
3 *1096:8 *1096:29 10.325 
4 *1096:29 *3425:A1 1.6 
5 *1096:29 *3421:A_N 2.74 
*END

*D_NET *1097 0.0045751
*CONN
*I *4283:A I *D sky130_fd_sc_hd__dlygate4sd3_1
*I *3576:B I *D sky130_fd_sc_hd__nand2_2
*I *3500:A I *D sky130_fd_sc_hd__or4b_2
*I *3580:B I *D sky130_fd_sc_hd__and4_2
*I *3578:A2 I *D sky130_fd_sc_hd__a31o_2
*I *3575:B I *D sky130_fd_sc_hd__or2_2
*I *3581:A2 I *D sky130_fd_sc_hd__a31o_2
*I *4021:Q O *D sky130_fd_sc_hd__dfrtp_2
*CAP
1 *4283:A 9.54923e-05
2 *3576:B 0.00010242
3 *3500:A 7.33547e-05
4 *3580:B 6.88145e-05
5 *3578:A2 0
6 *3575:B 0
7 *3581:A2 0.000227366
8 *4021:Q 7.2807e-05
9 *1097:51 0.000241055
10 *1097:38 0.000104523
11 *1097:18 0.000329252
12 *1097:14 0.000214309
13 *1097:10 0.000397293
14 *1097:8 0.000356386
15 *3500:A *3578:A3 4.66108e-05
16 *3580:B *3578:A3 0.000183043
17 *3580:B *1104:36 3.23391e-05
18 *3581:A2 *3581:A1 3.71991e-05
19 *3581:A2 *3581:B1 6.77853e-06
20 *4283:A *1113:16 0.000122331
21 *1097:14 *3576:A 0
22 *1097:18 *3575:A 8.65961e-05
23 *1097:18 *3578:A3 3.25635e-05
24 *1097:18 *1104:53 0.000228149
25 *1097:38 *3578:A3 3.08098e-05
26 *1097:38 *1104:53 1.01771e-05
27 *1097:51 *3500:D_N 4.66108e-05
28 *1097:51 *3578:A3 0.000185097
29 *1097:51 *1104:51 0.000118631
30 *1097:51 *1104:53 1.79431e-05
31 *3500:C *1097:51 0
32 *3573:A1 *1097:10 0
33 *3578:B1 *1097:10 0.000112971
34 *3578:B1 *1097:14 7.44375e-05
35 *3578:B1 *1097:51 4.99619e-05
36 *3579:A2 *3581:A2 0
37 *3579:B1 *3581:A2 0.00011398
38 *3579:B1 *1097:18 5.0751e-05
39 *3829:B1 *4283:A 0.000122331
40 *4021:RESET_B *4283:A 0
41 *4021:RESET_B *1097:10 0
42 *161:12 *1097:8 4.23703e-05
43 *390:19 *4283:A 0.00015829
44 *390:19 *1097:10 0.000183738
45 *507:16 *3580:B 0.000137571
46 *509:10 *3581:A2 0
47 *901:51 *3580:B 1.07797e-05
48 *903:12 *4283:A 4.9968e-05
*RES
1 *4021:Q *1097:8 4.74 
2 *1097:8 *1097:10 4.44 
3 *1097:10 *1097:14 3.89 
4 *1097:14 *1097:18 3.225 
5 *1097:18 *3581:A2 9.56 
6 *1097:18 *3575:B 1.6 
7 *1097:14 *1097:38 0.2775 
8 *1097:38 *3578:A2 1.6 
9 *1097:38 *1097:51 3.5175 
10 *1097:51 *3580:B 8 
11 *1097:51 *3500:A 2.74 
12 *1097:10 *3576:B 5.085 
13 *1097:8 *4283:A 6.63 
*END

*D_NET *1098 0.00368594
*CONN
*I *3599:B1 I *D sky130_fd_sc_hd__a21oi_2
*I *3502:D I *D sky130_fd_sc_hd__or4_2
*I *3602:D I *D sky130_fd_sc_hd__and4_2
*I *3600:B I *D sky130_fd_sc_hd__and3_2
*I *4031:Q O *D sky130_fd_sc_hd__dfrtp_2
*CAP
1 *3599:B1 0.000144376
2 *3502:D 1.90033e-05
3 *3602:D 2.1637e-05
4 *3600:B 0.000182144
5 *4031:Q 0.000472957
6 *1098:16 0.00048783
7 *1098:12 0.000355213
8 *1098:8 0.000669494
9 *3502:D *1112:25 4.66108e-05
10 *3599:B1 *3599:A1 4.66108e-05
11 *3599:B1 *1099:14 0.000109016
12 *3600:B *3600:A 1.19928e-05
13 *3602:D *3600:A 9.50342e-06
14 *3602:D *3602:B 1.22762e-05
15 *1098:12 *1099:14 0.000208477
16 *1098:16 *3600:A 1.83847e-05
17 *1098:16 *3602:B 4.82863e-05
18 *1098:16 *3602:C 6.65057e-05
19 *1098:16 *1112:25 9.27255e-06
20 *1098:16 *1112:46 0.000138799
21 *3598:A2 *3502:D 3.64998e-06
22 *3599:A2 *3599:B1 0.000116853
23 *3599:A2 *1098:12 0.000206811
24 *3600:C *3600:B 1.56315e-05
25 *3600:C *3602:D 5.23362e-05
26 *3601:B *3599:B1 4.99619e-05
27 *525:12 *3600:B 0.000162311
28 *609:95 *3602:D 0
*RES
1 *4031:Q *1098:8 8.535 
2 *1098:8 *1098:12 4.4 
3 *1098:12 *1098:16 5.115 
4 *1098:16 *3600:B 4.24 
5 *1098:16 *3602:D 6.215 
6 *1098:12 *3502:D 2.05 
7 *1098:8 *3599:B1 6.81 
*END

*D_NET *1099 0.00262752
*CONN
*I *4247:A I *D sky130_fd_sc_hd__dlygate4sd3_1
*I *3602:C I *D sky130_fd_sc_hd__and4_2
*I *3502:C I *D sky130_fd_sc_hd__or4_2
*I *4032:Q O *D sky130_fd_sc_hd__dfrtp_2
*CAP
1 *4247:A 0
2 *3602:C 0.000179279
3 *3502:C 0
4 *4032:Q 0.000214232
5 *1099:14 0.000427967
6 *1099:8 0.00046292
7 *3602:C *3600:A 1.16578e-05
8 *3602:C *3602:B 3.00911e-05
9 *3602:C *1112:25 4.66108e-05
10 *3602:C *1112:46 0.000235568
11 *1099:14 *3597:A1 8.53113e-06
12 *1099:14 *3599:A1 0.000315139
13 *1099:14 *1112:27 4.9968e-05
14 *3503:B *3602:C 0.000162311
15 *3599:A2 *1099:14 1.26548e-05
16 *3599:B1 *1099:14 0.000109016
17 *4032:CLK *1099:8 8.65905e-05
18 *4032:CLK *1099:14 0
19 *1098:12 *1099:14 0.000208477
20 *1098:16 *3602:C 6.65057e-05
*RES
1 *4032:Q *1099:8 4.825 
2 *1099:8 *1099:14 10.225 
3 *1099:14 *3502:C 1.6 
4 *1099:14 *3602:C 5.98 
5 *1099:8 *4247:A 1.6 
*END

*D_NET *1100 0.00347223
*CONN
*I *3607:A I *D sky130_fd_sc_hd__nand2_2
*I *3609:B I *D sky130_fd_sc_hd__and2_2
*I *3501:B I *D sky130_fd_sc_hd__or4_2
*I *3606:A I *D sky130_fd_sc_hd__or2_2
*I *4033:Q O *D sky130_fd_sc_hd__dfrtp_2
*CAP
1 *3607:A 0.000153601
2 *3609:B 0.000144085
3 *3501:B 0.000133315
4 *3606:A 0
5 *4033:Q 0
6 *1100:34 0.000438341
7 *1100:10 0.000866305
8 *1100:4 0.000873646
9 *3501:B *3501:C 7.35813e-05
10 *3607:A *3604:A 1.60991e-05
11 *3609:B *3604:A 0
12 *1100:34 *3604:A 0
13 *3503:A *3609:B 0.000136877
14 *4033:D *1100:10 6.27347e-05
15 *4033:RESET_B *1100:10 2.40185e-05
16 *4034:CLK *3501:B 8.76033e-05
17 *4034:CLK *1100:10 0.000166765
18 *466:12 *3609:B 3.1009e-05
19 *466:12 *1100:34 1.80324e-05
20 *511:88 *3607:A 2.8531e-05
21 *511:88 *3609:B 2.3115e-05
22 *518:44 *3607:A 2.16917e-05
23 *526:27 *3609:B 9.67081e-06
24 *526:27 *1100:34 7.9642e-06
25 *529:8 *3607:A 8.23457e-05
26 *531:14 *3501:B 0
27 *609:12 *1100:10 5.83735e-05
28 *609:12 *1100:34 1.45272e-05
29 *903:25 *3501:B 0
30 *903:25 *1100:10 0
*RES
1 *4033:Q *1100:4 1.6 
2 *1100:4 *1100:10 11.165 
3 *1100:10 *3606:A 3.6 
4 *1100:10 *3501:B 5.865 
5 *1100:4 *1100:34 3.8825 
6 *1100:34 *3609:B 6.6375 
7 *1100:34 *3607:A 6.2775 
*END

*D_NET *1101 0.00197285
*CONN
*I *3609:A I *D sky130_fd_sc_hd__and2_2
*I *4324:A I *D sky130_fd_sc_hd__dlygate4sd3_1
*I *3501:A I *D sky130_fd_sc_hd__or4_2
*I *4034:Q O *D sky130_fd_sc_hd__dfrtp_2
*CAP
1 *3609:A 3.58536e-05
2 *4324:A 0
3 *3501:A 0.000210596
4 *4034:Q 0.000101449
5 *1101:27 9.90414e-05
6 *1101:10 0.000375233
7 *3353:A *3501:A 4.82919e-05
8 *3606:B *3501:A 0.000344459
9 *3610:D *3501:A 9.85228e-05
10 *3610:D *1101:27 3.77036e-05
11 *466:12 *3501:A 0
12 *466:12 *1101:10 0
13 *525:12 *3501:A 0
14 *525:12 *3609:A 7.40446e-05
15 *525:12 *1101:27 8.65961e-05
16 *529:8 *3501:A 0.000192125
17 *531:14 *3501:A 8.82557e-05
18 *901:107 *3501:A 0.000180675
19 *901:107 *1101:10 0
*RES
1 *4034:Q *1101:10 7.235 
2 *1101:10 *3501:A 12.095 
3 *1101:10 *1101:27 1.485 
4 *1101:27 *4324:A 1.6 
5 *1101:27 *3609:A 2.395 
*END

*D_NET *1102 0.00287465
*CONN
*I *3614:A1 I *D sky130_fd_sc_hd__a21oi_2
*I *3501:D I *D sky130_fd_sc_hd__or4_2
*I *3612:A1 I *D sky130_fd_sc_hd__a21oi_2
*I *3613:A1 I *D sky130_fd_sc_hd__o21a_2
*I *3615:A2 I *D sky130_fd_sc_hd__a31o_2
*I *4035:Q O *D sky130_fd_sc_hd__dfrtp_2
*CAP
1 *3614:A1 0.000145407
2 *3501:D 0.000199247
3 *3612:A1 0
4 *3613:A1 8.38799e-05
5 *3615:A2 0.000146542
6 *4035:Q 0.000146542
7 *1102:24 0.000100651
8 *1102:22 0.000416707
9 *1102:18 0.000346096
10 *3501:D *3501:C 0.000274654
11 *3614:A1 *4299:A 0
12 *1102:22 *3501:C 0
13 *1102:22 *4299:A 0
14 *3606:B *3501:D 4.99619e-05
15 *3612:A2 *1102:22 1.65105e-05
16 *3612:B1 *3501:D 4.85494e-05
17 *3613:B1 *3501:D 8.65961e-05
18 *3613:B1 *3613:A1 6.90876e-05
19 *3613:B1 *1102:24 4.82863e-05
20 *3614:A2 *3614:A1 0.000216325
21 *3614:A2 *1102:22 5.4003e-05
22 *3616:A *3614:A1 1.16578e-05
23 *4036:RESET_B *3614:A1 0
24 *531:28 *1102:22 0
25 *531:32 *3615:A2 9.4087e-05
26 *531:38 *1102:22 0.000319862
*RES
1 *4035:Q *3615:A2 5.03 
2 *4035:Q *1102:18 3.6 
3 *1102:18 *1102:22 6.695 
4 *1102:22 *1102:24 0.45 
5 *1102:24 *3613:A1 3.46 
6 *1102:24 *3612:A1 1.6 
7 *1102:22 *3501:D 6.19 
8 *1102:18 *3614:A1 6.63 
*END

*D_NET *1103 0.00198479
*CONN
*I *4299:A I *D sky130_fd_sc_hd__dlygate4sd3_1
*I *3615:A1 I *D sky130_fd_sc_hd__a31o_2
*I *3501:C I *D sky130_fd_sc_hd__or4_2
*I *4036:Q O *D sky130_fd_sc_hd__dfrtp_2
*CAP
1 *4299:A 0.000267746
2 *3615:A1 0
3 *3501:C 0.000193295
4 *4036:Q 0.000130087
5 *1103:21 0.000299607
6 *1103:8 0.000355243
7 *3501:B *3501:C 7.35813e-05
8 *3501:D *3501:C 0.000274654
9 *3606:B *3501:C 2.30292e-05
10 *3612:B1 *3501:C 0.000126872
11 *3614:A1 *4299:A 0
12 *3615:B1 *3501:C 2.4997e-05
13 *3615:B1 *4299:A 1.89685e-05
14 *3615:B1 *1103:21 3.86607e-05
15 *4034:CLK *3501:C 1.73877e-05
16 *4034:CLK *4299:A 1.01661e-05
17 *531:28 *3501:C 4.20983e-05
18 *531:28 *4299:A 2.42236e-05
19 *531:28 *1103:8 3.1835e-05
20 *531:28 *1103:21 3.23391e-05
21 *1102:22 *3501:C 0
22 *1102:22 *4299:A 0
*RES
1 *4036:Q *1103:8 5.085 
2 *1103:8 *3501:C 9.12 
3 *1103:8 *1103:21 0.87 
4 *1103:21 *3615:A1 3.6 
5 *1103:21 *4299:A 8.085 
*END

*D_NET *1104 0.00440203
*CONN
*I *3578:A1 I *D sky130_fd_sc_hd__a31o_2
*I *3576:A I *D sky130_fd_sc_hd__nand2_2
*I *3575:A I *D sky130_fd_sc_hd__or2_2
*I *3500:D_N I *D sky130_fd_sc_hd__or4b_2
*I *3581:A1 I *D sky130_fd_sc_hd__a31o_2
*I *3580:A I *D sky130_fd_sc_hd__and4_2
*I *4022:Q O *D sky130_fd_sc_hd__dfrtp_2
*CAP
1 *3578:A1 0
2 *3576:A 8.83727e-05
3 *3575:A 0.000136477
4 *3500:D_N 1.36534e-05
5 *3581:A1 0.000138353
6 *3580:A 0
7 *4022:Q 0.000317744
8 *1104:53 0.000405392
9 *1104:51 0.000344551
10 *1104:36 0.000296379
11 *1104:12 0.000138353
12 *1104:10 0.000436461
13 *3500:D_N *3578:A3 4.66108e-05
14 *3581:A1 *3581:A3 0.000278841
15 *3581:A1 *3581:B1 0.000471639
16 *3581:A1 *1105:34 9.53428e-06
17 *1104:10 *3578:A3 4.18603e-06
18 *1104:10 *1105:21 0.000268966
19 *1104:36 *3578:A3 9.29751e-06
20 *3578:B1 *1104:51 4.82919e-05
21 *3580:B *1104:36 3.23391e-05
22 *3581:A2 *3581:A1 3.71991e-05
23 *3582:A_N *1104:10 9.50342e-06
24 *3582:A_N *1104:36 6.28498e-05
25 *3582:C *3581:A1 5.20335e-05
26 *4024:CLK *1104:10 0
27 *4024:D *1104:10 0
28 *4024:RESET_B *1104:10 5.93588e-05
29 *507:16 *1104:36 0.000137571
30 *507:16 *1104:51 4.9968e-05
31 *509:10 *3576:A 0
32 *610:47 *1104:10 0
33 *901:51 *1104:10 0
34 *1097:14 *3576:A 0
35 *1097:18 *3575:A 8.65961e-05
36 *1097:18 *1104:53 0.000228149
37 *1097:38 *1104:53 1.01771e-05
38 *1097:51 *3500:D_N 4.66108e-05
39 *1097:51 *1104:51 0.000118631
40 *1097:51 *1104:53 1.79431e-05
*RES
1 *4022:Q *1104:10 9.255 
2 *1104:10 *1104:12 2 
3 *1104:12 *3580:A 1.6 
4 *1104:12 *3581:A1 7.63 
5 *1104:10 *1104:36 2.655 
6 *1104:36 *3500:D_N 4.05 
7 *1104:36 *1104:51 4.445 
8 *1104:51 *1104:53 2.52 
9 *1104:53 *3575:A 3.55 
10 *1104:53 *3576:A 6.98 
11 *1104:51 *3578:A1 1.6 
*END

*D_NET *1105 0.00443676
*CONN
*I *3498:A I *D sky130_fd_sc_hd__or4b_2
*I *3578:A3 I *D sky130_fd_sc_hd__a31o_2
*I *3580:C I *D sky130_fd_sc_hd__and4_2
*I *3581:A3 I *D sky130_fd_sc_hd__a31o_2
*I *3349:A I *D sky130_fd_sc_hd__inv_2
*I *4023:Q O *D sky130_fd_sc_hd__dfrtp_2
*CAP
1 *3498:A 0.000309215
2 *3578:A3 0.00024767
3 *3580:C 0
4 *3581:A3 0.000330422
5 *3349:A 7.89135e-05
6 *4023:Q 1.4652e-05
7 *1105:34 0.000616402
8 *1105:21 0.000490183
9 *1105:6 0.000193809
10 *3498:A *3498:D_N 0
11 *3498:A *3581:B1 1.91597e-05
12 *3498:A *1106:12 0.000158965
13 *3581:A3 *3581:B1 8.34281e-06
14 *1105:34 *3581:B1 5.05437e-05
15 *3500:A *3578:A3 4.66108e-05
16 *3500:C *3498:A 0
17 *3500:D_N *3578:A3 4.66108e-05
18 *3577:A *3581:A3 0
19 *3579:A1 *3349:A 2.96334e-05
20 *3579:A1 *1105:6 4.66108e-05
21 *3580:B *3578:A3 0.000183043
22 *3581:A1 *3581:A3 0.000278841
23 *3581:A1 *1105:34 9.53428e-06
24 *3582:C *3581:A3 5.37091e-05
25 *4024:RESET_B *1105:21 0.000103185
26 *4158:A *3349:A 6.97034e-05
27 *4158:A *1105:6 1.03423e-05
28 *511:6 *3498:A 0.000275553
29 *901:51 *3578:A3 0.000204463
30 *901:51 *1105:21 2.97204e-05
31 *1097:18 *3578:A3 3.25635e-05
32 *1097:38 *3578:A3 3.08098e-05
33 *1097:51 *3578:A3 0.000185097
34 *1104:10 *3578:A3 4.18603e-06
35 *1104:10 *1105:21 0.000268966
36 *1104:36 *3578:A3 9.29751e-06
*RES
1 *4023:Q *1105:6 2.05 
2 *1105:6 *3349:A 3.355 
3 *1105:6 *1105:21 7.165 
4 *1105:21 *3581:A3 6.205 
5 *1105:21 *1105:34 1.155 
6 *1105:34 *3580:C 1.6 
7 *1105:34 *3578:A3 11.915 
8 *1105:34 *3498:A 11.81 
*END

*D_NET *1106 0.00251179
*CONN
*I *3498:D_N I *D sky130_fd_sc_hd__or4b_2
*I *3581:B1 I *D sky130_fd_sc_hd__a31o_2
*I *3580:D I *D sky130_fd_sc_hd__and4_2
*I *4024:Q O *D sky130_fd_sc_hd__dfrtp_2
*CAP
1 *3498:D_N 0.00014775
2 *3581:B1 0.000201598
3 *3580:D 0
4 *4024:Q 7.68954e-05
5 *1106:12 0.000254505
6 *1106:8 0.000277552
7 *3498:A *3498:D_N 0
8 *3498:A *3581:B1 1.91597e-05
9 *3498:A *1106:12 0.000158965
10 *3577:A *3581:B1 0.000374983
11 *3581:A1 *3581:B1 0.000471639
12 *3581:A2 *3581:B1 6.77853e-06
13 *3581:A3 *3581:B1 8.34281e-06
14 *3582:A_N *3581:B1 0.000192125
15 *3582:A_N *1106:12 4.21973e-05
16 *3582:B *3581:B1 2.30292e-05
17 *460:10 *3498:D_N 8.39009e-05
18 *460:10 *1106:8 5.38986e-05
19 *507:16 *3581:B1 5.93953e-05
20 *662:33 *1106:8 8.53113e-06
21 *1105:34 *3581:B1 5.05437e-05
*RES
1 *4024:Q *1106:8 4.98 
2 *1106:8 *1106:12 3.485 
3 *1106:12 *3580:D 1.6 
4 *1106:12 *3581:B1 8.98 
5 *1106:8 *3498:D_N 6.555 
*END

*D_NET *1107 0.00455298
*CONN
*I *3591:A I *D sky130_fd_sc_hd__and4_2
*I *3583:A I *D sky130_fd_sc_hd__nand2_2
*I *3586:A I *D sky130_fd_sc_hd__and3_2
*I *3584:A I *D sky130_fd_sc_hd__or2_2
*I *3350:A I *D sky130_fd_sc_hd__inv_2
*I *3499:B I *D sky130_fd_sc_hd__and2b_2
*I *4025:Q O *D sky130_fd_sc_hd__dfrtp_2
*CAP
1 *3591:A 0.000229466
2 *3583:A 0
3 *3586:A 8.17127e-05
4 *3584:A 9.50536e-05
5 *3350:A 8.12594e-06
6 *3499:B 9.66438e-05
7 *4025:Q 0.000397056
8 *1107:60 0.000322894
9 *1107:36 0.000218755
10 *1107:34 0.000264049
11 *1107:12 0.00010477
12 *1107:10 0.000525688
13 *3591:A *3351:A 0.000139933
14 *3591:A *3591:B 1.97849e-05
15 *3591:A *1109:14 2.75145e-05
16 *3591:A *1109:46 0.000201548
17 *1107:10 *1109:46 0
18 *1107:34 *1109:46 0
19 *3497:A2 *3499:B 2.06853e-05
20 *3497:A2 *1107:10 6.02186e-05
21 *3499:A_N *3350:A 3.74161e-05
22 *3499:A_N *3499:B 8.65905e-05
23 *3500:C *1107:34 0
24 *3585:A *3586:A 0.000203769
25 *3585:A *1107:34 0
26 *3585:C *3584:A 4.66108e-05
27 *3585:C *1107:36 7.57202e-05
28 *3586:C *1107:34 0
29 *3587:A1 *3586:A 0
30 *3587:A1 *1107:34 0.000136877
31 *3587:A2 *3586:A 0.000115464
32 *3587:A2 *1107:36 3.00381e-05
33 *3587:C1 *3586:A 4.18603e-06
34 *3589:B *3591:A 0.000328392
35 *4025:D *3591:A 3.00381e-05
36 *4025:D *1107:60 2.32597e-05
37 *4025:RESET_B *1107:10 1.71013e-05
38 *4027:D *3591:A 0.000118249
39 *511:15 *3584:A 1.56428e-05
40 *511:34 *3584:A 1.34594e-05
41 *511:34 *1107:36 3.87723e-05
42 *511:34 *1107:60 6.92961e-05
43 *511:50 *3586:A 0
44 *513:6 *1107:36 4.35348e-05
45 *513:6 *1107:60 6.71882e-05
46 *662:33 *1107:10 3.19242e-05
47 *901:32 *3350:A 4.82919e-05
48 *901:32 *3499:B 0.000157261
*RES
1 *4025:Q *1107:10 9.03 
2 *1107:10 *1107:12 2 
3 *1107:12 *3499:B 4.15 
4 *1107:12 *3350:A 2.05 
5 *1107:10 *1107:34 4.145 
6 *1107:34 *1107:36 1.485 
7 *1107:36 *3584:A 3.1 
8 *1107:36 *3586:A 8 
9 *1107:34 *1107:60 2.19 
10 *1107:60 *3583:A 1.6 
11 *1107:60 *3591:A 12.47 
*END

*D_NET *1108 0.00561313
*CONN
*I *3591:B I *D sky130_fd_sc_hd__and4_2
*I *3351:A I *D sky130_fd_sc_hd__inv_2
*I *3586:B I *D sky130_fd_sc_hd__and3_2
*I *3498:B I *D sky130_fd_sc_hd__or4b_2
*I *4026:Q O *D sky130_fd_sc_hd__dfrtp_2
*CAP
1 *3591:B 0.000414254
2 *3351:A 0.000123325
3 *3586:B 0
4 *3498:B 0.000264761
5 *4026:Q 0.000675979
6 *1108:22 0.000537579
7 *1108:8 0.000616319
8 *1108:6 0.00102754
9 *3351:A *1109:46 5.64057e-05
10 *3498:B *3498:C 9.70988e-05
11 *3591:B *1109:14 6.97118e-05
12 *3591:B *1109:16 5.83121e-06
13 *1108:6 *1110:14 9.46525e-06
14 *3352:A *3591:B 2.32724e-05
15 *3500:C *3498:B 2.66586e-05
16 *3589:B *3591:B 0.000423304
17 *3589:B *1108:6 5.83121e-06
18 *3589:B *1108:8 6.1357e-05
19 *3591:A *3351:A 0.000139933
20 *3591:A *3591:B 1.97849e-05
21 *4025:CLK *3591:B 0
22 *4025:D *3351:A 0.000114492
23 *4026:CLK *3351:A 9.03653e-05
24 *4026:CLK *3591:B 5.4003e-05
25 *4026:D *1108:6 5.28702e-05
26 *4027:CLK *3591:B 2.57675e-05
27 *511:50 *3591:B 0.00016492
28 *515:8 *3498:B 8.40213e-05
29 *515:8 *1108:8 0.000378513
30 *609:54 *3591:B 1.48502e-06
31 *901:32 *3351:A 4.82863e-05
*RES
1 *4026:Q *1108:6 8.95 
2 *1108:6 *1108:8 4.59 
3 *1108:8 *3498:B 5.155 
4 *1108:8 *3586:B 1.6 
5 *1108:6 *1108:22 2 
6 *1108:22 *3351:A 7.47 
7 *1108:22 *3591:B 11.9095 
*END

*D_NET *1109 0.00789654
*CONN
*I *3589:A I *D sky130_fd_sc_hd__or2_2
*I *3495:A_N I *D sky130_fd_sc_hd__and2b_2
*I *3496:B I *D sky130_fd_sc_hd__and2b_2
*I *3591:C I *D sky130_fd_sc_hd__and4_2
*I *3588:A I *D sky130_fd_sc_hd__nand2_2
*I *4027:Q O *D sky130_fd_sc_hd__dfrtp_2
*CAP
1 *3589:A 0.000164749
2 *3495:A_N 2.01864e-05
3 *3496:B 0.000179712
4 *3591:C 0
5 *3588:A 0.000231384
6 *4027:Q 0.000615236
7 *1109:46 0.000819576
8 *1109:40 0.000784426
9 *1109:16 0.00025076
10 *1109:14 0.000634612
11 *3589:A *1110:33 2.28792e-05
12 *1109:46 *1110:33 0.000102896
13 *3351:A *1109:46 5.64057e-05
14 *3352:A *3588:A 0.00015639
15 *3352:A *3589:A 0.000114492
16 *3352:A *1109:14 3.57349e-05
17 *3352:A *1109:16 3.57349e-05
18 *3352:A *1109:46 2.92496e-05
19 *3355:A *3495:A_N 8.40269e-05
20 *3486:A *3496:B 0.000185405
21 *3497:B1 *1109:46 0.000160536
22 *3497:C1 *3496:B 0.000133938
23 *3497:C1 *1109:46 1.35491e-05
24 *3499:A_N *1109:46 0.000308969
25 *3585:A *3588:A 2.75145e-05
26 *3587:A1 *1109:46 3.69421e-05
27 *3587:C1 *3588:A 0.000181376
28 *3589:B *1109:46 0
29 *3590:B *3588:A 8.95933e-05
30 *3590:C *3588:A 9.23551e-05
31 *3591:A *1109:14 2.75145e-05
32 *3591:A *1109:46 0.000201548
33 *3591:B *1109:14 6.97118e-05
34 *3591:B *1109:16 5.83121e-06
35 *3593:A2 *3588:A 3.00381e-05
36 *3593:B1 *3588:A 9.50342e-06
37 *3808:B1 *3496:B 0
38 *4025:D *1109:46 0
39 *4025:RESET_B *1109:46 0
40 *4027:CLK *1109:14 3.34117e-05
41 *4027:D *3588:A 4.9253e-06
42 *4027:D *1109:46 0.000119537
43 *507:56 *3588:A 7.22354e-05
44 *511:50 *1109:46 0.00042675
45 *511:65 *3589:A 0.00012819
46 *518:12 *3588:A 0.000120655
47 *518:12 *3589:A 9.47454e-05
48 *518:12 *1109:16 1.08758e-05
49 *518:27 *3589:A 0.000230876
50 *660:31 *3496:B 0
51 *886:16 *3495:A_N 8.40269e-05
52 *1068:19 *3496:B 0.000238043
53 *1068:19 *1109:46 0.000358937
54 *1069:18 *3496:B 6.05539e-05
55 *1107:10 *1109:46 0
56 *1107:34 *1109:46 0
*RES
1 *4027:Q *1109:14 11.17 
2 *1109:14 *1109:16 0.45 
3 *1109:16 *3588:A 12.11 
4 *1109:16 *3591:C 1.6 
5 *1109:14 *1109:40 2 
6 *1109:40 *1109:46 16.725 
7 *1109:46 *3496:B 9 
8 *1109:46 *3495:A_N 4.395 
9 *1109:40 *3589:A 8.235 
*END

*D_NET *1110 0.00451028
*CONN
*I *4312:A I *D sky130_fd_sc_hd__dlygate4sd3_1
*I *3591:D I *D sky130_fd_sc_hd__and4_2
*I *3498:C I *D sky130_fd_sc_hd__or4b_2
*I *4028:Q O *D sky130_fd_sc_hd__dfrtp_2
*CAP
1 *4312:A 0.000200678
2 *3591:D 0
3 *3498:C 0.000291552
4 *4028:Q 0.000545266
5 *1110:33 0.00035825
6 *1110:14 0.000994391
7 *3498:B *3498:C 9.70988e-05
8 *3500:C *3498:C 0.000278111
9 *3587:C1 *3498:C 0.0001249
10 *3587:C1 *1110:14 5.43481e-05
11 *3587:C1 *1110:33 5.00612e-05
12 *3589:A *1110:33 2.28792e-05
13 *3592:A1 *4312:A 0.00012324
14 *4025:CLK *1110:14 3.86607e-05
15 *4026:D *1110:14 0.000270409
16 *4028:D *1110:33 9.37731e-05
17 *4028:RESET_B *1110:14 4.4133e-05
18 *511:50 *4312:A 0.000158175
19 *511:50 *1110:33 0.000191736
20 *515:8 *3498:C 0.000135118
21 *518:12 *4312:A 9.47454e-05
22 *518:12 *1110:33 9.50342e-06
23 *518:27 *4312:A 2.14129e-05
24 *609:43 *4312:A 0.000110683
25 *609:43 *1110:33 8.8798e-05
26 *1108:6 *1110:14 9.46525e-06
27 *1109:46 *1110:33 0.000102896
*RES
1 *4028:Q *1110:14 12.545 
2 *1110:14 *3498:C 7.945 
3 *1110:14 *1110:33 6.74 
4 *1110:33 *3591:D 3.6 
5 *1110:33 *4312:A 8.19 
*END

*D_NET *1111 0.0038819
*CONN
*I *3502:B I *D sky130_fd_sc_hd__or4_2
*I *3602:B I *D sky130_fd_sc_hd__and4_2
*I *3594:B1 I *D sky130_fd_sc_hd__a21oi_2
*I *3595:A I *D sky130_fd_sc_hd__and3_2
*I *4029:Q O *D sky130_fd_sc_hd__dfrtp_2
*CAP
1 *3502:B 5.2861e-05
2 *3602:B 0.000150665
3 *3594:B1 0.00013614
4 *3595:A 0.000218392
5 *4029:Q 0.000398237
6 *1111:19 0.000286805
7 *1111:8 0.000463389
8 *1111:6 0.000696094
9 *3502:B *3597:A1 0.0001032
10 *3602:B *3600:A 3.06704e-05
11 *3596:B *3594:B1 0.000147093
12 *3596:B *3602:B 2.60986e-05
13 *3597:A2 *3502:B 7.5416e-05
14 *3601:A *3602:B 0
15 *3602:C *3602:B 3.00911e-05
16 *3602:D *3602:B 1.22762e-05
17 *3838:B1 *1111:6 3.1835e-05
18 *4029:D *1111:8 0.000160635
19 *511:82 *3594:B1 0.000313099
20 *511:82 *3602:B 0.000119221
21 *518:27 *3594:B1 4.55864e-06
22 *521:14 *3595:A 7.51003e-05
23 *521:33 *3595:A 3.13457e-05
24 *521:42 *3595:A 1.83756e-05
25 *521:42 *1111:6 1.56428e-05
26 *521:42 *1111:8 6.98113e-05
27 *521:55 *3502:B 0.000109995
28 *609:43 *3594:B1 0
29 *609:95 *3602:B 5.65627e-05
30 *1098:16 *3602:B 4.82863e-05
*RES
1 *4029:Q *1111:6 5.845 
2 *1111:6 *1111:8 3.21 
3 *1111:8 *3595:A 4.48 
4 *1111:8 *1111:19 2 
5 *1111:19 *3594:B1 7.275 
6 *1111:19 *3602:B 7.32 
7 *1111:6 *3502:B 7.745 
*END

*D_NET *1112 0.00504859
*CONN
*I *3599:A1 I *D sky130_fd_sc_hd__a21oi_2
*I *3502:A I *D sky130_fd_sc_hd__or4_2
*I *3602:A I *D sky130_fd_sc_hd__and4_2
*I *3600:A I *D sky130_fd_sc_hd__and3_2
*I *3597:A1 I *D sky130_fd_sc_hd__a21oi_2
*I *3598:A1 I *D sky130_fd_sc_hd__o21a_2
*I *4030:Q O *D sky130_fd_sc_hd__dfrtp_2
*CAP
1 *3599:A1 0.000184888
2 *3502:A 0
3 *3602:A 0
4 *3600:A 0.000253977
5 *3597:A1 0.000378621
6 *3598:A1 0
7 *4030:Q 0.000310271
8 *1112:46 0.000301805
9 *1112:44 4.78274e-05
10 *1112:27 0.000406697
11 *1112:25 0.00053185
12 *1112:14 0.000629157
13 *3502:B *3597:A1 0.0001032
14 *3502:D *1112:25 4.66108e-05
15 *3597:A2 *3597:A1 0.00011086
16 *3598:A2 *1112:25 7.38019e-05
17 *3598:B1 *3597:A1 0
18 *3598:B1 *1112:14 0
19 *3599:A2 *3597:A1 1.44177e-05
20 *3599:A2 *1112:14 0
21 *3599:B1 *3599:A1 4.66108e-05
22 *3600:B *3600:A 1.19928e-05
23 *3600:C *3600:A 0.000122331
24 *3602:B *3600:A 3.06704e-05
25 *3602:C *3600:A 1.16578e-05
26 *3602:C *1112:25 4.66108e-05
27 *3602:C *1112:46 0.000235568
28 *3602:D *3600:A 9.50342e-06
29 *4029:RESET_B *1112:14 0.000117825
30 *4030:RESET_B *1112:14 8.73103e-05
31 *4032:CLK *3599:A1 0
32 *511:82 *3597:A1 0
33 *521:55 *3597:A1 8.08153e-06
34 *609:86 *3597:A1 0
35 *609:95 *3597:A1 0
36 *609:95 *3599:A1 0
37 *609:95 *3600:A 1.88904e-05
38 *661:53 *3597:A1 4.99619e-05
39 *661:83 *1112:14 0.000139238
40 *661:94 *1112:14 0.000178255
41 *1098:16 *3600:A 1.83847e-05
42 *1098:16 *1112:25 9.27255e-06
43 *1098:16 *1112:46 0.000138799
44 *1099:14 *3597:A1 8.53113e-06
45 *1099:14 *3599:A1 0.000315139
46 *1099:14 *1112:27 4.9968e-05
*RES
1 *4030:Q *1112:14 11.555 
2 *1112:14 *3598:A1 1.6 
3 *1112:14 *1112:25 6.17 
4 *1112:25 *1112:27 0.615 
5 *1112:27 *3597:A1 11.085 
6 *1112:27 *1112:44 2 
7 *1112:44 *1112:46 2.175 
8 *1112:46 *3600:A 9.395 
9 *1112:46 *3602:A 1.6 
10 *1112:44 *3502:A 1.6 
11 *1112:25 *3599:A1 7.725 
*END

*D_NET *1113 0.00418276
*CONN
*I *3604:A I *D sky130_fd_sc_hd__nor2_2
*I *4162:A I *D sky130_fd_sc_hd__clkdlybuf4s25_1
*I *4039:Q O *D sky130_fd_sc_hd__dfrtp_2
*CAP
1 *3604:A 0.000768613
2 *4162:A 0
3 *4039:Q 0.000276121
4 *1113:16 0.00104473
5 *3604:B *3604:A 7.29248e-05
6 *3607:A *3604:A 1.60991e-05
7 *3609:B *3604:A 0
8 *3829:A1 *1113:16 0.000278117
9 *3829:A2 *1113:16 2.30292e-05
10 *3829:B1 *3604:A 8.95933e-05
11 *3829:B1 *1113:16 0.000337498
12 *3842:B1 *3604:A 7.00889e-06
13 *3842:B1 *1113:16 0.000661774
14 *4081:A *3604:A 0
15 *4283:A *1113:16 0.000122331
16 *466:12 *3604:A 0
17 *511:88 *3604:A 9.02924e-05
18 *518:35 *3604:A 0
19 *526:27 *3604:A 2.35678e-05
20 *885:50 *1113:16 7.21296e-06
21 *899:60 *1113:16 6.55328e-05
22 *899:68 *1113:16 0
23 *903:6 *3604:A 4.43682e-05
24 *903:78 *3604:A 0.000253946
25 *1100:34 *3604:A 0
*RES
1 *4039:Q *1113:16 15.995 
2 *1113:16 *4162:A 1.6 
3 *1113:16 *3604:A 20.18 
*END

*D_NET *1114 0.00352257
*CONN
*I *3422:A2_N I *D sky130_fd_sc_hd__o2bb2a_2
*I *3425:B1 I *D sky130_fd_sc_hd__a21oi_2
*I *3426:A2 I *D sky130_fd_sc_hd__a211oi_2
*I *3424:B1 I *D sky130_fd_sc_hd__a32o_2
*I *3928:Q O *D sky130_fd_sc_hd__dfstp_2
*CAP
1 *3422:A2_N 0.000166254
2 *3425:B1 5.45309e-05
3 *3426:A2 0.000138196
4 *3424:B1 8.56191e-05
5 *3928:Q 0
6 *1114:36 0.000479914
7 *1114:15 0.000517153
8 *1114:4 0.000205447
9 *3424:B1 *3517:B 2.18022e-05
10 *3425:B1 *1116:38 1.91597e-05
11 *1114:15 *3517:B 4.66742e-05
12 *1114:15 *1116:12 8.63479e-05
13 *1114:36 *1116:12 0.000440535
14 *3424:A1 *3424:B1 2.30292e-05
15 *3424:A2 *3424:B1 8.65905e-05
16 *3424:B2 *3426:A2 4.82863e-05
17 *3426:C1 *3425:B1 4.82919e-05
18 *3426:C1 *1114:36 1.34361e-05
19 *3517:A *3424:B1 1.99848e-05
20 *3778:B1 *3422:A2_N 0.000119756
21 *3928:SET_B *1114:36 5.4003e-05
22 *3930:RESET_B *3422:A2_N 0
23 *105:21 *3422:A2_N 0.000136877
24 *105:21 *1114:36 0.00016665
25 *607:12 *3426:A2 0.000111088
26 *607:16 *3426:A2 7.3664e-05
27 *658:114 *3426:A2 0.000186627
28 *688:12 *3424:B1 0
29 *885:28 *1114:36 0
30 *911:24 *3424:B1 1.20152e-05
31 *1096:29 *3425:B1 0.000160635
*RES
1 *3928:Q *1114:4 1.6 
2 *1114:4 *3424:B1 3.52 
3 *1114:4 *1114:15 2.175 
4 *1114:15 *3426:A2 9.98 
5 *1114:15 *1114:36 8.81 
6 *1114:36 *3425:B1 5.085 
7 *1114:36 *3422:A2_N 6.375 
*END

*D_NET *1115 0.00121298
*CONN
*I *4194:A I *D sky130_fd_sc_hd__dlygate4sd3_1
*I *4328:A I *D sky130_fd_sc_hd__dlygate4sd3_1
*I *3929:Q O *D sky130_fd_sc_hd__dfrtp_2
*CAP
1 *4194:A 3.07736e-05
2 *4328:A 0.00010005
3 *3929:Q 0.000108284
4 *1115:8 0.000239108
5 *4328:A *3423:B 0.000181376
6 *1115:8 *3423:B 0.000116853
7 *3423:A *1115:8 5.12859e-05
8 *3424:A3 *4328:A 0.000102411
9 *3424:A3 *1115:8 8.60912e-05
10 *3424:B2 *4328:A 8.23457e-05
11 *4149:A *1115:8 9.87616e-05
12 *105:8 *4194:A 1.56428e-05
*RES
1 *3929:Q *1115:8 7.02 
2 *1115:8 *4328:A 6.54 
3 *1115:8 *4194:A 4.05 
*END

*D_NET *1116 0.00502326
*CONN
*I *3421:B I *D sky130_fd_sc_hd__and2b_2
*I *3425:A2 I *D sky130_fd_sc_hd__a21oi_2
*I *3423:B I *D sky130_fd_sc_hd__nand2_2
*I *3517:B I *D sky130_fd_sc_hd__nor2_2
*I *3930:Q O *D sky130_fd_sc_hd__dfrtp_2
*CAP
1 *3421:B 9.90957e-05
2 *3425:A2 2.08101e-05
3 *3423:B 0.000152961
4 *3517:B 0.00044827
5 *3930:Q 0
6 *1116:38 0.000374295
7 *1116:12 0.00101319
8 *1116:4 0.000666346
9 *3421:A_N *3421:B 3.00381e-05
10 *3421:A_N *1116:38 2.18022e-05
11 *3424:A2 *3517:B 4.21973e-05
12 *3424:A3 *3423:B 7.67378e-05
13 *3424:B1 *3517:B 2.18022e-05
14 *3425:B1 *1116:38 1.91597e-05
15 *3426:C1 *1116:12 0.000363653
16 *3426:C1 *1116:38 8.65961e-05
17 *3431:A *3423:B 7.23533e-05
18 *3517:A *3517:B 0.000163749
19 *3928:SET_B *1116:12 2.42236e-05
20 *4149:A *3423:B 0.000412569
21 *4328:A *3423:B 0.000181376
22 *688:12 *3517:B 0
23 *1096:29 *1116:38 4.16262e-05
24 *1114:15 *3517:B 4.66742e-05
25 *1114:15 *1116:12 8.63479e-05
26 *1114:36 *1116:12 0.000440535
27 *1115:8 *3423:B 0.000116853
*RES
1 *3930:Q *1116:4 1.6 
2 *1116:4 *1116:12 12.085 
3 *1116:12 *3517:B 7.51 
4 *1116:12 *3423:B 11.315 
5 *1116:4 *1116:38 3.225 
6 *1116:38 *3425:A2 1.96 
7 *1116:38 *3421:B 3.085 
*END

*D_NET *1117 0.000745445
*CONN
*I *4176:A I *D sky130_fd_sc_hd__dlygate4sd3_1
*I *4047:Q O *D sky130_fd_sc_hd__dfrtp_2
*CAP
1 *4176:A 0.000311812
2 *4047:Q 0.000311812
3 *4047:D *4176:A 8.33066e-06
4 *4130:A *4176:A 2.88357e-05
5 *4180:A *4176:A 5.87261e-05
6 *656:10 *4176:A 2.59285e-05
*RES
1 *4047:Q *4176:A 12.48 
*END

*D_NET *1118 0.00190298
*CONN
*I *4184:A I *D sky130_fd_sc_hd__dlygate4sd3_1
*I *3356:A I *D sky130_fd_sc_hd__inv_2
*I *4048:Q O *D sky130_fd_sc_hd__dfrtp_2
*CAP
1 *4184:A 9.94245e-05
2 *3356:A 2.0132e-05
3 *4048:Q 0.000408446
4 *1118:14 0.000528002
5 *3554:A1 *1118:14 4.89395e-05
6 *3554:A2 *1118:14 4.77807e-05
7 *4009:RESET_B *1118:14 0
8 *4048:CLK *1118:14 2.75229e-05
9 *4148:A *4184:A 0.000303285
10 *4246:A *1118:14 0
11 *656:10 *1118:14 7.03276e-05
12 *657:23 *1118:14 0
13 *881:23 *4184:A 2.21074e-05
14 *881:23 *1118:14 4.23008e-05
15 *896:31 *4184:A 0.000220388
16 *896:31 *1118:14 6.43186e-05
*RES
1 *4048:Q *1118:14 12.65 
2 *1118:14 *3356:A 1.96 
3 *1118:14 *4184:A 4.81 
*END

*D_NET *1119 0.00141739
*CONN
*I *4161:A I *D sky130_fd_sc_hd__clkdlybuf4s25_1
*I *4046:Q O *D sky130_fd_sc_hd__dfrtp_2
*CAP
1 *4161:A 0.000364199
2 *4046:Q 0.000364199
3 *828:42 *4161:A 0.000642819
4 *910:20 *4161:A 0
5 *1072:10 *4161:A 4.61744e-05
*RES
1 *4046:Q *4161:A 15.495 
*END
