*SPEF "ieee 1481-1999"
*DESIGN "i2c_master_controller_top"
*DATE "16:13:17 Monday April 13, 2026"
*VENDOR "The OpenROAD Project"
*PROGRAM "OpenROAD"
*VERSION "dcf36133a369abc8f3c5e5738cd4d82e4903c0e0"
*DESIGN_FLOW "NAME_SCOPE LOCAL" "PIN_CAP NONE"
*DIVIDER /
*DELIMITER :
*BUS_DELIMITER []
*T_UNIT 1 NS
*C_UNIT 1 PF
*R_UNIT 1 OHM
*L_UNIT 1 HENRY

*NAME_MAP
*3 i_byte_cnt_reg[0]
*4 i_byte_cnt_reg[1]
*5 i_byte_cnt_reg[2]
*6 i_byte_cnt_reg[3]
*7 i_byte_cnt_reg[4]
*8 i_byte_cnt_reg[5]
*9 i_byte_cnt_reg[6]
*10 i_byte_cnt_reg[7]
*11 i_clk
*12 i_clk_div_lsb[0]
*13 i_clk_div_lsb[1]
*14 i_clk_div_lsb[2]
*15 i_clk_div_lsb[3]
*16 i_clk_div_lsb[4]
*17 i_clk_div_lsb[5]
*18 i_clk_div_lsb[6]
*19 i_clk_div_lsb[7]
*20 i_config_reg[0]
*21 i_config_reg[1]
*22 i_config_reg[2]
*23 i_config_reg[3]
*24 i_config_reg[4]
*25 i_config_reg[5]
*26 i_mode_reg[0]
*27 i_mode_reg[1]
*28 i_mode_reg[2]
*29 i_mode_reg[3]
*30 i_mode_reg[4]
*31 i_mode_reg[5]
*32 i_mode_reg[6]
*33 i_mode_reg[7]
*34 i_rst_n
*35 i_slave_addr_reg[0]
*36 i_slave_addr_reg[1]
*37 i_slave_addr_reg[2]
*38 i_slave_addr_reg[3]
*39 i_slave_addr_reg[4]
*40 i_slave_addr_reg[5]
*41 i_slave_addr_reg[6]
*42 i_transmit_data[0]
*43 i_transmit_data[1]
*44 i_transmit_data[2]
*45 i_transmit_data[3]
*46 i_transmit_data[4]
*47 i_transmit_data[5]
*48 i_transmit_data[6]
*49 i_transmit_data[7]
*50 io_scl
*51 io_sda
*52 net130
*53 net131
*54 o_cmd_status_reg[2]
*55 o_cmd_status_reg[3]
*56 o_cmd_status_reg[4]
*57 o_cmd_status_reg[5]
*58 o_cmd_status_reg[6]
*59 o_cmd_status_reg[7]
*60 o_int_n
*61 o_receive_data[0]
*62 o_receive_data[1]
*63 o_receive_data[2]
*64 o_receive_data[3]
*65 o_receive_data[4]
*66 o_receive_data[5]
*67 o_receive_data[6]
*68 o_receive_data[7]
*69 o_received_data_valid
*70 o_start_ack
*71 o_transmit_data_request
*72 _0000_
*73 _0001_
*74 _0002_
*75 _0003_
*76 _0004_
*77 _0005_
*78 _0006_
*79 _0007_
*80 _0008_
*81 _0009_
*82 _0010_
*83 _0011_
*84 _0012_
*85 _0013_
*86 _0014_
*87 _0015_
*88 _0016_
*89 _0017_
*90 _0018_
*91 _0019_
*92 _0020_
*93 _0021_
*94 _0022_
*95 _0023_
*96 _0024_
*97 _0025_
*98 _0026_
*99 _0027_
*100 _0028_
*101 _0029_
*102 _0030_
*103 _0031_
*104 _0032_
*105 _0033_
*106 _0034_
*107 _0035_
*108 _0036_
*109 _0037_
*110 _0038_
*111 _0039_
*112 _0040_
*113 _0041_
*114 _0042_
*115 _0043_
*116 _0044_
*117 _0045_
*118 _0046_
*119 _0047_
*120 _0048_
*121 _0049_
*122 _0050_
*123 _0051_
*124 _0052_
*125 _0053_
*126 _0054_
*127 _0055_
*128 _0056_
*129 _0057_
*130 _0058_
*131 _0059_
*132 _0060_
*133 _0061_
*134 _0062_
*135 _0063_
*136 _0064_
*137 _0065_
*138 _0066_
*139 _0067_
*140 _0068_
*141 _0069_
*142 _0070_
*143 _0071_
*144 _0072_
*145 _0073_
*146 _0074_
*147 _0075_
*148 _0076_
*149 _0077_
*150 _0078_
*151 _0079_
*152 _0080_
*153 _0081_
*154 _0082_
*155 _0083_
*156 _0084_
*157 _0085_
*158 _0086_
*159 _0087_
*160 _0088_
*161 _0089_
*162 _0090_
*163 _0091_
*164 _0092_
*165 _0093_
*166 _0094_
*167 _0095_
*168 _0096_
*169 _0097_
*170 _0098_
*171 _0099_
*172 _0100_
*173 _0101_
*174 _0102_
*175 _0103_
*176 _0104_
*177 _0105_
*178 _0106_
*179 _0107_
*180 _0108_
*181 _0109_
*182 _0110_
*183 _0111_
*184 _0112_
*185 _0113_
*186 _0114_
*187 _0115_
*188 _0116_
*189 _0117_
*190 _0118_
*191 _0119_
*192 _0120_
*193 _0121_
*194 _0122_
*195 _0123_
*196 _0124_
*197 _0125_
*198 _0126_
*199 _0127_
*200 _0128_
*201 _0129_
*202 _0130_
*203 _0131_
*204 _0132_
*205 _0133_
*206 _0134_
*207 _0135_
*208 _0136_
*209 _0137_
*210 _0138_
*211 _0139_
*212 _0140_
*213 _0141_
*214 _0142_
*215 _0143_
*216 _0144_
*217 _0145_
*218 _0146_
*219 _0147_
*220 _0148_
*221 _0149_
*222 _0150_
*223 _0151_
*224 _0152_
*225 _0153_
*226 _0154_
*227 _0155_
*228 _0156_
*229 _0157_
*230 _0158_
*231 _0159_
*232 _0160_
*233 _0161_
*234 _0162_
*235 _0163_
*236 _0164_
*237 _0165_
*238 _0166_
*239 _0167_
*240 _0168_
*241 _0169_
*242 _0170_
*243 _0171_
*244 _0172_
*245 _0173_
*246 _0174_
*247 _0175_
*248 _0176_
*249 _0177_
*250 _0178_
*251 _0179_
*252 _0180_
*253 _0181_
*254 _0182_
*255 _0183_
*256 _0184_
*257 _0185_
*258 _0186_
*259 _0187_
*260 _0188_
*261 _0189_
*262 _0190_
*263 _0191_
*264 _0192_
*265 _0193_
*266 _0194_
*267 _0195_
*268 _0196_
*269 _0197_
*270 _0198_
*271 _0199_
*272 _0200_
*273 _0201_
*274 _0202_
*275 _0203_
*276 _0204_
*277 _0205_
*278 _0206_
*279 _0207_
*280 _0208_
*281 _0209_
*282 _0210_
*283 _0211_
*284 _0212_
*285 _0213_
*286 _0214_
*287 _0215_
*288 _0216_
*289 _0217_
*290 _0218_
*291 _0219_
*292 _0220_
*293 _0221_
*294 _0222_
*295 _0223_
*296 _0224_
*297 _0225_
*298 _0226_
*299 _0227_
*300 _0228_
*301 _0229_
*302 _0230_
*303 _0231_
*304 _0232_
*305 _0233_
*306 _0234_
*307 _0235_
*308 _0236_
*309 _0237_
*310 _0238_
*311 _0239_
*312 _0240_
*313 _0241_
*314 _0242_
*315 _0243_
*316 _0244_
*317 _0245_
*318 _0246_
*319 _0247_
*320 _0248_
*321 _0249_
*322 _0250_
*323 _0251_
*324 _0252_
*325 _0253_
*326 _0254_
*327 _0255_
*328 _0256_
*329 _0257_
*330 _0258_
*331 _0259_
*332 _0260_
*333 _0261_
*334 _0262_
*335 _0263_
*336 _0264_
*337 _0265_
*338 _0266_
*339 _0267_
*340 _0268_
*341 _0269_
*342 _0270_
*343 _0271_
*344 _0272_
*345 _0273_
*346 _0274_
*347 _0275_
*348 _0276_
*349 _0277_
*350 _0278_
*351 _0279_
*352 _0280_
*353 _0281_
*354 _0282_
*355 _0283_
*356 _0284_
*357 _0285_
*358 _0286_
*359 _0287_
*360 _0288_
*361 _0289_
*362 _0290_
*363 _0291_
*364 _0292_
*365 _0293_
*366 _0294_
*367 _0295_
*368 _0296_
*369 _0297_
*370 _0298_
*371 _0299_
*372 _0300_
*373 _0301_
*374 _0302_
*375 _0303_
*376 _0304_
*377 _0305_
*378 _0306_
*379 _0307_
*380 _0308_
*381 _0309_
*382 _0310_
*383 _0311_
*384 _0312_
*385 _0313_
*386 _0314_
*387 _0315_
*388 _0316_
*389 _0317_
*390 _0318_
*391 _0319_
*392 _0320_
*393 _0321_
*394 _0322_
*395 _0323_
*396 _0324_
*397 _0325_
*398 _0326_
*399 _0327_
*400 _0328_
*401 _0329_
*402 _0330_
*403 _0331_
*404 _0332_
*405 _0333_
*406 _0334_
*407 _0335_
*408 _0336_
*409 _0337_
*410 _0338_
*411 _0339_
*412 _0340_
*413 _0341_
*414 _0342_
*415 _0343_
*416 _0344_
*417 _0345_
*418 _0346_
*419 _0347_
*420 _0348_
*421 _0349_
*422 _0350_
*423 _0351_
*424 _0352_
*425 _0353_
*426 _0354_
*427 _0355_
*428 _0356_
*429 _0357_
*430 _0358_
*431 _0359_
*432 _0360_
*433 _0361_
*434 _0362_
*435 _0363_
*436 _0364_
*437 _0365_
*438 _0366_
*439 _0367_
*440 _0368_
*441 _0369_
*442 _0370_
*443 _0371_
*444 _0372_
*445 _0373_
*446 _0374_
*447 _0375_
*448 _0376_
*449 _0377_
*450 _0378_
*451 _0379_
*452 _0380_
*453 _0381_
*454 _0382_
*455 _0383_
*456 _0384_
*457 _0385_
*458 _0386_
*459 _0387_
*460 _0388_
*461 _0389_
*462 _0390_
*463 _0391_
*464 _0392_
*465 _0393_
*466 _0394_
*467 _0395_
*468 _0396_
*469 _0397_
*470 _0398_
*471 _0399_
*472 _0400_
*473 _0401_
*474 _0402_
*475 _0403_
*476 _0404_
*477 _0405_
*478 _0406_
*479 _0407_
*480 _0408_
*481 _0409_
*482 _0410_
*483 _0411_
*484 _0412_
*485 _0413_
*486 _0414_
*487 _0415_
*488 _0416_
*489 _0417_
*490 _0418_
*491 _0419_
*492 _0420_
*493 _0421_
*494 _0422_
*495 _0423_
*496 _0424_
*497 _0425_
*498 _0426_
*499 _0427_
*500 _0428_
*501 _0429_
*502 _0430_
*503 _0431_
*504 _0432_
*505 _0433_
*506 _0434_
*507 _0435_
*508 _0436_
*509 _0437_
*510 _0438_
*511 _0439_
*512 _0440_
*513 _0441_
*514 _0442_
*515 _0443_
*516 _0444_
*517 _0445_
*518 _0446_
*519 _0447_
*520 _0448_
*521 _0449_
*522 _0450_
*523 _0451_
*524 _0452_
*525 _0453_
*526 _0454_
*527 _0455_
*528 _0456_
*529 _0457_
*530 _0458_
*531 _0459_
*532 _0460_
*533 _0461_
*534 _0462_
*535 _0463_
*536 _0464_
*537 _0465_
*538 _0466_
*539 _0467_
*540 _0468_
*541 _0469_
*542 _0470_
*543 _0471_
*544 _0472_
*545 _0473_
*546 _0474_
*547 _0475_
*548 _0476_
*549 _0477_
*550 _0478_
*551 _0479_
*552 _0480_
*553 _0481_
*554 _0482_
*555 _0483_
*556 _0484_
*557 _0485_
*558 _0486_
*559 _0487_
*560 _0488_
*561 _0489_
*562 _0490_
*563 _0491_
*564 _0492_
*565 _0493_
*566 _0494_
*567 _0495_
*568 _0496_
*569 _0497_
*570 _0498_
*571 _0499_
*572 _0500_
*573 _0501_
*574 _0502_
*575 _0503_
*576 _0504_
*577 _0505_
*578 _0506_
*579 _0507_
*580 _0508_
*581 _0509_
*582 _0510_
*583 _0511_
*584 _0512_
*585 _0513_
*586 _0514_
*587 _0515_
*588 _0516_
*589 _0517_
*590 _0518_
*591 _0519_
*592 _0520_
*593 _0521_
*594 _0522_
*595 _0523_
*596 _0524_
*597 _0525_
*598 _0526_
*599 _0527_
*600 _0528_
*601 _0529_
*602 _0530_
*603 clknet_0_i_clk
*604 clknet_2_0__leaf_i_clk
*605 clknet_2_1__leaf_i_clk
*606 clknet_2_2__leaf_i_clk
*607 clknet_2_3__leaf_i_clk
*608 clknet_leaf_0_i_clk
*609 clknet_leaf_10_i_clk
*610 clknet_leaf_11_i_clk
*611 clknet_leaf_12_i_clk
*612 clknet_leaf_13_i_clk
*613 clknet_leaf_14_i_clk
*614 clknet_leaf_15_i_clk
*615 clknet_leaf_16_i_clk
*616 clknet_leaf_17_i_clk
*617 clknet_leaf_18_i_clk
*618 clknet_leaf_19_i_clk
*619 clknet_leaf_1_i_clk
*620 clknet_leaf_20_i_clk
*621 clknet_leaf_2_i_clk
*622 clknet_leaf_3_i_clk
*623 clknet_leaf_4_i_clk
*624 clknet_leaf_5_i_clk
*625 clknet_leaf_6_i_clk
*626 clknet_leaf_7_i_clk
*627 clknet_leaf_8_i_clk
*628 clknet_leaf_9_i_clk
*629 net
*630 net1
*631 net10
*632 net100
*633 net101
*634 net102
*635 net103
*636 net104
*637 net105
*638 net106
*639 net107
*640 net108
*641 net109
*642 net11
*643 net110
*644 net111
*645 net112
*646 net113
*647 net114
*648 net115
*649 net116
*650 net117
*651 net118
*652 net119
*653 net12
*654 net120
*655 net121
*656 net122
*657 net123
*658 net124
*659 net125
*660 net126
*661 net127
*662 net128
*663 net129
*664 net13
*665 net132
*666 net133
*667 net134
*668 net135
*669 net136
*670 net137
*671 net138
*672 net139
*673 net14
*674 net140
*675 net141
*676 net142
*677 net143
*678 net144
*679 net145
*680 net146
*681 net147
*682 net148
*683 net149
*684 net15
*685 net150
*686 net151
*687 net152
*688 net153
*689 net154
*690 net155
*691 net156
*692 net157
*693 net158
*694 net159
*695 net16
*696 net160
*697 net161
*698 net162
*699 net163
*700 net164
*701 net165
*702 net166
*703 net167
*704 net168
*705 net169
*706 net17
*707 net170
*708 net171
*709 net172
*710 net173
*711 net174
*712 net175
*713 net176
*714 net177
*715 net178
*716 net179
*717 net18
*718 net180
*719 net181
*720 net182
*721 net183
*722 net184
*723 net185
*724 net186
*725 net187
*726 net188
*727 net189
*728 net19
*729 net190
*730 net191
*731 net192
*732 net193
*733 net194
*734 net195
*735 net196
*736 net197
*737 net198
*738 net199
*739 net2
*740 net20
*741 net200
*742 net201
*743 net202
*744 net203
*745 net204
*746 net205
*747 net206
*748 net207
*749 net208
*750 net209
*751 net21
*752 net210
*753 net211
*754 net212
*755 net213
*756 net214
*757 net215
*758 net216
*759 net217
*760 net218
*761 net219
*762 net22
*763 net220
*764 net221
*765 net222
*766 net223
*767 net224
*768 net225
*769 net226
*770 net227
*771 net228
*772 net229
*773 net23
*774 net230
*775 net231
*776 net232
*777 net233
*778 net234
*779 net235
*780 net236
*781 net237
*782 net238
*783 net239
*784 net24
*785 net240
*786 net241
*787 net242
*788 net243
*789 net244
*790 net245
*791 net246
*792 net247
*793 net248
*794 net249
*795 net25
*796 net250
*797 net251
*798 net252
*799 net253
*800 net254
*801 net255
*802 net256
*803 net257
*804 net258
*805 net259
*806 net26
*807 net260
*808 net261
*809 net262
*810 net263
*811 net264
*812 net265
*813 net266
*814 net267
*815 net268
*816 net269
*817 net27
*818 net270
*819 net271
*820 net272
*821 net273
*822 net274
*823 net275
*824 net276
*825 net277
*826 net278
*827 net279
*828 net28
*829 net280
*830 net281
*831 net282
*832 net283
*833 net284
*834 net285
*835 net286
*836 net287
*837 net288
*838 net289
*839 net29
*840 net3
*841 net30
*842 net31
*843 net32
*844 net33
*845 net34
*846 net35
*847 net36
*848 net37
*849 net38
*850 net39
*851 net4
*852 net40
*853 net41
*854 net42
*855 net43
*856 net44
*857 net45
*858 net46
*859 net47
*860 net48
*861 net49
*862 net5
*863 net50
*864 net51
*865 net52
*866 net53
*867 net54
*868 net55
*869 net56
*870 net57
*871 net58
*872 net59
*873 net6
*874 net60
*875 net61
*876 net62
*877 net63
*878 net64
*879 net65
*880 net66
*881 net67
*882 net68
*883 net69
*884 net7
*885 net70
*886 net71
*887 net72
*888 net73
*889 net74
*890 net75
*891 net76
*892 net77
*893 net78
*894 net79
*895 net8
*896 net80
*897 net81
*898 net82
*899 net83
*900 net84
*901 net85
*902 net86
*903 net87
*904 net88
*905 net89
*906 net9
*907 net90
*908 net91
*909 net92
*910 net93
*911 net94
*912 net95
*913 net96
*914 net97
*915 net98
*916 net99
*917 u_i2c_master_controller\.bps_mode\[0\]
*918 u_i2c_master_controller\.bps_mode\[1\]
*919 u_i2c_master_controller\.cntrl_fsm\.abort_ack
*920 u_i2c_master_controller\.cntrl_fsm\.abort_ack_d1
*921 u_i2c_master_controller\.cntrl_fsm\.abort_ack_reg
*922 u_i2c_master_controller\.cntrl_fsm\.abort_reg
*923 u_i2c_master_controller\.cntrl_fsm\.abort_reg1
*924 u_i2c_master_controller\.cntrl_fsm\.adr_mode
*925 u_i2c_master_controller\.cntrl_fsm\.byte_cnt\[0\]
*926 u_i2c_master_controller\.cntrl_fsm\.byte_cnt\[1\]
*927 u_i2c_master_controller\.cntrl_fsm\.byte_cnt\[2\]
*928 u_i2c_master_controller\.cntrl_fsm\.byte_cnt\[3\]
*929 u_i2c_master_controller\.cntrl_fsm\.byte_cnt\[4\]
*930 u_i2c_master_controller\.cntrl_fsm\.byte_cnt\[5\]
*931 u_i2c_master_controller\.cntrl_fsm\.byte_cnt\[6\]
*932 u_i2c_master_controller\.cntrl_fsm\.byte_cnt\[7\]
*933 u_i2c_master_controller\.cntrl_fsm\.byte_rx_done
*934 u_i2c_master_controller\.cntrl_fsm\.byte_rx_fsm\.i_i2c_master_falling_scl_detect
*935 u_i2c_master_controller\.cntrl_fsm\.byte_rx_fsm\.i_rx_en
*936 u_i2c_master_controller\.cntrl_fsm\.byte_rx_fsm\.i_transaction_complete
*937 u_i2c_master_controller\.cntrl_fsm\.byte_rx_fsm\.o_rx_ack_sda
*938 u_i2c_master_controller\.cntrl_fsm\.byte_rx_fsm\.state\[0\]
*939 u_i2c_master_controller\.cntrl_fsm\.byte_rx_fsm\.state\[1\]
*940 u_i2c_master_controller\.cntrl_fsm\.byte_rx_fsm\.state\[2\]
*941 u_i2c_master_controller\.cntrl_fsm\.byte_rx_fsm\.state\[3\]
*942 u_i2c_master_controller\.cntrl_fsm\.byte_rx_fsm\.state\[4\]
*943 u_i2c_master_controller\.cntrl_fsm\.byte_rx_fsm\.state\[5\]
*944 u_i2c_master_controller\.cntrl_fsm\.byte_rx_fsm\.state\[6\]
*945 u_i2c_master_controller\.cntrl_fsm\.byte_rx_fsm\.state\[7\]
*946 u_i2c_master_controller\.cntrl_fsm\.byte_rx_fsm\.state\[8\]
*947 u_i2c_master_controller\.cntrl_fsm\.byte_rx_fsm\.state\[9\]
*948 u_i2c_master_controller\.cntrl_fsm\.byte_tx_done
*949 u_i2c_master_controller\.cntrl_fsm\.byte_tx_err
*950 u_i2c_master_controller\.cntrl_fsm\.byte_tx_fsm\.i_tx_data\[0\]
*951 u_i2c_master_controller\.cntrl_fsm\.byte_tx_fsm\.i_tx_data\[1\]
*952 u_i2c_master_controller\.cntrl_fsm\.byte_tx_fsm\.i_tx_data\[2\]
*953 u_i2c_master_controller\.cntrl_fsm\.byte_tx_fsm\.i_tx_data\[3\]
*954 u_i2c_master_controller\.cntrl_fsm\.byte_tx_fsm\.i_tx_data\[4\]
*955 u_i2c_master_controller\.cntrl_fsm\.byte_tx_fsm\.i_tx_data\[5\]
*956 u_i2c_master_controller\.cntrl_fsm\.byte_tx_fsm\.i_tx_data\[6\]
*957 u_i2c_master_controller\.cntrl_fsm\.byte_tx_fsm\.i_tx_data\[7\]
*958 u_i2c_master_controller\.cntrl_fsm\.byte_tx_fsm\.i_tx_en
*959 u_i2c_master_controller\.cntrl_fsm\.byte_tx_fsm\.o_byte_tx_sda
*960 u_i2c_master_controller\.cntrl_fsm\.byte_tx_fsm\.state\[0\]
*961 u_i2c_master_controller\.cntrl_fsm\.byte_tx_fsm\.state\[1\]
*962 u_i2c_master_controller\.cntrl_fsm\.byte_tx_fsm\.state\[2\]
*963 u_i2c_master_controller\.cntrl_fsm\.byte_tx_fsm\.state\[3\]
*964 u_i2c_master_controller\.cntrl_fsm\.byte_tx_fsm\.state\[4\]
*965 u_i2c_master_controller\.cntrl_fsm\.byte_tx_fsm\.state\[5\]
*966 u_i2c_master_controller\.cntrl_fsm\.byte_tx_fsm\.state\[6\]
*967 u_i2c_master_controller\.cntrl_fsm\.byte_tx_fsm\.state\[7\]
*968 u_i2c_master_controller\.cntrl_fsm\.byte_tx_fsm\.state\[8\]
*969 u_i2c_master_controller\.cntrl_fsm\.byte_tx_fsm\.state\[9\]
*970 u_i2c_master_controller\.cntrl_fsm\.cntrl_fsm\.byte_count_i\[0\]
*971 u_i2c_master_controller\.cntrl_fsm\.cntrl_fsm\.byte_count_i\[1\]
*972 u_i2c_master_controller\.cntrl_fsm\.cntrl_fsm\.byte_count_i\[2\]
*973 u_i2c_master_controller\.cntrl_fsm\.cntrl_fsm\.byte_count_i\[3\]
*974 u_i2c_master_controller\.cntrl_fsm\.cntrl_fsm\.byte_count_i\[4\]
*975 u_i2c_master_controller\.cntrl_fsm\.cntrl_fsm\.byte_count_i\[5\]
*976 u_i2c_master_controller\.cntrl_fsm\.cntrl_fsm\.byte_count_i\[6\]
*977 u_i2c_master_controller\.cntrl_fsm\.cntrl_fsm\.byte_count_i\[7\]
*978 u_i2c_master_controller\.cntrl_fsm\.cntrl_fsm\.i2cbus_busy_i
*979 u_i2c_master_controller\.cntrl_fsm\.cntrl_fsm\.i_i2c_master_start_detect
*980 u_i2c_master_controller\.cntrl_fsm\.cntrl_fsm\.i_i2c_master_stop_detect
*981 u_i2c_master_controller\.cntrl_fsm\.cntrl_fsm\.i_rw_mode
*982 u_i2c_master_controller\.cntrl_fsm\.cntrl_fsm\.i_slave_addr\[1\]
*983 u_i2c_master_controller\.cntrl_fsm\.cntrl_fsm\.i_slave_addr\[2\]
*984 u_i2c_master_controller\.cntrl_fsm\.cntrl_fsm\.i_slave_addr\[3\]
*985 u_i2c_master_controller\.cntrl_fsm\.cntrl_fsm\.i_slave_addr\[4\]
*986 u_i2c_master_controller\.cntrl_fsm\.cntrl_fsm\.i_slave_addr\[5\]
*987 u_i2c_master_controller\.cntrl_fsm\.cntrl_fsm\.i_slave_addr\[6\]
*988 u_i2c_master_controller\.cntrl_fsm\.cntrl_fsm\.i_slave_addr\[7\]
*989 u_i2c_master_controller\.cntrl_fsm\.cntrl_fsm\.i_slave_changed
*990 u_i2c_master_controller\.cntrl_fsm\.cntrl_fsm\.i_start
*991 u_i2c_master_controller\.cntrl_fsm\.cntrl_fsm\.i_start_gen_ack
*992 u_i2c_master_controller\.cntrl_fsm\.cntrl_fsm\.o_config_latch_en
*993 u_i2c_master_controller\.cntrl_fsm\.cntrl_fsm\.o_enable_scl
*994 u_i2c_master_controller\.cntrl_fsm\.cntrl_fsm\.o_i2c_busy
*995 u_i2c_master_controller\.cntrl_fsm\.cntrl_fsm\.o_rx_done
*996 u_i2c_master_controller\.cntrl_fsm\.cntrl_fsm\.o_start_gen_en
*997 u_i2c_master_controller\.cntrl_fsm\.cntrl_fsm\.o_stop_gen_en
*998 u_i2c_master_controller\.cntrl_fsm\.cntrl_fsm\.o_tx_done
*999 u_i2c_master_controller\.cntrl_fsm\.cntrl_fsm\.rx_en
*1000 u_i2c_master_controller\.cntrl_fsm\.cntrl_fsm\.state\[0\]
*1001 u_i2c_master_controller\.cntrl_fsm\.cntrl_fsm\.state\[1\]
*1002 u_i2c_master_controller\.cntrl_fsm\.cntrl_fsm\.state\[2\]
*1003 u_i2c_master_controller\.cntrl_fsm\.cntrl_fsm\.state\[3\]
*1004 u_i2c_master_controller\.cntrl_fsm\.cntrl_fsm\.state\[4\]
*1005 u_i2c_master_controller\.cntrl_fsm\.cntrl_fsm\.state\[5\]
*1006 u_i2c_master_controller\.cntrl_fsm\.cntrl_fsm\.state\[6\]
*1007 u_i2c_master_controller\.cntrl_fsm\.cntrl_fsm\.state\[7\]
*1008 u_i2c_master_controller\.cntrl_fsm\.cntrl_fsm\.state\[8\]
*1009 u_i2c_master_controller\.cntrl_fsm\.cntrl_fsm\.state\[9\]
*1010 u_i2c_master_controller\.cntrl_fsm\.intr_clr_reg
*1011 u_i2c_master_controller\.cntrl_fsm\.intr_clr_reg1
*1012 u_i2c_master_controller\.cntrl_fsm\.intr_clr_reg2
*1013 u_i2c_master_controller\.cntrl_fsm\.o_int_out
*1014 u_i2c_master_controller\.cntrl_fsm\.rx_done_d1
*1015 u_i2c_master_controller\.cntrl_fsm\.rx_done_reg
*1016 u_i2c_master_controller\.cntrl_fsm\.rx_err
*1017 u_i2c_master_controller\.cntrl_fsm\.rx_err_d1
*1018 u_i2c_master_controller\.cntrl_fsm\.rx_err_reg
*1019 u_i2c_master_controller\.cntrl_fsm\.rxintr_en
*1020 u_i2c_master_controller\.cntrl_fsm\.start_reg1
*1021 u_i2c_master_controller\.cntrl_fsm\.tx_done_d1
*1022 u_i2c_master_controller\.cntrl_fsm\.tx_done_reg
*1023 u_i2c_master_controller\.cntrl_fsm\.tx_err
*1024 u_i2c_master_controller\.cntrl_fsm\.tx_err_d1
*1025 u_i2c_master_controller\.cntrl_fsm\.tx_err_reg
*1026 u_i2c_master_controller\.cntrl_fsm\.txintr_en
*1027 u_i2c_master_controller\.filter_scl\.in_d1
*1028 u_i2c_master_controller\.filter_scl\.in_d2
*1029 u_i2c_master_controller\.filter_scl\.in_d3
*1030 u_i2c_master_controller\.filter_scl\.out_n
*1031 u_i2c_master_controller\.filter_sda\.in_d1
*1032 u_i2c_master_controller\.filter_sda\.in_d2
*1033 u_i2c_master_controller\.filter_sda\.in_d3
*1034 u_i2c_master_controller\.filter_sda\.out_n
*1035 u_i2c_master_controller\.i2cbus_cntrl_fsm\.falling_scl_detect\.state\[0\]
*1036 u_i2c_master_controller\.i2cbus_cntrl_fsm\.falling_scl_detect\.state\[1\]
*1037 u_i2c_master_controller\.i2cbus_cntrl_fsm\.falling_scl_detect\.state\[2\]
*1038 u_i2c_master_controller\.i2cbus_cntrl_fsm\.i2c_master_start_sda_i
*1039 u_i2c_master_controller\.i2cbus_cntrl_fsm\.i2c_master_stop_sda_i
*1040 u_i2c_master_controller\.i2cbus_cntrl_fsm\.o_i2c_master_scl
*1041 u_i2c_master_controller\.i2cbus_cntrl_fsm\.scl_gen\.count\[0\]
*1042 u_i2c_master_controller\.i2cbus_cntrl_fsm\.scl_gen\.count\[1\]
*1043 u_i2c_master_controller\.i2cbus_cntrl_fsm\.scl_gen\.count\[2\]
*1044 u_i2c_master_controller\.i2cbus_cntrl_fsm\.scl_gen\.count\[3\]
*1045 u_i2c_master_controller\.i2cbus_cntrl_fsm\.scl_gen\.count\[4\]
*1046 u_i2c_master_controller\.i2cbus_cntrl_fsm\.scl_gen\.count\[5\]
*1047 u_i2c_master_controller\.i2cbus_cntrl_fsm\.scl_gen\.count\[6\]
*1048 u_i2c_master_controller\.i2cbus_cntrl_fsm\.scl_gen\.count\[7\]
*1049 u_i2c_master_controller\.i2cbus_cntrl_fsm\.scl_gen\.count\[8\]
*1050 u_i2c_master_controller\.i2cbus_cntrl_fsm\.scl_gen\.count_en
*1051 u_i2c_master_controller\.i2cbus_cntrl_fsm\.scl_gen\.count_eq_modby2
*1052 u_i2c_master_controller\.i2cbus_cntrl_fsm\.scl_gen\.count_reset
*1053 u_i2c_master_controller\.i2cbus_cntrl_fsm\.scl_gen\.modulus\[0\]
*1054 u_i2c_master_controller\.i2cbus_cntrl_fsm\.scl_gen\.modulus\[1\]
*1055 u_i2c_master_controller\.i2cbus_cntrl_fsm\.scl_gen\.modulus\[2\]
*1056 u_i2c_master_controller\.i2cbus_cntrl_fsm\.scl_gen\.modulus\[3\]
*1057 u_i2c_master_controller\.i2cbus_cntrl_fsm\.scl_gen\.modulus\[4\]
*1058 u_i2c_master_controller\.i2cbus_cntrl_fsm\.scl_gen\.modulus\[5\]
*1059 u_i2c_master_controller\.i2cbus_cntrl_fsm\.scl_gen\.modulus\[6\]
*1060 u_i2c_master_controller\.i2cbus_cntrl_fsm\.scl_gen\.modulus\[7\]
*1061 u_i2c_master_controller\.i2cbus_cntrl_fsm\.scl_gen\.modulus\[8\]
*1062 u_i2c_master_controller\.i2cbus_cntrl_fsm\.scl_gen\.state\[0\]
*1063 u_i2c_master_controller\.i2cbus_cntrl_fsm\.scl_gen\.state\[1\]
*1064 u_i2c_master_controller\.i2cbus_cntrl_fsm\.scl_gen\.state\[2\]
*1065 u_i2c_master_controller\.i2cbus_cntrl_fsm\.scl_gen\.state\[3\]
*1066 u_i2c_master_controller\.i2cbus_cntrl_fsm\.start_detect\.state
*1067 u_i2c_master_controller\.i2cbus_cntrl_fsm\.start_detect\.state_next
*1068 u_i2c_master_controller\.i2cbus_cntrl_fsm\.start_gen\.count_threshold\[4\]
*1069 u_i2c_master_controller\.i2cbus_cntrl_fsm\.start_gen\.count_threshold\[6\]
*1070 u_i2c_master_controller\.i2cbus_cntrl_fsm\.start_gen\.delay_done
*1071 u_i2c_master_controller\.i2cbus_cntrl_fsm\.start_gen\.delay_gen\.count\[0\]
*1072 u_i2c_master_controller\.i2cbus_cntrl_fsm\.start_gen\.delay_gen\.count\[10\]
*1073 u_i2c_master_controller\.i2cbus_cntrl_fsm\.start_gen\.delay_gen\.count\[11\]
*1074 u_i2c_master_controller\.i2cbus_cntrl_fsm\.start_gen\.delay_gen\.count\[12\]
*1075 u_i2c_master_controller\.i2cbus_cntrl_fsm\.start_gen\.delay_gen\.count\[13\]
*1076 u_i2c_master_controller\.i2cbus_cntrl_fsm\.start_gen\.delay_gen\.count\[14\]
*1077 u_i2c_master_controller\.i2cbus_cntrl_fsm\.start_gen\.delay_gen\.count\[15\]
*1078 u_i2c_master_controller\.i2cbus_cntrl_fsm\.start_gen\.delay_gen\.count\[1\]
*1079 u_i2c_master_controller\.i2cbus_cntrl_fsm\.start_gen\.delay_gen\.count\[2\]
*1080 u_i2c_master_controller\.i2cbus_cntrl_fsm\.start_gen\.delay_gen\.count\[3\]
*1081 u_i2c_master_controller\.i2cbus_cntrl_fsm\.start_gen\.delay_gen\.count\[4\]
*1082 u_i2c_master_controller\.i2cbus_cntrl_fsm\.start_gen\.delay_gen\.count\[5\]
*1083 u_i2c_master_controller\.i2cbus_cntrl_fsm\.start_gen\.delay_gen\.count\[6\]
*1084 u_i2c_master_controller\.i2cbus_cntrl_fsm\.start_gen\.delay_gen\.count\[7\]
*1085 u_i2c_master_controller\.i2cbus_cntrl_fsm\.start_gen\.delay_gen\.count\[8\]
*1086 u_i2c_master_controller\.i2cbus_cntrl_fsm\.start_gen\.delay_gen\.count\[9\]
*1087 u_i2c_master_controller\.i2cbus_cntrl_fsm\.start_gen\.delay_gen\.start_delay
*1088 u_i2c_master_controller\.i2cbus_cntrl_fsm\.start_gen\.state\[0\]
*1089 u_i2c_master_controller\.i2cbus_cntrl_fsm\.start_gen\.state\[1\]
*1090 u_i2c_master_controller\.i2cbus_cntrl_fsm\.start_gen\.state\[2\]
*1091 u_i2c_master_controller\.i2cbus_cntrl_fsm\.start_gen\.state\[3\]
*1092 u_i2c_master_controller\.i2cbus_cntrl_fsm\.start_gen\.state\[4\]
*1093 u_i2c_master_controller\.i2cbus_cntrl_fsm\.start_gen\.state\[5\]
*1094 u_i2c_master_controller\.i2cbus_cntrl_fsm\.start_gen\.state\[6\]
*1095 u_i2c_master_controller\.i2cbus_cntrl_fsm\.stop_detect\.state
*1096 u_i2c_master_controller\.i2cbus_cntrl_fsm\.stop_gen\.delay_done
*1097 u_i2c_master_controller\.i2cbus_cntrl_fsm\.stop_gen\.delay_gen\.count\[0\]
*1098 u_i2c_master_controller\.i2cbus_cntrl_fsm\.stop_gen\.delay_gen\.count\[10\]
*1099 u_i2c_master_controller\.i2cbus_cntrl_fsm\.stop_gen\.delay_gen\.count\[11\]
*1100 u_i2c_master_controller\.i2cbus_cntrl_fsm\.stop_gen\.delay_gen\.count\[12\]
*1101 u_i2c_master_controller\.i2cbus_cntrl_fsm\.stop_gen\.delay_gen\.count\[13\]
*1102 u_i2c_master_controller\.i2cbus_cntrl_fsm\.stop_gen\.delay_gen\.count\[14\]
*1103 u_i2c_master_controller\.i2cbus_cntrl_fsm\.stop_gen\.delay_gen\.count\[15\]
*1104 u_i2c_master_controller\.i2cbus_cntrl_fsm\.stop_gen\.delay_gen\.count\[1\]
*1105 u_i2c_master_controller\.i2cbus_cntrl_fsm\.stop_gen\.delay_gen\.count\[2\]
*1106 u_i2c_master_controller\.i2cbus_cntrl_fsm\.stop_gen\.delay_gen\.count\[3\]
*1107 u_i2c_master_controller\.i2cbus_cntrl_fsm\.stop_gen\.delay_gen\.count\[4\]
*1108 u_i2c_master_controller\.i2cbus_cntrl_fsm\.stop_gen\.delay_gen\.count\[5\]
*1109 u_i2c_master_controller\.i2cbus_cntrl_fsm\.stop_gen\.delay_gen\.count\[6\]
*1110 u_i2c_master_controller\.i2cbus_cntrl_fsm\.stop_gen\.delay_gen\.count\[7\]
*1111 u_i2c_master_controller\.i2cbus_cntrl_fsm\.stop_gen\.delay_gen\.count\[8\]
*1112 u_i2c_master_controller\.i2cbus_cntrl_fsm\.stop_gen\.delay_gen\.count\[9\]
*1113 u_i2c_master_controller\.i2cbus_cntrl_fsm\.stop_gen\.delay_gen\.start_delay
*1114 u_i2c_master_controller\.i2cbus_cntrl_fsm\.stop_gen\.state\[0\]
*1115 u_i2c_master_controller\.i2cbus_cntrl_fsm\.stop_gen\.state\[1\]
*1116 u_i2c_master_controller\.i2cbus_cntrl_fsm\.stop_gen\.state\[2\]
*1117 u_i2c_master_controller\.soft_reset_d1
*1118 u_i2c_master_controller\.soft_reset_d2
*1119 u_i2c_master_controller\.soft_reset_d3
*1120 FILLER_0_113
*1121 FILLER_0_131
*1122 FILLER_0_141
*1123 FILLER_0_144
*1124 FILLER_0_166
*1125 FILLER_0_185
*1126 FILLER_0_221
*1127 FILLER_0_249
*1128 FILLER_0_253
*1129 FILLER_0_26
*1130 FILLER_0_276
*1131 FILLER_0_279
*1132 FILLER_0_29
*1133 FILLER_0_297
*1134 FILLER_0_3
*1135 FILLER_0_300
*1136 FILLER_0_303
*1137 FILLER_0_306
*1138 FILLER_0_57
*1139 FILLER_0_6
*1140 FILLER_0_60
*1141 FILLER_0_63
*1142 FILLER_0_81
*1143 FILLER_0_85
*1144 FILLER_10_105
*1145 FILLER_10_108
*1146 FILLER_10_111
*1147 FILLER_10_114
*1148 FILLER_10_117
*1149 FILLER_10_12
*1150 FILLER_10_132
*1151 FILLER_10_147
*1152 FILLER_10_15
*1153 FILLER_10_156
*1154 FILLER_10_18
*1155 FILLER_10_180
*1156 FILLER_10_183
*1157 FILLER_10_193
*1158 FILLER_10_21
*1159 FILLER_10_239
*1160 FILLER_10_24
*1161 FILLER_10_247
*1162 FILLER_10_250
*1163 FILLER_10_260
*1164 FILLER_10_263
*1165 FILLER_10_266
*1166 FILLER_10_27
*1167 FILLER_10_29
*1168 FILLER_10_3
*1169 FILLER_10_305
*1170 FILLER_10_6
*1171 FILLER_10_72
*1172 FILLER_10_75
*1173 FILLER_10_78
*1174 FILLER_10_81
*1175 FILLER_10_9
*1176 FILLER_10_94
*1177 FILLER_11_100
*1178 FILLER_11_103
*1179 FILLER_11_106
*1180 FILLER_11_109
*1181 FILLER_11_11
*1182 FILLER_11_113
*1183 FILLER_11_116
*1184 FILLER_11_147
*1185 FILLER_11_150
*1186 FILLER_11_153
*1187 FILLER_11_156
*1188 FILLER_11_159
*1189 FILLER_11_169
*1190 FILLER_11_172
*1191 FILLER_11_175
*1192 FILLER_11_193
*1193 FILLER_11_196
*1194 FILLER_11_220
*1195 FILLER_11_223
*1196 FILLER_11_225
*1197 FILLER_11_228
*1198 FILLER_11_259
*1199 FILLER_11_262
*1200 FILLER_11_265
*1201 FILLER_11_268
*1202 FILLER_11_271
*1203 FILLER_11_305
*1204 FILLER_11_74
*1205 FILLER_11_97
*1206 FILLER_12_115
*1207 FILLER_12_139
*1208 FILLER_12_144
*1209 FILLER_12_147
*1210 FILLER_12_150
*1211 FILLER_12_174
*1212 FILLER_12_177
*1213 FILLER_12_18
*1214 FILLER_12_204
*1215 FILLER_12_207
*1216 FILLER_12_217
*1217 FILLER_12_220
*1218 FILLER_12_223
*1219 FILLER_12_226
*1220 FILLER_12_229
*1221 FILLER_12_253
*1222 FILLER_12_256
*1223 FILLER_12_259
*1224 FILLER_12_262
*1225 FILLER_12_265
*1226 FILLER_12_268
*1227 FILLER_12_27
*1228 FILLER_12_271
*1229 FILLER_12_3
*1230 FILLER_12_302
*1231 FILLER_12_305
*1232 FILLER_12_6
*1233 FILLER_12_69
*1234 FILLER_12_72
*1235 FILLER_12_85
*1236 FILLER_13_106
*1237 FILLER_13_109
*1238 FILLER_13_125
*1239 FILLER_13_128
*1240 FILLER_13_131
*1241 FILLER_13_141
*1242 FILLER_13_144
*1243 FILLER_13_147
*1244 FILLER_13_164
*1245 FILLER_13_167
*1246 FILLER_13_169
*1247 FILLER_13_172
*1248 FILLER_13_175
*1249 FILLER_13_225
*1250 FILLER_13_228
*1251 FILLER_13_231
*1252 FILLER_13_234
*1253 FILLER_13_256
*1254 FILLER_13_259
*1255 FILLER_13_262
*1256 FILLER_13_265
*1257 FILLER_13_268
*1258 FILLER_13_275
*1259 FILLER_13_278
*1260 FILLER_13_28
*1261 FILLER_13_289
*1262 FILLER_13_292
*1263 FILLER_13_3
*1264 FILLER_13_300
*1265 FILLER_13_303
*1266 FILLER_13_306
*1267 FILLER_13_31
*1268 FILLER_13_34
*1269 FILLER_13_57
*1270 FILLER_13_6
*1271 FILLER_13_60
*1272 FILLER_13_63
*1273 FILLER_14_158
*1274 FILLER_14_161
*1275 FILLER_14_164
*1276 FILLER_14_167
*1277 FILLER_14_170
*1278 FILLER_14_173
*1279 FILLER_14_176
*1280 FILLER_14_197
*1281 FILLER_14_219
*1282 FILLER_14_222
*1283 FILLER_14_225
*1284 FILLER_14_228
*1285 FILLER_14_231
*1286 FILLER_14_234
*1287 FILLER_14_253
*1288 FILLER_14_26
*1289 FILLER_14_265
*1290 FILLER_14_268
*1291 FILLER_14_271
*1292 FILLER_14_274
*1293 FILLER_14_3
*1294 FILLER_14_304
*1295 FILLER_14_307
*1296 FILLER_14_46
*1297 FILLER_14_49
*1298 FILLER_14_52
*1299 FILLER_14_62
*1300 FILLER_14_65
*1301 FILLER_14_85
*1302 FILLER_14_88
*1303 FILLER_15_100
*1304 FILLER_15_148
*1305 FILLER_15_157
*1306 FILLER_15_165
*1307 FILLER_15_169
*1308 FILLER_15_172
*1309 FILLER_15_187
*1310 FILLER_15_214
*1311 FILLER_15_225
*1312 FILLER_15_228
*1313 FILLER_15_251
*1314 FILLER_15_259
*1315 FILLER_15_274
*1316 FILLER_15_277
*1317 FILLER_15_288
*1318 FILLER_15_291
*1319 FILLER_15_294
*1320 FILLER_15_297
*1321 FILLER_15_3
*1322 FILLER_15_300
*1323 FILLER_15_303
*1324 FILLER_15_306
*1325 FILLER_15_39
*1326 FILLER_15_42
*1327 FILLER_15_45
*1328 FILLER_15_48
*1329 FILLER_15_51
*1330 FILLER_15_54
*1331 FILLER_15_57
*1332 FILLER_15_6
*1333 FILLER_15_60
*1334 FILLER_15_63
*1335 FILLER_15_66
*1336 FILLER_15_9
*1337 FILLER_15_97
*1338 FILLER_16_100
*1339 FILLER_16_103
*1340 FILLER_16_138
*1341 FILLER_16_149
*1342 FILLER_16_197
*1343 FILLER_16_200
*1344 FILLER_16_230
*1345 FILLER_16_264
*1346 FILLER_16_267
*1347 FILLER_16_270
*1348 FILLER_16_280
*1349 FILLER_16_283
*1350 FILLER_16_286
*1351 FILLER_16_289
*1352 FILLER_16_29
*1353 FILLER_16_299
*1354 FILLER_16_3
*1355 FILLER_16_302
*1356 FILLER_16_305
*1357 FILLER_16_32
*1358 FILLER_16_35
*1359 FILLER_16_49
*1360 FILLER_16_52
*1361 FILLER_16_55
*1362 FILLER_16_58
*1363 FILLER_16_6
*1364 FILLER_16_61
*1365 FILLER_16_64
*1366 FILLER_16_67
*1367 FILLER_16_70
*1368 FILLER_16_85
*1369 FILLER_16_88
*1370 FILLER_16_91
*1371 FILLER_16_94
*1372 FILLER_16_97
*1373 FILLER_17_113
*1374 FILLER_17_169
*1375 FILLER_17_199
*1376 FILLER_17_202
*1377 FILLER_17_21
*1378 FILLER_17_222
*1379 FILLER_17_225
*1380 FILLER_17_228
*1381 FILLER_17_231
*1382 FILLER_17_234
*1383 FILLER_17_237
*1384 FILLER_17_240
*1385 FILLER_17_243
*1386 FILLER_17_251
*1387 FILLER_17_254
*1388 FILLER_17_257
*1389 FILLER_17_260
*1390 FILLER_17_263
*1391 FILLER_17_266
*1392 FILLER_17_269
*1393 FILLER_17_277
*1394 FILLER_17_281
*1395 FILLER_17_284
*1396 FILLER_17_287
*1397 FILLER_17_290
*1398 FILLER_17_3
*1399 FILLER_17_300
*1400 FILLER_17_303
*1401 FILLER_17_306
*1402 FILLER_17_35
*1403 FILLER_17_51
*1404 FILLER_17_54
*1405 FILLER_17_57
*1406 FILLER_17_60
*1407 FILLER_17_63
*1408 FILLER_17_82
*1409 FILLER_17_85
*1410 FILLER_17_88
*1411 FILLER_17_91
*1412 FILLER_17_94
*1413 FILLER_17_97
*1414 FILLER_18_11
*1415 FILLER_18_110
*1416 FILLER_18_184
*1417 FILLER_18_193
*1418 FILLER_18_205
*1419 FILLER_18_208
*1420 FILLER_18_211
*1421 FILLER_18_214
*1422 FILLER_18_217
*1423 FILLER_18_220
*1424 FILLER_18_223
*1425 FILLER_18_226
*1426 FILLER_18_229
*1427 FILLER_18_232
*1428 FILLER_18_235
*1429 FILLER_18_238
*1430 FILLER_18_253
*1431 FILLER_18_256
*1432 FILLER_18_259
*1433 FILLER_18_262
*1434 FILLER_18_265
*1435 FILLER_18_268
*1436 FILLER_18_27
*1437 FILLER_18_29
*1438 FILLER_18_306
*1439 FILLER_18_52
*1440 FILLER_18_55
*1441 FILLER_18_85
*1442 FILLER_18_88
*1443 FILLER_19_113
*1444 FILLER_19_133
*1445 FILLER_19_136
*1446 FILLER_19_139
*1447 FILLER_19_164
*1448 FILLER_19_167
*1449 FILLER_19_169
*1450 FILLER_19_172
*1451 FILLER_19_182
*1452 FILLER_19_185
*1453 FILLER_19_188
*1454 FILLER_19_19
*1455 FILLER_19_191
*1456 FILLER_19_194
*1457 FILLER_19_22
*1458 FILLER_19_223
*1459 FILLER_19_225
*1460 FILLER_19_228
*1461 FILLER_19_231
*1462 FILLER_19_247
*1463 FILLER_19_250
*1464 FILLER_19_263
*1465 FILLER_19_266
*1466 FILLER_19_269
*1467 FILLER_19_272
*1468 FILLER_19_275
*1469 FILLER_19_302
*1470 FILLER_19_305
*1471 FILLER_19_51
*1472 FILLER_19_54
*1473 FILLER_1_111
*1474 FILLER_1_113
*1475 FILLER_1_123
*1476 FILLER_1_132
*1477 FILLER_1_135
*1478 FILLER_1_166
*1479 FILLER_1_169
*1480 FILLER_1_204
*1481 FILLER_1_214
*1482 FILLER_1_246
*1483 FILLER_1_276
*1484 FILLER_1_279
*1485 FILLER_1_297
*1486 FILLER_1_3
*1487 FILLER_1_300
*1488 FILLER_1_303
*1489 FILLER_1_306
*1490 FILLER_1_35
*1491 FILLER_1_38
*1492 FILLER_1_66
*1493 FILLER_1_88
*1494 FILLER_1_91
*1495 FILLER_20_100
*1496 FILLER_20_103
*1497 FILLER_20_11
*1498 FILLER_20_134
*1499 FILLER_20_14
*1500 FILLER_20_141
*1501 FILLER_20_187
*1502 FILLER_20_223
*1503 FILLER_20_261
*1504 FILLER_20_264
*1505 FILLER_20_267
*1506 FILLER_20_270
*1507 FILLER_20_289
*1508 FILLER_20_29
*1509 FILLER_20_292
*1510 FILLER_20_295
*1511 FILLER_20_298
*1512 FILLER_20_36
*1513 FILLER_20_53
*1514 FILLER_20_85
*1515 FILLER_21_100
*1516 FILLER_21_139
*1517 FILLER_21_169
*1518 FILLER_21_177
*1519 FILLER_21_180
*1520 FILLER_21_189
*1521 FILLER_21_211
*1522 FILLER_21_214
*1523 FILLER_21_225
*1524 FILLER_21_272
*1525 FILLER_21_292
*1526 FILLER_21_3
*1527 FILLER_21_300
*1528 FILLER_21_303
*1529 FILLER_21_306
*1530 FILLER_21_33
*1531 FILLER_21_55
*1532 FILLER_21_57
*1533 FILLER_21_6
*1534 FILLER_21_60
*1535 FILLER_21_68
*1536 FILLER_21_83
*1537 FILLER_21_94
*1538 FILLER_21_97
*1539 FILLER_22_134
*1540 FILLER_22_137
*1541 FILLER_22_141
*1542 FILLER_22_151
*1543 FILLER_22_189
*1544 FILLER_22_192
*1545 FILLER_22_195
*1546 FILLER_22_197
*1547 FILLER_22_200
*1548 FILLER_22_232
*1549 FILLER_22_249
*1550 FILLER_22_261
*1551 FILLER_22_264
*1552 FILLER_22_27
*1553 FILLER_22_3
*1554 FILLER_22_303
*1555 FILLER_22_306
*1556 FILLER_22_50
*1557 FILLER_22_53
*1558 FILLER_22_56
*1559 FILLER_22_68
*1560 FILLER_22_71
*1561 FILLER_22_81
*1562 FILLER_22_85
*1563 FILLER_22_88
*1564 FILLER_22_91
*1565 FILLER_23_100
*1566 FILLER_23_103
*1567 FILLER_23_106
*1568 FILLER_23_109
*1569 FILLER_23_121
*1570 FILLER_23_124
*1571 FILLER_23_127
*1572 FILLER_23_130
*1573 FILLER_23_133
*1574 FILLER_23_164
*1575 FILLER_23_167
*1576 FILLER_23_198
*1577 FILLER_23_208
*1578 FILLER_23_211
*1579 FILLER_23_214
*1580 FILLER_23_217
*1581 FILLER_23_220
*1582 FILLER_23_223
*1583 FILLER_23_225
*1584 FILLER_23_228
*1585 FILLER_23_231
*1586 FILLER_23_234
*1587 FILLER_23_237
*1588 FILLER_23_240
*1589 FILLER_23_243
*1590 FILLER_23_252
*1591 FILLER_23_255
*1592 FILLER_23_265
*1593 FILLER_23_268
*1594 FILLER_23_27
*1595 FILLER_23_276
*1596 FILLER_23_292
*1597 FILLER_23_300
*1598 FILLER_23_303
*1599 FILLER_23_306
*1600 FILLER_23_37
*1601 FILLER_23_46
*1602 FILLER_23_49
*1603 FILLER_23_52
*1604 FILLER_23_55
*1605 FILLER_23_57
*1606 FILLER_23_60
*1607 FILLER_23_82
*1608 FILLER_23_85
*1609 FILLER_23_88
*1610 FILLER_23_91
*1611 FILLER_23_94
*1612 FILLER_23_97
*1613 FILLER_24_100
*1614 FILLER_24_108
*1615 FILLER_24_111
*1616 FILLER_24_114
*1617 FILLER_24_117
*1618 FILLER_24_120
*1619 FILLER_24_123
*1620 FILLER_24_126
*1621 FILLER_24_129
*1622 FILLER_24_132
*1623 FILLER_24_135
*1624 FILLER_24_146
*1625 FILLER_24_176
*1626 FILLER_24_179
*1627 FILLER_24_182
*1628 FILLER_24_185
*1629 FILLER_24_188
*1630 FILLER_24_200
*1631 FILLER_24_219
*1632 FILLER_24_222
*1633 FILLER_24_225
*1634 FILLER_24_228
*1635 FILLER_24_231
*1636 FILLER_24_234
*1637 FILLER_24_237
*1638 FILLER_24_251
*1639 FILLER_24_261
*1640 FILLER_24_264
*1641 FILLER_24_267
*1642 FILLER_24_27
*1643 FILLER_24_270
*1644 FILLER_24_273
*1645 FILLER_24_276
*1646 FILLER_24_279
*1647 FILLER_24_29
*1648 FILLER_24_302
*1649 FILLER_24_305
*1650 FILLER_24_32
*1651 FILLER_24_35
*1652 FILLER_24_42
*1653 FILLER_24_45
*1654 FILLER_24_48
*1655 FILLER_24_51
*1656 FILLER_24_54
*1657 FILLER_24_57
*1658 FILLER_24_81
*1659 FILLER_24_85
*1660 FILLER_24_88
*1661 FILLER_24_91
*1662 FILLER_24_94
*1663 FILLER_24_97
*1664 FILLER_25_121
*1665 FILLER_25_124
*1666 FILLER_25_127
*1667 FILLER_25_157
*1668 FILLER_25_167
*1669 FILLER_25_175
*1670 FILLER_25_178
*1671 FILLER_25_18
*1672 FILLER_25_181
*1673 FILLER_25_184
*1674 FILLER_25_187
*1675 FILLER_25_216
*1676 FILLER_25_225
*1677 FILLER_25_228
*1678 FILLER_25_231
*1679 FILLER_25_262
*1680 FILLER_25_265
*1681 FILLER_25_281
*1682 FILLER_25_284
*1683 FILLER_25_292
*1684 FILLER_25_295
*1685 FILLER_25_298
*1686 FILLER_25_3
*1687 FILLER_25_301
*1688 FILLER_25_304
*1689 FILLER_25_307
*1690 FILLER_25_34
*1691 FILLER_25_57
*1692 FILLER_25_6
*1693 FILLER_25_60
*1694 FILLER_26_130
*1695 FILLER_26_141
*1696 FILLER_26_158
*1697 FILLER_26_168
*1698 FILLER_26_195
*1699 FILLER_26_197
*1700 FILLER_26_227
*1701 FILLER_26_230
*1702 FILLER_26_26
*1703 FILLER_26_260
*1704 FILLER_26_263
*1705 FILLER_26_266
*1706 FILLER_26_269
*1707 FILLER_26_272
*1708 FILLER_26_275
*1709 FILLER_26_278
*1710 FILLER_26_29
*1711 FILLER_26_292
*1712 FILLER_26_295
*1713 FILLER_26_298
*1714 FILLER_26_3
*1715 FILLER_26_32
*1716 FILLER_26_61
*1717 FILLER_26_64
*1718 FILLER_26_83
*1719 FILLER_26_85
*1720 FILLER_26_96
*1721 FILLER_26_99
*1722 FILLER_27_106
*1723 FILLER_27_109
*1724 FILLER_27_113
*1725 FILLER_27_166
*1726 FILLER_27_169
*1727 FILLER_27_172
*1728 FILLER_27_175
*1729 FILLER_27_184
*1730 FILLER_27_193
*1731 FILLER_27_222
*1732 FILLER_27_225
*1733 FILLER_27_228
*1734 FILLER_27_237
*1735 FILLER_27_240
*1736 FILLER_27_254
*1737 FILLER_27_257
*1738 FILLER_27_260
*1739 FILLER_27_263
*1740 FILLER_27_281
*1741 FILLER_27_3
*1742 FILLER_27_301
*1743 FILLER_27_304
*1744 FILLER_27_307
*1745 FILLER_27_46
*1746 FILLER_27_49
*1747 FILLER_27_52
*1748 FILLER_27_55
*1749 FILLER_27_57
*1750 FILLER_27_60
*1751 FILLER_27_78
*1752 FILLER_28_107
*1753 FILLER_28_110
*1754 FILLER_28_141
*1755 FILLER_28_193
*1756 FILLER_28_239
*1757 FILLER_28_242
*1758 FILLER_28_245
*1759 FILLER_28_248
*1760 FILLER_28_251
*1761 FILLER_28_253
*1762 FILLER_28_256
*1763 FILLER_28_259
*1764 FILLER_28_3
*1765 FILLER_28_303
*1766 FILLER_28_306
*1767 FILLER_28_55
*1768 FILLER_28_58
*1769 FILLER_28_6
*1770 FILLER_28_85
*1771 FILLER_28_97
*1772 FILLER_29_102
*1773 FILLER_29_111
*1774 FILLER_29_113
*1775 FILLER_29_116
*1776 FILLER_29_119
*1777 FILLER_29_164
*1778 FILLER_29_167
*1779 FILLER_29_169
*1780 FILLER_29_177
*1781 FILLER_29_19
*1782 FILLER_29_210
*1783 FILLER_29_213
*1784 FILLER_29_22
*1785 FILLER_29_221
*1786 FILLER_29_225
*1787 FILLER_29_228
*1788 FILLER_29_231
*1789 FILLER_29_240
*1790 FILLER_29_243
*1791 FILLER_29_246
*1792 FILLER_29_249
*1793 FILLER_29_252
*1794 FILLER_29_255
*1795 FILLER_29_258
*1796 FILLER_29_261
*1797 FILLER_29_281
*1798 FILLER_29_3
*1799 FILLER_29_54
*1800 FILLER_29_57
*1801 FILLER_29_6
*1802 FILLER_29_9
*1803 FILLER_2_130
*1804 FILLER_2_141
*1805 FILLER_2_144
*1806 FILLER_2_147
*1807 FILLER_2_157
*1808 FILLER_2_160
*1809 FILLER_2_194
*1810 FILLER_2_251
*1811 FILLER_2_3
*1812 FILLER_2_300
*1813 FILLER_2_303
*1814 FILLER_2_38
*1815 FILLER_2_41
*1816 FILLER_2_6
*1817 FILLER_2_85
*1818 FILLER_30_100
*1819 FILLER_30_103
*1820 FILLER_30_106
*1821 FILLER_30_109
*1822 FILLER_30_112
*1823 FILLER_30_139
*1824 FILLER_30_160
*1825 FILLER_30_163
*1826 FILLER_30_166
*1827 FILLER_30_169
*1828 FILLER_30_172
*1829 FILLER_30_175
*1830 FILLER_30_178
*1831 FILLER_30_189
*1832 FILLER_30_197
*1833 FILLER_30_200
*1834 FILLER_30_222
*1835 FILLER_30_225
*1836 FILLER_30_228
*1837 FILLER_30_231
*1838 FILLER_30_239
*1839 FILLER_30_247
*1840 FILLER_30_250
*1841 FILLER_30_253
*1842 FILLER_30_256
*1843 FILLER_30_259
*1844 FILLER_30_26
*1845 FILLER_30_276
*1846 FILLER_30_3
*1847 FILLER_30_40
*1848 FILLER_30_51
*1849 FILLER_30_54
*1850 FILLER_30_6
*1851 FILLER_30_80
*1852 FILLER_30_85
*1853 FILLER_30_97
*1854 FILLER_31_100
*1855 FILLER_31_103
*1856 FILLER_31_134
*1857 FILLER_31_137
*1858 FILLER_31_160
*1859 FILLER_31_169
*1860 FILLER_31_172
*1861 FILLER_31_175
*1862 FILLER_31_178
*1863 FILLER_31_181
*1864 FILLER_31_184
*1865 FILLER_31_187
*1866 FILLER_31_215
*1867 FILLER_31_218
*1868 FILLER_31_221
*1869 FILLER_31_246
*1870 FILLER_31_249
*1871 FILLER_31_252
*1872 FILLER_31_255
*1873 FILLER_31_258
*1874 FILLER_31_261
*1875 FILLER_31_264
*1876 FILLER_31_275
*1877 FILLER_31_278
*1878 FILLER_31_289
*1879 FILLER_31_3
*1880 FILLER_31_301
*1881 FILLER_31_304
*1882 FILLER_31_307
*1883 FILLER_31_32
*1884 FILLER_31_55
*1885 FILLER_31_57
*1886 FILLER_31_6
*1887 FILLER_31_60
*1888 FILLER_31_91
*1889 FILLER_31_94
*1890 FILLER_31_97
*1891 FILLER_32_134
*1892 FILLER_32_162
*1893 FILLER_32_171
*1894 FILLER_32_174
*1895 FILLER_32_177
*1896 FILLER_32_180
*1897 FILLER_32_197
*1898 FILLER_32_219
*1899 FILLER_32_222
*1900 FILLER_32_248
*1901 FILLER_32_251
*1902 FILLER_32_253
*1903 FILLER_32_256
*1904 FILLER_32_259
*1905 FILLER_32_262
*1906 FILLER_32_294
*1907 FILLER_32_3
*1908 FILLER_32_304
*1909 FILLER_32_307
*1910 FILLER_32_37
*1911 FILLER_32_40
*1912 FILLER_32_49
*1913 FILLER_32_59
*1914 FILLER_32_62
*1915 FILLER_32_70
*1916 FILLER_32_93
*1917 FILLER_32_96
*1918 FILLER_33_128
*1919 FILLER_33_131
*1920 FILLER_33_177
*1921 FILLER_33_221
*1922 FILLER_33_24
*1923 FILLER_33_253
*1924 FILLER_33_256
*1925 FILLER_33_259
*1926 FILLER_33_262
*1927 FILLER_33_275
*1928 FILLER_33_289
*1929 FILLER_33_292
*1930 FILLER_33_3
*1931 FILLER_33_48
*1932 FILLER_33_51
*1933 FILLER_33_54
*1934 FILLER_33_57
*1935 FILLER_33_60
*1936 FILLER_33_69
*1937 FILLER_34_100
*1938 FILLER_34_132
*1939 FILLER_34_141
*1940 FILLER_34_171
*1941 FILLER_34_195
*1942 FILLER_34_197
*1943 FILLER_34_226
*1944 FILLER_34_24
*1945 FILLER_34_251
*1946 FILLER_34_253
*1947 FILLER_34_256
*1948 FILLER_34_259
*1949 FILLER_34_262
*1950 FILLER_34_27
*1951 FILLER_34_280
*1952 FILLER_34_29
*1953 FILLER_34_290
*1954 FILLER_34_3
*1955 FILLER_34_53
*1956 FILLER_34_6
*1957 FILLER_34_69
*1958 FILLER_34_72
*1959 FILLER_34_75
*1960 FILLER_35_107
*1961 FILLER_35_110
*1962 FILLER_35_113
*1963 FILLER_35_128
*1964 FILLER_35_131
*1965 FILLER_35_134
*1966 FILLER_35_137
*1967 FILLER_35_140
*1968 FILLER_35_163
*1969 FILLER_35_166
*1970 FILLER_35_169
*1971 FILLER_35_172
*1972 FILLER_35_175
*1973 FILLER_35_178
*1974 FILLER_35_221
*1975 FILLER_35_230
*1976 FILLER_35_233
*1977 FILLER_35_241
*1978 FILLER_35_260
*1979 FILLER_35_263
*1980 FILLER_35_281
*1981 FILLER_35_3
*1982 FILLER_35_303
*1983 FILLER_35_306
*1984 FILLER_35_32
*1985 FILLER_35_57
*1986 FILLER_35_79
*1987 FILLER_36_116
*1988 FILLER_36_138
*1989 FILLER_36_141
*1990 FILLER_36_144
*1991 FILLER_36_161
*1992 FILLER_36_164
*1993 FILLER_36_167
*1994 FILLER_36_170
*1995 FILLER_36_173
*1996 FILLER_36_176
*1997 FILLER_36_179
*1998 FILLER_36_182
*1999 FILLER_36_185
*2000 FILLER_36_213
*2001 FILLER_36_216
*2002 FILLER_36_219
*2003 FILLER_36_222
*2004 FILLER_36_225
*2005 FILLER_36_228
*2006 FILLER_36_234
*2007 FILLER_36_237
*2008 FILLER_36_240
*2009 FILLER_36_243
*2010 FILLER_36_246
*2011 FILLER_36_249
*2012 FILLER_36_25
*2013 FILLER_36_253
*2014 FILLER_36_256
*2015 FILLER_36_259
*2016 FILLER_36_301
*2017 FILLER_36_304
*2018 FILLER_36_307
*2019 FILLER_36_67
*2020 FILLER_36_70
*2021 FILLER_36_79
*2022 FILLER_36_82
*2023 FILLER_36_85
*2024 FILLER_37_109
*2025 FILLER_37_113
*2026 FILLER_37_116
*2027 FILLER_37_138
*2028 FILLER_37_141
*2029 FILLER_37_158
*2030 FILLER_37_166
*2031 FILLER_37_169
*2032 FILLER_37_172
*2033 FILLER_37_175
*2034 FILLER_37_178
*2035 FILLER_37_181
*2036 FILLER_37_184
*2037 FILLER_37_187
*2038 FILLER_37_217
*2039 FILLER_37_220
*2040 FILLER_37_223
*2041 FILLER_37_225
*2042 FILLER_37_233
*2043 FILLER_37_236
*2044 FILLER_37_245
*2045 FILLER_37_248
*2046 FILLER_37_251
*2047 FILLER_37_254
*2048 FILLER_37_257
*2049 FILLER_37_260
*2050 FILLER_37_279
*2051 FILLER_37_3
*2052 FILLER_37_302
*2053 FILLER_37_305
*2054 FILLER_37_46
*2055 FILLER_37_57
*2056 FILLER_37_6
*2057 FILLER_37_67
*2058 FILLER_37_70
*2059 FILLER_37_73
*2060 FILLER_37_96
*2061 FILLER_37_99
*2062 FILLER_38_104
*2063 FILLER_38_107
*2064 FILLER_38_130
*2065 FILLER_38_144
*2066 FILLER_38_147
*2067 FILLER_38_156
*2068 FILLER_38_159
*2069 FILLER_38_175
*2070 FILLER_38_178
*2071 FILLER_38_181
*2072 FILLER_38_184
*2073 FILLER_38_192
*2074 FILLER_38_195
*2075 FILLER_38_197
*2076 FILLER_38_25
*2077 FILLER_38_250
*2078 FILLER_38_253
*2079 FILLER_38_256
*2080 FILLER_38_259
*2081 FILLER_38_262
*2082 FILLER_38_265
*2083 FILLER_38_268
*2084 FILLER_38_276
*2085 FILLER_38_285
*2086 FILLER_38_288
*2087 FILLER_38_298
*2088 FILLER_38_3
*2089 FILLER_38_301
*2090 FILLER_38_304
*2091 FILLER_38_307
*2092 FILLER_38_37
*2093 FILLER_38_58
*2094 FILLER_38_6
*2095 FILLER_38_61
*2096 FILLER_38_64
*2097 FILLER_38_67
*2098 FILLER_38_85
*2099 FILLER_38_88
*2100 FILLER_39_111
*2101 FILLER_39_17
*2102 FILLER_39_177
*2103 FILLER_39_199
*2104 FILLER_39_20
*2105 FILLER_39_210
*2106 FILLER_39_213
*2107 FILLER_39_216
*2108 FILLER_39_219
*2109 FILLER_39_222
*2110 FILLER_39_225
*2111 FILLER_39_233
*2112 FILLER_39_250
*2113 FILLER_39_253
*2114 FILLER_39_256
*2115 FILLER_39_259
*2116 FILLER_39_262
*2117 FILLER_39_265
*2118 FILLER_39_268
*2119 FILLER_39_271
*2120 FILLER_39_274
*2121 FILLER_39_281
*2122 FILLER_39_284
*2123 FILLER_39_287
*2124 FILLER_39_290
*2125 FILLER_39_293
*2126 FILLER_39_296
*2127 FILLER_39_299
*2128 FILLER_39_3
*2129 FILLER_39_302
*2130 FILLER_39_305
*2131 FILLER_39_54
*2132 FILLER_39_57
*2133 FILLER_39_6
*2134 FILLER_39_60
*2135 FILLER_3_242
*2136 FILLER_3_278
*2137 FILLER_3_289
*2138 FILLER_3_299
*2139 FILLER_3_32
*2140 FILLER_3_35
*2141 FILLER_3_57
*2142 FILLER_3_6
*2143 FILLER_3_9
*2144 FILLER_40_106
*2145 FILLER_40_129
*2146 FILLER_40_132
*2147 FILLER_40_169
*2148 FILLER_40_172
*2149 FILLER_40_197
*2150 FILLER_40_206
*2151 FILLER_40_209
*2152 FILLER_40_212
*2153 FILLER_40_215
*2154 FILLER_40_218
*2155 FILLER_40_221
*2156 FILLER_40_224
*2157 FILLER_40_227
*2158 FILLER_40_230
*2159 FILLER_40_233
*2160 FILLER_40_250
*2161 FILLER_40_253
*2162 FILLER_40_256
*2163 FILLER_40_259
*2164 FILLER_40_26
*2165 FILLER_40_262
*2166 FILLER_40_265
*2167 FILLER_40_268
*2168 FILLER_40_285
*2169 FILLER_40_288
*2170 FILLER_40_291
*2171 FILLER_40_3
*2172 FILLER_40_300
*2173 FILLER_40_303
*2174 FILLER_40_306
*2175 FILLER_40_64
*2176 FILLER_40_67
*2177 FILLER_40_93
*2178 FILLER_40_96
*2179 FILLER_41_100
*2180 FILLER_41_103
*2181 FILLER_41_106
*2182 FILLER_41_109
*2183 FILLER_41_113
*2184 FILLER_41_122
*2185 FILLER_41_137
*2186 FILLER_41_140
*2187 FILLER_41_154
*2188 FILLER_41_157
*2189 FILLER_41_160
*2190 FILLER_41_163
*2191 FILLER_41_166
*2192 FILLER_41_177
*2193 FILLER_41_180
*2194 FILLER_41_207
*2195 FILLER_41_210
*2196 FILLER_41_213
*2197 FILLER_41_216
*2198 FILLER_41_219
*2199 FILLER_41_222
*2200 FILLER_41_225
*2201 FILLER_41_228
*2202 FILLER_41_231
*2203 FILLER_41_255
*2204 FILLER_41_258
*2205 FILLER_41_276
*2206 FILLER_41_279
*2207 FILLER_41_302
*2208 FILLER_41_305
*2209 FILLER_41_70
*2210 FILLER_41_94
*2211 FILLER_41_97
*2212 FILLER_42_102
*2213 FILLER_42_105
*2214 FILLER_42_108
*2215 FILLER_42_111
*2216 FILLER_42_114
*2217 FILLER_42_117
*2218 FILLER_42_120
*2219 FILLER_42_123
*2220 FILLER_42_126
*2221 FILLER_42_129
*2222 FILLER_42_132
*2223 FILLER_42_135
*2224 FILLER_42_138
*2225 FILLER_42_141
*2226 FILLER_42_144
*2227 FILLER_42_147
*2228 FILLER_42_150
*2229 FILLER_42_153
*2230 FILLER_42_156
*2231 FILLER_42_159
*2232 FILLER_42_162
*2233 FILLER_42_165
*2234 FILLER_42_168
*2235 FILLER_42_171
*2236 FILLER_42_174
*2237 FILLER_42_177
*2238 FILLER_42_187
*2239 FILLER_42_205
*2240 FILLER_42_208
*2241 FILLER_42_224
*2242 FILLER_42_227
*2243 FILLER_42_240
*2244 FILLER_42_243
*2245 FILLER_42_253
*2246 FILLER_42_26
*2247 FILLER_42_307
*2248 FILLER_42_36
*2249 FILLER_42_39
*2250 FILLER_42_42
*2251 FILLER_42_45
*2252 FILLER_42_61
*2253 FILLER_42_64
*2254 FILLER_42_67
*2255 FILLER_42_70
*2256 FILLER_42_73
*2257 FILLER_42_76
*2258 FILLER_42_90
*2259 FILLER_42_93
*2260 FILLER_42_96
*2261 FILLER_42_99
*2262 FILLER_43_102
*2263 FILLER_43_105
*2264 FILLER_43_108
*2265 FILLER_43_11
*2266 FILLER_43_111
*2267 FILLER_43_120
*2268 FILLER_43_123
*2269 FILLER_43_126
*2270 FILLER_43_148
*2271 FILLER_43_157
*2272 FILLER_43_165
*2273 FILLER_43_169
*2274 FILLER_43_172
*2275 FILLER_43_175
*2276 FILLER_43_178
*2277 FILLER_43_195
*2278 FILLER_43_198
*2279 FILLER_43_201
*2280 FILLER_43_225
*2281 FILLER_43_228
*2282 FILLER_43_244
*2283 FILLER_43_26
*2284 FILLER_43_279
*2285 FILLER_43_29
*2286 FILLER_43_295
*2287 FILLER_43_298
*2288 FILLER_43_301
*2289 FILLER_43_304
*2290 FILLER_43_307
*2291 FILLER_43_32
*2292 FILLER_43_35
*2293 FILLER_43_38
*2294 FILLER_43_41
*2295 FILLER_43_44
*2296 FILLER_43_54
*2297 FILLER_43_57
*2298 FILLER_43_60
*2299 FILLER_43_63
*2300 FILLER_43_66
*2301 FILLER_43_69
*2302 FILLER_43_72
*2303 FILLER_43_75
*2304 FILLER_43_78
*2305 FILLER_43_81
*2306 FILLER_43_84
*2307 FILLER_43_87
*2308 FILLER_43_90
*2309 FILLER_43_93
*2310 FILLER_43_96
*2311 FILLER_43_99
*2312 FILLER_44_138
*2313 FILLER_44_148
*2314 FILLER_44_170
*2315 FILLER_44_194
*2316 FILLER_44_197
*2317 FILLER_44_200
*2318 FILLER_44_250
*2319 FILLER_44_258
*2320 FILLER_44_26
*2321 FILLER_44_261
*2322 FILLER_44_271
*2323 FILLER_44_302
*2324 FILLER_44_305
*2325 FILLER_44_34
*2326 FILLER_44_58
*2327 FILLER_44_74
*2328 FILLER_44_77
*2329 FILLER_44_80
*2330 FILLER_44_83
*2331 FILLER_44_85
*2332 FILLER_44_88
*2333 FILLER_44_96
*2334 FILLER_44_99
*2335 FILLER_45_106
*2336 FILLER_45_109
*2337 FILLER_45_113
*2338 FILLER_45_116
*2339 FILLER_45_142
*2340 FILLER_45_152
*2341 FILLER_45_155
*2342 FILLER_45_158
*2343 FILLER_45_161
*2344 FILLER_45_166
*2345 FILLER_45_169
*2346 FILLER_45_186
*2347 FILLER_45_189
*2348 FILLER_45_192
*2349 FILLER_45_195
*2350 FILLER_45_198
*2351 FILLER_45_201
*2352 FILLER_45_222
*2353 FILLER_45_233
*2354 FILLER_45_236
*2355 FILLER_45_246
*2356 FILLER_45_249
*2357 FILLER_45_252
*2358 FILLER_45_255
*2359 FILLER_45_258
*2360 FILLER_45_261
*2361 FILLER_45_271
*2362 FILLER_45_274
*2363 FILLER_45_277
*2364 FILLER_45_288
*2365 FILLER_45_291
*2366 FILLER_45_300
*2367 FILLER_45_303
*2368 FILLER_45_306
*2369 FILLER_45_40
*2370 FILLER_45_43
*2371 FILLER_45_46
*2372 FILLER_45_49
*2373 FILLER_45_52
*2374 FILLER_45_55
*2375 FILLER_45_57
*2376 FILLER_45_77
*2377 FILLER_45_80
*2378 FILLER_45_83
*2379 FILLER_46_104
*2380 FILLER_46_110
*2381 FILLER_46_141
*2382 FILLER_46_149
*2383 FILLER_46_152
*2384 FILLER_46_155
*2385 FILLER_46_158
*2386 FILLER_46_161
*2387 FILLER_46_192
*2388 FILLER_46_195
*2389 FILLER_46_197
*2390 FILLER_46_200
*2391 FILLER_46_203
*2392 FILLER_46_206
*2393 FILLER_46_209
*2394 FILLER_46_212
*2395 FILLER_46_220
*2396 FILLER_46_223
*2397 FILLER_46_226
*2398 FILLER_46_229
*2399 FILLER_46_232
*2400 FILLER_46_235
*2401 FILLER_46_238
*2402 FILLER_46_241
*2403 FILLER_46_244
*2404 FILLER_46_247
*2405 FILLER_46_250
*2406 FILLER_46_253
*2407 FILLER_46_256
*2408 FILLER_46_26
*2409 FILLER_46_287
*2410 FILLER_46_29
*2411 FILLER_46_290
*2412 FILLER_46_293
*2413 FILLER_46_296
*2414 FILLER_46_299
*2415 FILLER_46_302
*2416 FILLER_46_305
*2417 FILLER_46_44
*2418 FILLER_46_47
*2419 FILLER_46_50
*2420 FILLER_46_53
*2421 FILLER_46_68
*2422 FILLER_46_71
*2423 FILLER_46_74
*2424 FILLER_46_78
*2425 FILLER_46_81
*2426 FILLER_46_85
*2427 FILLER_46_93
*2428 FILLER_47_111
*2429 FILLER_47_113
*2430 FILLER_47_116
*2431 FILLER_47_129
*2432 FILLER_47_132
*2433 FILLER_47_141
*2434 FILLER_47_144
*2435 FILLER_47_147
*2436 FILLER_47_150
*2437 FILLER_47_153
*2438 FILLER_47_156
*2439 FILLER_47_159
*2440 FILLER_47_162
*2441 FILLER_47_165
*2442 FILLER_47_175
*2443 FILLER_47_178
*2444 FILLER_47_181
*2445 FILLER_47_184
*2446 FILLER_47_187
*2447 FILLER_47_190
*2448 FILLER_47_193
*2449 FILLER_47_196
*2450 FILLER_47_199
*2451 FILLER_47_202
*2452 FILLER_47_205
*2453 FILLER_47_208
*2454 FILLER_47_211
*2455 FILLER_47_214
*2456 FILLER_47_217
*2457 FILLER_47_220
*2458 FILLER_47_223
*2459 FILLER_47_225
*2460 FILLER_47_228
*2461 FILLER_47_231
*2462 FILLER_47_234
*2463 FILLER_47_237
*2464 FILLER_47_240
*2465 FILLER_47_243
*2466 FILLER_47_246
*2467 FILLER_47_249
*2468 FILLER_47_252
*2469 FILLER_47_255
*2470 FILLER_47_258
*2471 FILLER_47_261
*2472 FILLER_47_264
*2473 FILLER_47_274
*2474 FILLER_47_277
*2475 FILLER_47_281
*2476 FILLER_47_284
*2477 FILLER_47_287
*2478 FILLER_47_290
*2479 FILLER_47_293
*2480 FILLER_47_296
*2481 FILLER_47_299
*2482 FILLER_47_3
*2483 FILLER_47_302
*2484 FILLER_47_305
*2485 FILLER_47_42
*2486 FILLER_47_45
*2487 FILLER_47_57
*2488 FILLER_47_6
*2489 FILLER_47_95
*2490 FILLER_48_106
*2491 FILLER_48_11
*2492 FILLER_48_136
*2493 FILLER_48_139
*2494 FILLER_48_14
*2495 FILLER_48_141
*2496 FILLER_48_144
*2497 FILLER_48_147
*2498 FILLER_48_150
*2499 FILLER_48_153
*2500 FILLER_48_156
*2501 FILLER_48_159
*2502 FILLER_48_162
*2503 FILLER_48_165
*2504 FILLER_48_168
*2505 FILLER_48_171
*2506 FILLER_48_174
*2507 FILLER_48_177
*2508 FILLER_48_180
*2509 FILLER_48_183
*2510 FILLER_48_186
*2511 FILLER_48_189
*2512 FILLER_48_192
*2513 FILLER_48_195
*2514 FILLER_48_197
*2515 FILLER_48_200
*2516 FILLER_48_203
*2517 FILLER_48_206
*2518 FILLER_48_209
*2519 FILLER_48_212
*2520 FILLER_48_215
*2521 FILLER_48_218
*2522 FILLER_48_221
*2523 FILLER_48_224
*2524 FILLER_48_227
*2525 FILLER_48_230
*2526 FILLER_48_233
*2527 FILLER_48_236
*2528 FILLER_48_239
*2529 FILLER_48_242
*2530 FILLER_48_245
*2531 FILLER_48_248
*2532 FILLER_48_251
*2533 FILLER_48_253
*2534 FILLER_48_256
*2535 FILLER_48_259
*2536 FILLER_48_262
*2537 FILLER_48_265
*2538 FILLER_48_268
*2539 FILLER_48_271
*2540 FILLER_48_274
*2541 FILLER_48_277
*2542 FILLER_48_280
*2543 FILLER_48_283
*2544 FILLER_48_286
*2545 FILLER_48_289
*2546 FILLER_48_29
*2547 FILLER_48_292
*2548 FILLER_48_295
*2549 FILLER_48_298
*2550 FILLER_48_301
*2551 FILLER_48_304
*2552 FILLER_48_307
*2553 FILLER_48_39
*2554 FILLER_48_71
*2555 FILLER_48_74
*2556 FILLER_49_102
*2557 FILLER_49_105
*2558 FILLER_49_108
*2559 FILLER_49_111
*2560 FILLER_49_113
*2561 FILLER_49_142
*2562 FILLER_49_145
*2563 FILLER_49_148
*2564 FILLER_49_151
*2565 FILLER_49_154
*2566 FILLER_49_157
*2567 FILLER_49_160
*2568 FILLER_49_163
*2569 FILLER_49_166
*2570 FILLER_49_169
*2571 FILLER_49_172
*2572 FILLER_49_175
*2573 FILLER_49_178
*2574 FILLER_49_181
*2575 FILLER_49_184
*2576 FILLER_49_187
*2577 FILLER_49_190
*2578 FILLER_49_193
*2579 FILLER_49_196
*2580 FILLER_49_199
*2581 FILLER_49_202
*2582 FILLER_49_205
*2583 FILLER_49_208
*2584 FILLER_49_211
*2585 FILLER_49_214
*2586 FILLER_49_217
*2587 FILLER_49_220
*2588 FILLER_49_223
*2589 FILLER_49_225
*2590 FILLER_49_228
*2591 FILLER_49_231
*2592 FILLER_49_234
*2593 FILLER_49_237
*2594 FILLER_49_240
*2595 FILLER_49_243
*2596 FILLER_49_246
*2597 FILLER_49_249
*2598 FILLER_49_252
*2599 FILLER_49_255
*2600 FILLER_49_258
*2601 FILLER_49_261
*2602 FILLER_49_264
*2603 FILLER_49_267
*2604 FILLER_49_270
*2605 FILLER_49_273
*2606 FILLER_49_276
*2607 FILLER_49_279
*2608 FILLER_49_281
*2609 FILLER_49_284
*2610 FILLER_49_287
*2611 FILLER_49_290
*2612 FILLER_49_293
*2613 FILLER_49_296
*2614 FILLER_49_299
*2615 FILLER_49_302
*2616 FILLER_49_305
*2617 FILLER_49_44
*2618 FILLER_49_70
*2619 FILLER_49_73
*2620 FILLER_49_76
*2621 FILLER_49_99
*2622 FILLER_4_101
*2623 FILLER_4_120
*2624 FILLER_4_123
*2625 FILLER_4_126
*2626 FILLER_4_129
*2627 FILLER_4_141
*2628 FILLER_4_144
*2629 FILLER_4_182
*2630 FILLER_4_185
*2631 FILLER_4_195
*2632 FILLER_4_204
*2633 FILLER_4_240
*2634 FILLER_4_249
*2635 FILLER_4_25
*2636 FILLER_4_261
*2637 FILLER_4_29
*2638 FILLER_4_3
*2639 FILLER_4_304
*2640 FILLER_4_307
*2641 FILLER_4_69
*2642 FILLER_4_78
*2643 FILLER_4_81
*2644 FILLER_50_100
*2645 FILLER_50_103
*2646 FILLER_50_106
*2647 FILLER_50_109
*2648 FILLER_50_133
*2649 FILLER_50_136
*2650 FILLER_50_139
*2651 FILLER_50_141
*2652 FILLER_50_144
*2653 FILLER_50_147
*2654 FILLER_50_150
*2655 FILLER_50_153
*2656 FILLER_50_156
*2657 FILLER_50_159
*2658 FILLER_50_162
*2659 FILLER_50_165
*2660 FILLER_50_168
*2661 FILLER_50_171
*2662 FILLER_50_174
*2663 FILLER_50_177
*2664 FILLER_50_180
*2665 FILLER_50_183
*2666 FILLER_50_186
*2667 FILLER_50_189
*2668 FILLER_50_192
*2669 FILLER_50_195
*2670 FILLER_50_197
*2671 FILLER_50_200
*2672 FILLER_50_203
*2673 FILLER_50_206
*2674 FILLER_50_209
*2675 FILLER_50_212
*2676 FILLER_50_215
*2677 FILLER_50_218
*2678 FILLER_50_221
*2679 FILLER_50_224
*2680 FILLER_50_227
*2681 FILLER_50_23
*2682 FILLER_50_230
*2683 FILLER_50_233
*2684 FILLER_50_236
*2685 FILLER_50_239
*2686 FILLER_50_242
*2687 FILLER_50_245
*2688 FILLER_50_248
*2689 FILLER_50_251
*2690 FILLER_50_253
*2691 FILLER_50_256
*2692 FILLER_50_259
*2693 FILLER_50_26
*2694 FILLER_50_262
*2695 FILLER_50_265
*2696 FILLER_50_268
*2697 FILLER_50_271
*2698 FILLER_50_274
*2699 FILLER_50_277
*2700 FILLER_50_280
*2701 FILLER_50_283
*2702 FILLER_50_286
*2703 FILLER_50_289
*2704 FILLER_50_292
*2705 FILLER_50_295
*2706 FILLER_50_298
*2707 FILLER_50_3
*2708 FILLER_50_301
*2709 FILLER_50_304
*2710 FILLER_50_307
*2711 FILLER_50_50
*2712 FILLER_50_53
*2713 FILLER_50_56
*2714 FILLER_50_59
*2715 FILLER_50_62
*2716 FILLER_50_65
*2717 FILLER_50_68
*2718 FILLER_50_71
*2719 FILLER_50_74
*2720 FILLER_50_77
*2721 FILLER_50_80
*2722 FILLER_50_83
*2723 FILLER_51_100
*2724 FILLER_51_103
*2725 FILLER_51_106
*2726 FILLER_51_109
*2727 FILLER_51_11
*2728 FILLER_51_113
*2729 FILLER_51_116
*2730 FILLER_51_119
*2731 FILLER_51_122
*2732 FILLER_51_125
*2733 FILLER_51_134
*2734 FILLER_51_137
*2735 FILLER_51_14
*2736 FILLER_51_141
*2737 FILLER_51_144
*2738 FILLER_51_147
*2739 FILLER_51_150
*2740 FILLER_51_153
*2741 FILLER_51_156
*2742 FILLER_51_159
*2743 FILLER_51_162
*2744 FILLER_51_165
*2745 FILLER_51_169
*2746 FILLER_51_17
*2747 FILLER_51_172
*2748 FILLER_51_175
*2749 FILLER_51_178
*2750 FILLER_51_181
*2751 FILLER_51_184
*2752 FILLER_51_187
*2753 FILLER_51_190
*2754 FILLER_51_193
*2755 FILLER_51_197
*2756 FILLER_51_20
*2757 FILLER_51_200
*2758 FILLER_51_203
*2759 FILLER_51_206
*2760 FILLER_51_209
*2761 FILLER_51_212
*2762 FILLER_51_215
*2763 FILLER_51_218
*2764 FILLER_51_221
*2765 FILLER_51_225
*2766 FILLER_51_228
*2767 FILLER_51_23
*2768 FILLER_51_231
*2769 FILLER_51_234
*2770 FILLER_51_237
*2771 FILLER_51_240
*2772 FILLER_51_243
*2773 FILLER_51_246
*2774 FILLER_51_249
*2775 FILLER_51_253
*2776 FILLER_51_256
*2777 FILLER_51_259
*2778 FILLER_51_26
*2779 FILLER_51_262
*2780 FILLER_51_265
*2781 FILLER_51_268
*2782 FILLER_51_271
*2783 FILLER_51_274
*2784 FILLER_51_277
*2785 FILLER_51_281
*2786 FILLER_51_284
*2787 FILLER_51_287
*2788 FILLER_51_29
*2789 FILLER_51_290
*2790 FILLER_51_293
*2791 FILLER_51_296
*2792 FILLER_51_299
*2793 FILLER_51_3
*2794 FILLER_51_302
*2795 FILLER_51_305
*2796 FILLER_51_46
*2797 FILLER_51_49
*2798 FILLER_51_52
*2799 FILLER_51_55
*2800 FILLER_51_57
*2801 FILLER_51_60
*2802 FILLER_51_63
*2803 FILLER_51_66
*2804 FILLER_51_69
*2805 FILLER_51_72
*2806 FILLER_51_75
*2807 FILLER_51_78
*2808 FILLER_51_81
*2809 FILLER_51_97
*2810 FILLER_5_100
*2811 FILLER_5_108
*2812 FILLER_5_111
*2813 FILLER_5_120
*2814 FILLER_5_123
*2815 FILLER_5_146
*2816 FILLER_5_149
*2817 FILLER_5_167
*2818 FILLER_5_169
*2819 FILLER_5_172
*2820 FILLER_5_18
*2821 FILLER_5_203
*2822 FILLER_5_27
*2823 FILLER_5_281
*2824 FILLER_5_3
*2825 FILLER_5_30
*2826 FILLER_5_39
*2827 FILLER_5_91
*2828 FILLER_6_101
*2829 FILLER_6_104
*2830 FILLER_6_128
*2831 FILLER_6_141
*2832 FILLER_6_144
*2833 FILLER_6_147
*2834 FILLER_6_150
*2835 FILLER_6_153
*2836 FILLER_6_156
*2837 FILLER_6_166
*2838 FILLER_6_19
*2839 FILLER_6_195
*2840 FILLER_6_204
*2841 FILLER_6_251
*2842 FILLER_6_269
*2843 FILLER_6_281
*2844 FILLER_6_284
*2845 FILLER_6_29
*2846 FILLER_6_32
*2847 FILLER_6_54
*2848 FILLER_7_108
*2849 FILLER_7_111
*2850 FILLER_7_113
*2851 FILLER_7_116
*2852 FILLER_7_119
*2853 FILLER_7_122
*2854 FILLER_7_133
*2855 FILLER_7_143
*2856 FILLER_7_146
*2857 FILLER_7_149
*2858 FILLER_7_157
*2859 FILLER_7_160
*2860 FILLER_7_163
*2861 FILLER_7_166
*2862 FILLER_7_169
*2863 FILLER_7_17
*2864 FILLER_7_182
*2865 FILLER_7_192
*2866 FILLER_7_195
*2867 FILLER_7_204
*2868 FILLER_7_220
*2869 FILLER_7_223
*2870 FILLER_7_233
*2871 FILLER_7_263
*2872 FILLER_7_271
*2873 FILLER_7_3
*2874 FILLER_7_307
*2875 FILLER_7_53
*2876 FILLER_7_6
*2877 FILLER_7_65
*2878 FILLER_7_68
*2879 FILLER_7_90
*2880 FILLER_7_99
*2881 FILLER_8_107
*2882 FILLER_8_110
*2883 FILLER_8_113
*2884 FILLER_8_116
*2885 FILLER_8_119
*2886 FILLER_8_12
*2887 FILLER_8_15
*2888 FILLER_8_162
*2889 FILLER_8_165
*2890 FILLER_8_168
*2891 FILLER_8_18
*2892 FILLER_8_180
*2893 FILLER_8_183
*2894 FILLER_8_186
*2895 FILLER_8_197
*2896 FILLER_8_21
*2897 FILLER_8_220
*2898 FILLER_8_223
*2899 FILLER_8_226
*2900 FILLER_8_246
*2901 FILLER_8_249
*2902 FILLER_8_260
*2903 FILLER_8_263
*2904 FILLER_8_266
*2905 FILLER_8_269
*2906 FILLER_8_29
*2907 FILLER_8_3
*2908 FILLER_8_6
*2909 FILLER_8_60
*2910 FILLER_8_70
*2911 FILLER_8_79
*2912 FILLER_8_82
*2913 FILLER_8_85
*2914 FILLER_8_9
*2915 FILLER_9_113
*2916 FILLER_9_12
*2917 FILLER_9_15
*2918 FILLER_9_18
*2919 FILLER_9_191
*2920 FILLER_9_21
*2921 FILLER_9_221
*2922 FILLER_9_225
*2923 FILLER_9_228
*2924 FILLER_9_231
*2925 FILLER_9_234
*2926 FILLER_9_24
*2927 FILLER_9_263
*2928 FILLER_9_266
*2929 FILLER_9_269
*2930 FILLER_9_27
*2931 FILLER_9_272
*2932 FILLER_9_281
*2933 FILLER_9_3
*2934 FILLER_9_303
*2935 FILLER_9_306
*2936 FILLER_9_46
*2937 FILLER_9_6
*2938 FILLER_9_65
*2939 FILLER_9_68
*2940 FILLER_9_71
*2941 FILLER_9_74
*2942 FILLER_9_85
*2943 FILLER_9_88
*2944 FILLER_9_9
*2945 PHY_EDGE_ROW_0_Left_52
*2946 PHY_EDGE_ROW_0_Right_0
*2947 PHY_EDGE_ROW_10_Left_62
*2948 PHY_EDGE_ROW_10_Right_10
*2949 PHY_EDGE_ROW_11_Left_63
*2950 PHY_EDGE_ROW_11_Right_11
*2951 PHY_EDGE_ROW_12_Left_64
*2952 PHY_EDGE_ROW_12_Right_12
*2953 PHY_EDGE_ROW_13_Left_65
*2954 PHY_EDGE_ROW_13_Right_13
*2955 PHY_EDGE_ROW_14_Left_66
*2956 PHY_EDGE_ROW_14_Right_14
*2957 PHY_EDGE_ROW_15_Left_67
*2958 PHY_EDGE_ROW_15_Right_15
*2959 PHY_EDGE_ROW_16_Left_68
*2960 PHY_EDGE_ROW_16_Right_16
*2961 PHY_EDGE_ROW_17_Left_69
*2962 PHY_EDGE_ROW_17_Right_17
*2963 PHY_EDGE_ROW_18_Left_70
*2964 PHY_EDGE_ROW_18_Right_18
*2965 PHY_EDGE_ROW_19_Left_71
*2966 PHY_EDGE_ROW_19_Right_19
*2967 PHY_EDGE_ROW_1_Left_53
*2968 PHY_EDGE_ROW_1_Right_1
*2969 PHY_EDGE_ROW_20_Left_72
*2970 PHY_EDGE_ROW_20_Right_20
*2971 PHY_EDGE_ROW_21_Left_73
*2972 PHY_EDGE_ROW_21_Right_21
*2973 PHY_EDGE_ROW_22_Left_74
*2974 PHY_EDGE_ROW_22_Right_22
*2975 PHY_EDGE_ROW_23_Left_75
*2976 PHY_EDGE_ROW_23_Right_23
*2977 PHY_EDGE_ROW_24_Left_76
*2978 PHY_EDGE_ROW_24_Right_24
*2979 PHY_EDGE_ROW_25_Left_77
*2980 PHY_EDGE_ROW_25_Right_25
*2981 PHY_EDGE_ROW_26_Left_78
*2982 PHY_EDGE_ROW_26_Right_26
*2983 PHY_EDGE_ROW_27_Left_79
*2984 PHY_EDGE_ROW_27_Right_27
*2985 PHY_EDGE_ROW_28_Left_80
*2986 PHY_EDGE_ROW_28_Right_28
*2987 PHY_EDGE_ROW_29_Left_81
*2988 PHY_EDGE_ROW_29_Right_29
*2989 PHY_EDGE_ROW_2_Left_54
*2990 PHY_EDGE_ROW_2_Right_2
*2991 PHY_EDGE_ROW_30_Left_82
*2992 PHY_EDGE_ROW_30_Right_30
*2993 PHY_EDGE_ROW_31_Left_83
*2994 PHY_EDGE_ROW_31_Right_31
*2995 PHY_EDGE_ROW_32_Left_84
*2996 PHY_EDGE_ROW_32_Right_32
*2997 PHY_EDGE_ROW_33_Left_85
*2998 PHY_EDGE_ROW_33_Right_33
*2999 PHY_EDGE_ROW_34_Left_86
*3000 PHY_EDGE_ROW_34_Right_34
*3001 PHY_EDGE_ROW_35_Left_87
*3002 PHY_EDGE_ROW_35_Right_35
*3003 PHY_EDGE_ROW_36_Left_88
*3004 PHY_EDGE_ROW_36_Right_36
*3005 PHY_EDGE_ROW_37_Left_89
*3006 PHY_EDGE_ROW_37_Right_37
*3007 PHY_EDGE_ROW_38_Left_90
*3008 PHY_EDGE_ROW_38_Right_38
*3009 PHY_EDGE_ROW_39_Left_91
*3010 PHY_EDGE_ROW_39_Right_39
*3011 PHY_EDGE_ROW_3_Left_55
*3012 PHY_EDGE_ROW_3_Right_3
*3013 PHY_EDGE_ROW_40_Left_92
*3014 PHY_EDGE_ROW_40_Right_40
*3015 PHY_EDGE_ROW_41_Left_93
*3016 PHY_EDGE_ROW_41_Right_41
*3017 PHY_EDGE_ROW_42_Left_94
*3018 PHY_EDGE_ROW_42_Right_42
*3019 PHY_EDGE_ROW_43_Left_95
*3020 PHY_EDGE_ROW_43_Right_43
*3021 PHY_EDGE_ROW_44_Left_96
*3022 PHY_EDGE_ROW_44_Right_44
*3023 PHY_EDGE_ROW_45_Left_97
*3024 PHY_EDGE_ROW_45_Right_45
*3025 PHY_EDGE_ROW_46_Left_98
*3026 PHY_EDGE_ROW_46_Right_46
*3027 PHY_EDGE_ROW_47_Left_99
*3028 PHY_EDGE_ROW_47_Right_47
*3029 PHY_EDGE_ROW_48_Left_100
*3030 PHY_EDGE_ROW_48_Right_48
*3031 PHY_EDGE_ROW_49_Left_101
*3032 PHY_EDGE_ROW_49_Right_49
*3033 PHY_EDGE_ROW_4_Left_56
*3034 PHY_EDGE_ROW_4_Right_4
*3035 PHY_EDGE_ROW_50_Left_102
*3036 PHY_EDGE_ROW_50_Right_50
*3037 PHY_EDGE_ROW_51_Left_103
*3038 PHY_EDGE_ROW_51_Right_51
*3039 PHY_EDGE_ROW_5_Left_57
*3040 PHY_EDGE_ROW_5_Right_5
*3041 PHY_EDGE_ROW_6_Left_58
*3042 PHY_EDGE_ROW_6_Right_6
*3043 PHY_EDGE_ROW_7_Left_59
*3044 PHY_EDGE_ROW_7_Right_7
*3045 PHY_EDGE_ROW_8_Left_60
*3046 PHY_EDGE_ROW_8_Right_8
*3047 PHY_EDGE_ROW_9_Left_61
*3048 PHY_EDGE_ROW_9_Right_9
*3049 TAP_TAPCELL_ROW_0_104
*3050 TAP_TAPCELL_ROW_0_105
*3051 TAP_TAPCELL_ROW_0_106
*3052 TAP_TAPCELL_ROW_0_107
*3053 TAP_TAPCELL_ROW_0_108
*3054 TAP_TAPCELL_ROW_0_109
*3055 TAP_TAPCELL_ROW_0_110
*3056 TAP_TAPCELL_ROW_0_111
*3057 TAP_TAPCELL_ROW_0_112
*3058 TAP_TAPCELL_ROW_0_113
*3059 TAP_TAPCELL_ROW_10_159
*3060 TAP_TAPCELL_ROW_10_160
*3061 TAP_TAPCELL_ROW_10_161
*3062 TAP_TAPCELL_ROW_10_162
*3063 TAP_TAPCELL_ROW_10_163
*3064 TAP_TAPCELL_ROW_11_164
*3065 TAP_TAPCELL_ROW_11_165
*3066 TAP_TAPCELL_ROW_11_166
*3067 TAP_TAPCELL_ROW_11_167
*3068 TAP_TAPCELL_ROW_11_168
*3069 TAP_TAPCELL_ROW_12_169
*3070 TAP_TAPCELL_ROW_12_170
*3071 TAP_TAPCELL_ROW_12_171
*3072 TAP_TAPCELL_ROW_12_172
*3073 TAP_TAPCELL_ROW_12_173
*3074 TAP_TAPCELL_ROW_13_174
*3075 TAP_TAPCELL_ROW_13_175
*3076 TAP_TAPCELL_ROW_13_176
*3077 TAP_TAPCELL_ROW_13_177
*3078 TAP_TAPCELL_ROW_13_178
*3079 TAP_TAPCELL_ROW_14_179
*3080 TAP_TAPCELL_ROW_14_180
*3081 TAP_TAPCELL_ROW_14_181
*3082 TAP_TAPCELL_ROW_14_182
*3083 TAP_TAPCELL_ROW_14_183
*3084 TAP_TAPCELL_ROW_15_184
*3085 TAP_TAPCELL_ROW_15_185
*3086 TAP_TAPCELL_ROW_15_186
*3087 TAP_TAPCELL_ROW_15_187
*3088 TAP_TAPCELL_ROW_15_188
*3089 TAP_TAPCELL_ROW_16_189
*3090 TAP_TAPCELL_ROW_16_190
*3091 TAP_TAPCELL_ROW_16_191
*3092 TAP_TAPCELL_ROW_16_192
*3093 TAP_TAPCELL_ROW_16_193
*3094 TAP_TAPCELL_ROW_17_194
*3095 TAP_TAPCELL_ROW_17_195
*3096 TAP_TAPCELL_ROW_17_196
*3097 TAP_TAPCELL_ROW_17_197
*3098 TAP_TAPCELL_ROW_17_198
*3099 TAP_TAPCELL_ROW_18_199
*3100 TAP_TAPCELL_ROW_18_200
*3101 TAP_TAPCELL_ROW_18_201
*3102 TAP_TAPCELL_ROW_18_202
*3103 TAP_TAPCELL_ROW_18_203
*3104 TAP_TAPCELL_ROW_19_204
*3105 TAP_TAPCELL_ROW_19_205
*3106 TAP_TAPCELL_ROW_19_206
*3107 TAP_TAPCELL_ROW_19_207
*3108 TAP_TAPCELL_ROW_19_208
*3109 TAP_TAPCELL_ROW_1_114
*3110 TAP_TAPCELL_ROW_1_115
*3111 TAP_TAPCELL_ROW_1_116
*3112 TAP_TAPCELL_ROW_1_117
*3113 TAP_TAPCELL_ROW_1_118
*3114 TAP_TAPCELL_ROW_20_209
*3115 TAP_TAPCELL_ROW_20_210
*3116 TAP_TAPCELL_ROW_20_211
*3117 TAP_TAPCELL_ROW_20_212
*3118 TAP_TAPCELL_ROW_20_213
*3119 TAP_TAPCELL_ROW_21_214
*3120 TAP_TAPCELL_ROW_21_215
*3121 TAP_TAPCELL_ROW_21_216
*3122 TAP_TAPCELL_ROW_21_217
*3123 TAP_TAPCELL_ROW_21_218
*3124 TAP_TAPCELL_ROW_22_219
*3125 TAP_TAPCELL_ROW_22_220
*3126 TAP_TAPCELL_ROW_22_221
*3127 TAP_TAPCELL_ROW_22_222
*3128 TAP_TAPCELL_ROW_22_223
*3129 TAP_TAPCELL_ROW_23_224
*3130 TAP_TAPCELL_ROW_23_225
*3131 TAP_TAPCELL_ROW_23_226
*3132 TAP_TAPCELL_ROW_23_227
*3133 TAP_TAPCELL_ROW_23_228
*3134 TAP_TAPCELL_ROW_24_229
*3135 TAP_TAPCELL_ROW_24_230
*3136 TAP_TAPCELL_ROW_24_231
*3137 TAP_TAPCELL_ROW_24_232
*3138 TAP_TAPCELL_ROW_24_233
*3139 TAP_TAPCELL_ROW_25_234
*3140 TAP_TAPCELL_ROW_25_235
*3141 TAP_TAPCELL_ROW_25_236
*3142 TAP_TAPCELL_ROW_25_237
*3143 TAP_TAPCELL_ROW_25_238
*3144 TAP_TAPCELL_ROW_26_239
*3145 TAP_TAPCELL_ROW_26_240
*3146 TAP_TAPCELL_ROW_26_241
*3147 TAP_TAPCELL_ROW_26_242
*3148 TAP_TAPCELL_ROW_26_243
*3149 TAP_TAPCELL_ROW_27_244
*3150 TAP_TAPCELL_ROW_27_245
*3151 TAP_TAPCELL_ROW_27_246
*3152 TAP_TAPCELL_ROW_27_247
*3153 TAP_TAPCELL_ROW_27_248
*3154 TAP_TAPCELL_ROW_28_249
*3155 TAP_TAPCELL_ROW_28_250
*3156 TAP_TAPCELL_ROW_28_251
*3157 TAP_TAPCELL_ROW_28_252
*3158 TAP_TAPCELL_ROW_28_253
*3159 TAP_TAPCELL_ROW_29_254
*3160 TAP_TAPCELL_ROW_29_255
*3161 TAP_TAPCELL_ROW_29_256
*3162 TAP_TAPCELL_ROW_29_257
*3163 TAP_TAPCELL_ROW_29_258
*3164 TAP_TAPCELL_ROW_2_119
*3165 TAP_TAPCELL_ROW_2_120
*3166 TAP_TAPCELL_ROW_2_121
*3167 TAP_TAPCELL_ROW_2_122
*3168 TAP_TAPCELL_ROW_2_123
*3169 TAP_TAPCELL_ROW_30_259
*3170 TAP_TAPCELL_ROW_30_260
*3171 TAP_TAPCELL_ROW_30_261
*3172 TAP_TAPCELL_ROW_30_262
*3173 TAP_TAPCELL_ROW_30_263
*3174 TAP_TAPCELL_ROW_31_264
*3175 TAP_TAPCELL_ROW_31_265
*3176 TAP_TAPCELL_ROW_31_266
*3177 TAP_TAPCELL_ROW_31_267
*3178 TAP_TAPCELL_ROW_31_268
*3179 TAP_TAPCELL_ROW_32_269
*3180 TAP_TAPCELL_ROW_32_270
*3181 TAP_TAPCELL_ROW_32_271
*3182 TAP_TAPCELL_ROW_32_272
*3183 TAP_TAPCELL_ROW_32_273
*3184 TAP_TAPCELL_ROW_33_274
*3185 TAP_TAPCELL_ROW_33_275
*3186 TAP_TAPCELL_ROW_33_276
*3187 TAP_TAPCELL_ROW_33_277
*3188 TAP_TAPCELL_ROW_33_278
*3189 TAP_TAPCELL_ROW_34_279
*3190 TAP_TAPCELL_ROW_34_280
*3191 TAP_TAPCELL_ROW_34_281
*3192 TAP_TAPCELL_ROW_34_282
*3193 TAP_TAPCELL_ROW_34_283
*3194 TAP_TAPCELL_ROW_35_284
*3195 TAP_TAPCELL_ROW_35_285
*3196 TAP_TAPCELL_ROW_35_286
*3197 TAP_TAPCELL_ROW_35_287
*3198 TAP_TAPCELL_ROW_35_288
*3199 TAP_TAPCELL_ROW_36_289
*3200 TAP_TAPCELL_ROW_36_290
*3201 TAP_TAPCELL_ROW_36_291
*3202 TAP_TAPCELL_ROW_36_292
*3203 TAP_TAPCELL_ROW_36_293
*3204 TAP_TAPCELL_ROW_37_294
*3205 TAP_TAPCELL_ROW_37_295
*3206 TAP_TAPCELL_ROW_37_296
*3207 TAP_TAPCELL_ROW_37_297
*3208 TAP_TAPCELL_ROW_37_298
*3209 TAP_TAPCELL_ROW_38_299
*3210 TAP_TAPCELL_ROW_38_300
*3211 TAP_TAPCELL_ROW_38_301
*3212 TAP_TAPCELL_ROW_38_302
*3213 TAP_TAPCELL_ROW_38_303
*3214 TAP_TAPCELL_ROW_39_304
*3215 TAP_TAPCELL_ROW_39_305
*3216 TAP_TAPCELL_ROW_39_306
*3217 TAP_TAPCELL_ROW_39_307
*3218 TAP_TAPCELL_ROW_39_308
*3219 TAP_TAPCELL_ROW_3_124
*3220 TAP_TAPCELL_ROW_3_125
*3221 TAP_TAPCELL_ROW_3_126
*3222 TAP_TAPCELL_ROW_3_127
*3223 TAP_TAPCELL_ROW_3_128
*3224 TAP_TAPCELL_ROW_40_309
*3225 TAP_TAPCELL_ROW_40_310
*3226 TAP_TAPCELL_ROW_40_311
*3227 TAP_TAPCELL_ROW_40_312
*3228 TAP_TAPCELL_ROW_40_313
*3229 TAP_TAPCELL_ROW_41_314
*3230 TAP_TAPCELL_ROW_41_315
*3231 TAP_TAPCELL_ROW_41_316
*3232 TAP_TAPCELL_ROW_41_317
*3233 TAP_TAPCELL_ROW_41_318
*3234 TAP_TAPCELL_ROW_42_319
*3235 TAP_TAPCELL_ROW_42_320
*3236 TAP_TAPCELL_ROW_42_321
*3237 TAP_TAPCELL_ROW_42_322
*3238 TAP_TAPCELL_ROW_42_323
*3239 TAP_TAPCELL_ROW_43_324
*3240 TAP_TAPCELL_ROW_43_325
*3241 TAP_TAPCELL_ROW_43_326
*3242 TAP_TAPCELL_ROW_43_327
*3243 TAP_TAPCELL_ROW_43_328
*3244 TAP_TAPCELL_ROW_44_329
*3245 TAP_TAPCELL_ROW_44_330
*3246 TAP_TAPCELL_ROW_44_331
*3247 TAP_TAPCELL_ROW_44_332
*3248 TAP_TAPCELL_ROW_44_333
*3249 TAP_TAPCELL_ROW_45_334
*3250 TAP_TAPCELL_ROW_45_335
*3251 TAP_TAPCELL_ROW_45_336
*3252 TAP_TAPCELL_ROW_45_337
*3253 TAP_TAPCELL_ROW_45_338
*3254 TAP_TAPCELL_ROW_46_339
*3255 TAP_TAPCELL_ROW_46_340
*3256 TAP_TAPCELL_ROW_46_341
*3257 TAP_TAPCELL_ROW_46_342
*3258 TAP_TAPCELL_ROW_46_343
*3259 TAP_TAPCELL_ROW_47_344
*3260 TAP_TAPCELL_ROW_47_345
*3261 TAP_TAPCELL_ROW_47_346
*3262 TAP_TAPCELL_ROW_47_347
*3263 TAP_TAPCELL_ROW_47_348
*3264 TAP_TAPCELL_ROW_48_349
*3265 TAP_TAPCELL_ROW_48_350
*3266 TAP_TAPCELL_ROW_48_351
*3267 TAP_TAPCELL_ROW_48_352
*3268 TAP_TAPCELL_ROW_48_353
*3269 TAP_TAPCELL_ROW_49_354
*3270 TAP_TAPCELL_ROW_49_355
*3271 TAP_TAPCELL_ROW_49_356
*3272 TAP_TAPCELL_ROW_49_357
*3273 TAP_TAPCELL_ROW_49_358
*3274 TAP_TAPCELL_ROW_4_129
*3275 TAP_TAPCELL_ROW_4_130
*3276 TAP_TAPCELL_ROW_4_131
*3277 TAP_TAPCELL_ROW_4_132
*3278 TAP_TAPCELL_ROW_4_133
*3279 TAP_TAPCELL_ROW_50_359
*3280 TAP_TAPCELL_ROW_50_360
*3281 TAP_TAPCELL_ROW_50_361
*3282 TAP_TAPCELL_ROW_50_362
*3283 TAP_TAPCELL_ROW_50_363
*3284 TAP_TAPCELL_ROW_51_364
*3285 TAP_TAPCELL_ROW_51_365
*3286 TAP_TAPCELL_ROW_51_366
*3287 TAP_TAPCELL_ROW_51_367
*3288 TAP_TAPCELL_ROW_51_368
*3289 TAP_TAPCELL_ROW_51_369
*3290 TAP_TAPCELL_ROW_51_370
*3291 TAP_TAPCELL_ROW_51_371
*3292 TAP_TAPCELL_ROW_51_372
*3293 TAP_TAPCELL_ROW_51_373
*3294 TAP_TAPCELL_ROW_5_134
*3295 TAP_TAPCELL_ROW_5_135
*3296 TAP_TAPCELL_ROW_5_136
*3297 TAP_TAPCELL_ROW_5_137
*3298 TAP_TAPCELL_ROW_5_138
*3299 TAP_TAPCELL_ROW_6_139
*3300 TAP_TAPCELL_ROW_6_140
*3301 TAP_TAPCELL_ROW_6_141
*3302 TAP_TAPCELL_ROW_6_142
*3303 TAP_TAPCELL_ROW_6_143
*3304 TAP_TAPCELL_ROW_7_144
*3305 TAP_TAPCELL_ROW_7_145
*3306 TAP_TAPCELL_ROW_7_146
*3307 TAP_TAPCELL_ROW_7_147
*3308 TAP_TAPCELL_ROW_7_148
*3309 TAP_TAPCELL_ROW_8_149
*3310 TAP_TAPCELL_ROW_8_150
*3311 TAP_TAPCELL_ROW_8_151
*3312 TAP_TAPCELL_ROW_8_152
*3313 TAP_TAPCELL_ROW_8_153
*3314 TAP_TAPCELL_ROW_9_154
*3315 TAP_TAPCELL_ROW_9_155
*3316 TAP_TAPCELL_ROW_9_156
*3317 TAP_TAPCELL_ROW_9_157
*3318 TAP_TAPCELL_ROW_9_158
*3319 _0533_
*3320 _0534_
*3321 _0535_
*3322 _0536_
*3323 _0537_
*3324 _0538_
*3325 _0539_
*3326 _0540_
*3327 _0541_
*3328 _0542_
*3329 _0543_
*3330 _0544_
*3331 _0545_
*3332 _0546_
*3333 _0547_
*3334 _0548_
*3335 _0549_
*3336 _0550_
*3337 _0551_
*3338 _0552_
*3339 _0553_
*3340 _0554_
*3341 _0555_
*3342 _0556_
*3343 _0557_
*3344 _0558_
*3345 _0559_
*3346 _0560_
*3347 _0561_
*3348 _0562_
*3349 _0563_
*3350 _0564_
*3351 _0565_
*3352 _0566_
*3353 _0567_
*3354 _0568_
*3355 _0569_
*3356 _0570_
*3357 _0571_
*3358 _0572_
*3359 _0573_
*3360 _0574_
*3361 _0575_
*3362 _0576_
*3363 _0577_
*3364 _0578_
*3365 _0579_
*3366 _0580_
*3367 _0581_
*3368 _0582_
*3369 _0583_
*3370 _0584_
*3371 _0585_
*3372 _0586_
*3373 _0587_
*3374 _0588_
*3375 _0589_
*3376 _0590_
*3377 _0591_
*3378 _0592_
*3379 _0593_
*3380 _0594_
*3381 _0595_
*3382 _0596_
*3383 _0597_
*3384 _0598_
*3385 _0599_
*3386 _0600_
*3387 _0601_
*3388 _0602_
*3389 _0603_
*3390 _0604_
*3391 _0605_
*3392 _0606_
*3393 _0607_
*3394 _0608_
*3395 _0609_
*3396 _0610_
*3397 _0611_
*3398 _0612_
*3399 _0613_
*3400 _0614_
*3401 _0615_
*3402 _0616_
*3403 _0617_
*3404 _0618_
*3405 _0619_
*3406 _0620_
*3407 _0621_
*3408 _0622_
*3409 _0623_
*3410 _0624_
*3411 _0625_
*3412 _0626_
*3413 _0627_
*3414 _0628_
*3415 _0629_
*3416 _0630_
*3417 _0631_
*3418 _0632_
*3419 _0633_
*3420 _0634_
*3421 _0635_
*3422 _0636_
*3423 _0637_
*3424 _0638_
*3425 _0639_
*3426 _0640_
*3427 _0641_
*3428 _0642_
*3429 _0643_
*3430 _0644_
*3431 _0645_
*3432 _0646_
*3433 _0647_
*3434 _0648_
*3435 _0649_
*3436 _0650_
*3437 _0651_
*3438 _0652_
*3439 _0653_
*3440 _0654_
*3441 _0655_
*3442 _0656_
*3443 _0657_
*3444 _0658_
*3445 _0659_
*3446 _0660_
*3447 _0661_
*3448 _0662_
*3449 _0663_
*3450 _0664_
*3451 _0665_
*3452 _0666_
*3453 _0667_
*3454 _0668_
*3455 _0669_
*3456 _0670_
*3457 _0671_
*3458 _0672_
*3459 _0673_
*3460 _0674_
*3461 _0675_
*3462 _0676_
*3463 _0677_
*3464 _0678_
*3465 _0679_
*3466 _0680_
*3467 _0681_
*3468 _0682_
*3469 _0683_
*3470 _0684_
*3471 _0685_
*3472 _0686_
*3473 _0687_
*3474 _0688_
*3475 _0689_
*3476 _0690_
*3477 _0691_
*3478 _0692_
*3479 _0693_
*3480 _0694_
*3481 _0695_
*3482 _0696_
*3483 _0697_
*3484 _0698_
*3485 _0699_
*3486 _0700_
*3487 _0701_
*3488 _0702_
*3489 _0703_
*3490 _0704_
*3491 _0705_
*3492 _0706_
*3493 _0707_
*3494 _0708_
*3495 _0709_
*3496 _0710_
*3497 _0711_
*3498 _0712_
*3499 _0713_
*3500 _0714_
*3501 _0715_
*3502 _0716_
*3503 _0717_
*3504 _0718_
*3505 _0719_
*3506 _0720_
*3507 _0721_
*3508 _0722_
*3509 _0723_
*3510 _0724_
*3511 _0725_
*3512 _0726_
*3513 _0727_
*3514 _0728_
*3515 _0729_
*3516 _0730_
*3517 _0731_
*3518 _0732_
*3519 _0733_
*3520 _0734_
*3521 _0735_
*3522 _0736_
*3523 _0737_
*3524 _0738_
*3525 _0739_
*3526 _0740_
*3527 _0741_
*3528 _0742_
*3529 _0743_
*3530 _0744_
*3531 _0745_
*3532 _0746_
*3533 _0747_
*3534 _0748_
*3535 _0749_
*3536 _0750_
*3537 _0751_
*3538 _0752_
*3539 _0753_
*3540 _0754_
*3541 _0755_
*3542 _0756_
*3543 _0757_
*3544 _0758_
*3545 _0759_
*3546 _0760_
*3547 _0761_
*3548 _0762_
*3549 _0763_
*3550 _0764_
*3551 _0765_
*3552 _0766_
*3553 _0767_
*3554 _0768_
*3555 _0769_
*3556 _0770_
*3557 _0771_
*3558 _0772_
*3559 _0773_
*3560 _0774_
*3561 _0775_
*3562 _0776_
*3563 _0777_
*3564 _0778_
*3565 _0779_
*3566 _0780_
*3567 _0781_
*3568 _0782_
*3569 _0783_
*3570 _0784_
*3571 _0785_
*3572 _0786_
*3573 _0787_
*3574 _0788_
*3575 _0789_
*3576 _0790_
*3577 _0791_
*3578 _0792_
*3579 _0793_
*3580 _0794_
*3581 _0795_
*3582 _0796_
*3583 _0797_
*3584 _0798_
*3585 _0799_
*3586 _0800_
*3587 _0801_
*3588 _0802_
*3589 _0803_
*3590 _0804_
*3591 _0805_
*3592 _0806_
*3593 _0807_
*3594 _0808_
*3595 _0809_
*3596 _0810_
*3597 _0811_
*3598 _0812_
*3599 _0813_
*3600 _0814_
*3601 _0815_
*3602 _0816_
*3603 _0817_
*3604 _0818_
*3605 _0819_
*3606 _0820_
*3607 _0821_
*3608 _0822_
*3609 _0823_
*3610 _0824_
*3611 _0825_
*3612 _0826_
*3613 _0827_
*3614 _0828_
*3615 _0829_
*3616 _0830_
*3617 _0831_
*3618 _0832_
*3619 _0833_
*3620 _0834_
*3621 _0835_
*3622 _0836_
*3623 _0837_
*3624 _0838_
*3625 _0839_
*3626 _0840_
*3627 _0841_
*3628 _0842_
*3629 _0843_
*3630 _0844_
*3631 _0845_
*3632 _0846_
*3633 _0847_
*3634 _0848_
*3635 _0849_
*3636 _0850_
*3637 _0851_
*3638 _0852_
*3639 _0853_
*3640 _0854_
*3641 _0855_
*3642 _0856_
*3643 _0857_
*3644 _0858_
*3645 _0859_
*3646 _0860_
*3647 _0861_
*3648 _0862_
*3649 _0863_
*3650 _0864_
*3651 _0865_
*3652 _0866_
*3653 _0867_
*3654 _0868_
*3655 _0869_
*3656 _0870_
*3657 _0871_
*3658 _0872_
*3659 _0873_
*3660 _0874_
*3661 _0875_
*3662 _0876_
*3663 _0877_
*3664 _0878_
*3665 _0879_
*3666 _0880_
*3667 _0881_
*3668 _0882_
*3669 _0883_
*3670 _0884_
*3671 _0885_
*3672 _0886_
*3673 _0887_
*3674 _0888_
*3675 _0889_
*3676 _0890_
*3677 _0891_
*3678 _0892_
*3679 _0893_
*3680 _0894_
*3681 _0895_
*3682 _0896_
*3683 _0897_
*3684 _0898_
*3685 _0899_
*3686 _0900_
*3687 _0901_
*3688 _0902_
*3689 _0903_
*3690 _0904_
*3691 _0905_
*3692 _0906_
*3693 _0907_
*3694 _0908_
*3695 _0909_
*3696 _0910_
*3697 _0911_
*3698 _0912_
*3699 _0913_
*3700 _0914_
*3701 _0915_
*3702 _0916_
*3703 _0917_
*3704 _0918_
*3705 _0919_
*3706 _0920_
*3707 _0921_
*3708 _0922_
*3709 _0923_
*3710 _0924_
*3711 _0925_
*3712 _0926_
*3713 _0927_
*3714 _0928_
*3715 _0929_
*3716 _0930_
*3717 _0931_
*3718 _0932_
*3719 _0933_
*3720 _0934_
*3721 _0935_
*3722 _0936_
*3723 _0937_
*3724 _0938_
*3725 _0939_
*3726 _0940_
*3727 _0941_
*3728 _0942_
*3729 _0943_
*3730 _0944_
*3731 _0945_
*3732 _0946_
*3733 _0947_
*3734 _0948_
*3735 _0949_
*3736 _0950_
*3737 _0951_
*3738 _0952_
*3739 _0953_
*3740 _0954_
*3741 _0955_
*3742 _0956_
*3743 _0957_
*3744 _0958_
*3745 _0959_
*3746 _0960_
*3747 _0961_
*3748 _0962_
*3749 _0963_
*3750 _0964_
*3751 _0965_
*3752 _0966_
*3753 _0967_
*3754 _0968_
*3755 _0969_
*3756 _0970_
*3757 _0971_
*3758 _0972_
*3759 _0973_
*3760 _0974_
*3761 _0975_
*3762 _0976_
*3763 _0977_
*3764 _0978_
*3765 _0979_
*3766 _0980_
*3767 _0981_
*3768 _0982_
*3769 _0983_
*3770 _0984_
*3771 _0985_
*3772 _0986_
*3773 _0987_
*3774 _0988_
*3775 _0989_
*3776 _0990_
*3777 _0991_
*3778 _0992_
*3779 _0993_
*3780 _0994_
*3781 _0995_
*3782 _0996_
*3783 _0997_
*3784 _0998_
*3785 _0999_
*3786 _1000_
*3787 _1001_
*3788 _1002_
*3789 _1003_
*3790 _1004_
*3791 _1005_
*3792 _1006_
*3793 _1007_
*3794 _1008_
*3795 _1009_
*3796 _1010_
*3797 _1011_
*3798 _1012_
*3799 _1013_
*3800 _1014_
*3801 _1015_
*3802 _1016_
*3803 _1017_
*3804 _1018_
*3805 _1019_
*3806 _1020_
*3807 _1021_
*3808 _1022_
*3809 _1023_
*3810 _1024_
*3811 _1025_
*3812 _1026_
*3813 _1027_
*3814 _1028_
*3815 _1029_
*3816 _1030_
*3817 _1031_
*3818 _1032_
*3819 _1033_
*3820 _1034_
*3821 _1035_
*3822 _1036_
*3823 _1037_
*3824 _1038_
*3825 _1039_
*3826 _1040_
*3827 _1041_
*3828 _1042_
*3829 _1043_
*3830 _1044_
*3831 _1045_
*3832 _1046_
*3833 _1047_
*3834 _1048_
*3835 _1049_
*3836 _1050_
*3837 _1051_
*3838 _1052_
*3839 _1053_
*3840 _1054_
*3841 _1055_
*3842 _1056_
*3843 _1057_
*3844 _1058_
*3845 _1059_
*3846 _1060_
*3847 _1061_
*3848 _1062_
*3849 _1063_
*3850 _1064_
*3851 _1065_
*3852 _1066_
*3853 _1067_
*3854 _1068_
*3855 _1069_
*3856 _1070_
*3857 _1071_
*3858 _1072_
*3859 _1073_
*3860 _1074_
*3861 _1075_
*3862 _1076_
*3863 _1077_
*3864 _1078_
*3865 _1079_
*3866 _1080_
*3867 _1081_
*3868 _1082_
*3869 _1083_
*3870 _1084_
*3871 _1085_
*3872 _1086_
*3873 _1087_
*3874 _1088_
*3875 _1089_
*3876 _1090_
*3877 _1091_
*3878 _1092_
*3879 _1093_
*3880 _1094_
*3881 _1095_
*3882 _1096_
*3883 _1097_
*3884 _1098_
*3885 _1099_
*3886 _1100_
*3887 _1101_
*3888 _1102_
*3889 _1103_
*3890 _1104_
*3891 _1105_
*3892 _1106_
*3893 _1107_
*3894 _1108_
*3895 _1109_
*3896 _1110_
*3897 _1111_
*3898 _1112_
*3899 _1113_
*3900 _1114_
*3901 _1115_
*3902 _1116_
*3903 _1117_
*3904 _1118_
*3905 _1119_
*3906 _1120_
*3907 _1121_
*3908 _1122_
*3909 _1123_
*3910 _1124_
*3911 _1125_
*3912 _1126_
*3913 _1127_
*3914 _1128_
*3915 _1129_
*3916 _1130_
*3917 _1131_
*3918 _1132_
*3919 _1133_
*3920 _1134_
*3921 _1135_
*3922 _1136_
*3923 _1137_
*3924 _1138_
*3925 _1139_
*3926 _1140_
*3927 _1141_
*3928 _1142_
*3929 _1143_
*3930 _1144_
*3931 _1145_
*3932 _1146_
*3933 _1147_
*3934 _1148_
*3935 _1149_
*3936 _1150_
*3937 _1151_
*3938 _1152_
*3939 _1153_
*3940 _1154_
*3941 _1155_
*3942 _1156_
*3943 _1157_
*3944 _1158_
*3945 _1159_
*3946 _1160_
*3947 _1161_
*3948 _1162_
*3949 _1163_
*3950 _1164_
*3951 _1165_
*3952 _1166_
*3953 _1167_
*3954 _1168_
*3955 _1169_
*3956 _1170_
*3957 _1171_
*3958 _1172_
*3959 _1173_
*3960 _1174_
*3961 _1175_
*3962 _1176_
*3963 _1177_
*3964 _1178_
*3965 _1179_
*3966 _1180_
*3967 _1181_
*3968 _1182_
*3969 _1183_
*3970 _1184_
*3971 _1185_
*3972 _1186_
*3973 _1187_
*3974 _1188_
*3975 _1189_
*3976 _1190_
*3977 _1191_
*3978 _1192_
*3979 _1193_
*3980 _1194_
*3981 _1195_
*3982 _1196_
*3983 _1197_
*3984 _1198_
*3985 _1199_
*3986 _1200_
*3987 _1201_
*3988 _1202_
*3989 _1203_
*3990 _1204_
*3991 _1205_
*3992 _1206_
*3993 _1207_
*3994 _1208_
*3995 _1209_
*3996 _1210_
*3997 _1211_
*3998 _1212_
*3999 _1213_
*4000 _1214_
*4001 _1215_
*4002 _1216_
*4003 _1217_
*4004 _1218_
*4005 _1219_
*4006 _1220_
*4007 _1221_
*4008 _1222_
*4009 _1223_
*4010 _1224_
*4011 _1225_
*4012 _1226_
*4013 _1227_
*4014 _1228_
*4015 _1229_
*4016 _1230_
*4017 _1231_
*4018 _1232_
*4019 _1233_
*4020 _1234_
*4021 _1235_
*4022 _1236_
*4023 _1237_
*4024 _1238_
*4025 _1239_
*4026 _1240_
*4027 _1241_
*4028 _1242_
*4029 _1243_
*4030 _1244_
*4031 _1245_
*4032 _1246_
*4033 _1247_
*4034 _1248_
*4035 _1249_
*4036 _1250_
*4037 _1251_
*4038 _1252_
*4039 _1253_
*4040 _1254_
*4041 _1255_
*4042 _1256_
*4043 _1257_
*4044 _1258_
*4045 _1259_
*4046 _1260_
*4047 _1261_
*4048 _1262_
*4049 _1263_
*4050 _1264_
*4051 _1265_
*4052 _1266_
*4053 _1267_
*4054 _1268_
*4055 _1269_
*4056 _1270_
*4057 _1271_
*4058 _1272_
*4059 _1273_
*4060 _1274_
*4061 _1275_
*4062 _1276_
*4063 _1277_
*4064 _1278_
*4065 _1283_
*4066 _1284_
*4067 _1285_
*4068 _1286_
*4069 _1287_
*4070 _1288_
*4071 _1289_
*4072 _1289__129
*4073 _1290_
*4074 _1290__130
*4075 clkbuf_0_i_clk
*4076 clkbuf_2_0__f_i_clk
*4077 clkbuf_2_1__f_i_clk
*4078 clkbuf_2_2__f_i_clk
*4079 clkbuf_2_3__f_i_clk
*4080 clkbuf_leaf_0_i_clk
*4081 clkbuf_leaf_10_i_clk
*4082 clkbuf_leaf_11_i_clk
*4083 clkbuf_leaf_12_i_clk
*4084 clkbuf_leaf_13_i_clk
*4085 clkbuf_leaf_14_i_clk
*4086 clkbuf_leaf_15_i_clk
*4087 clkbuf_leaf_16_i_clk
*4088 clkbuf_leaf_17_i_clk
*4089 clkbuf_leaf_18_i_clk
*4090 clkbuf_leaf_19_i_clk
*4091 clkbuf_leaf_1_i_clk
*4092 clkbuf_leaf_20_i_clk
*4093 clkbuf_leaf_2_i_clk
*4094 clkbuf_leaf_3_i_clk
*4095 clkbuf_leaf_4_i_clk
*4096 clkbuf_leaf_5_i_clk
*4097 clkbuf_leaf_6_i_clk
*4098 clkbuf_leaf_7_i_clk
*4099 clkbuf_leaf_8_i_clk
*4100 clkbuf_leaf_9_i_clk
*4101 clkload0
*4102 clkload1
*4103 clkload10
*4104 clkload11
*4105 clkload2
*4106 clkload3
*4107 clkload4
*4108 clkload5
*4109 clkload6
*4110 clkload7
*4111 clkload8
*4112 clkload9
*4113 fanout100
*4114 fanout101
*4115 fanout103
*4116 fanout105
*4117 fanout106
*4118 fanout107
*4119 fanout109
*4120 fanout110
*4121 fanout111
*4122 fanout112
*4123 fanout113
*4124 fanout114
*4125 fanout116
*4126 fanout118
*4127 fanout119
*4128 fanout120
*4129 fanout121
*4130 fanout122
*4131 fanout123
*4132 fanout124
*4133 fanout125
*4134 fanout126
*4135 fanout127
*4136 fanout128
*4137 fanout62
*4138 fanout63
*4139 fanout64
*4140 fanout65
*4141 fanout66
*4142 fanout67
*4143 fanout68
*4144 fanout69
*4145 fanout70
*4146 fanout71
*4147 fanout72
*4148 fanout73
*4149 fanout74
*4150 fanout75
*4151 fanout76
*4152 fanout77
*4153 fanout78
*4154 fanout79
*4155 fanout80
*4156 fanout81
*4157 fanout82
*4158 fanout83
*4159 fanout84
*4160 fanout85
*4161 fanout86
*4162 fanout87
*4163 fanout88
*4164 fanout89
*4165 fanout90
*4166 fanout91
*4167 fanout92
*4168 fanout93
*4169 fanout94
*4170 fanout95
*4171 fanout97
*4172 fanout98
*4173 hold132
*4174 hold133
*4175 hold134
*4176 hold135
*4177 hold136
*4178 hold137
*4179 hold138
*4180 hold139
*4181 hold140
*4182 hold141
*4183 hold142
*4184 hold143
*4185 hold144
*4186 hold145
*4187 hold146
*4188 hold147
*4189 hold148
*4190 hold149
*4191 hold150
*4192 hold151
*4193 hold152
*4194 hold153
*4195 hold154
*4196 hold155
*4197 hold156
*4198 hold157
*4199 hold158
*4200 hold159
*4201 hold160
*4202 hold161
*4203 hold162
*4204 hold163
*4205 hold164
*4206 hold165
*4207 hold166
*4208 hold167
*4209 hold168
*4210 hold169
*4211 hold170
*4212 hold171
*4213 hold172
*4214 hold173
*4215 hold174
*4216 hold175
*4217 hold176
*4218 hold177
*4219 hold178
*4220 hold179
*4221 hold180
*4222 hold181
*4223 hold182
*4224 hold183
*4225 hold184
*4226 hold185
*4227 hold186
*4228 hold187
*4229 hold188
*4230 hold189
*4231 hold190
*4232 hold191
*4233 hold192
*4234 hold193
*4235 hold194
*4236 hold195
*4237 hold196
*4238 hold197
*4239 hold198
*4240 hold199
*4241 hold200
*4242 hold201
*4243 hold202
*4244 hold203
*4245 hold204
*4246 hold205
*4247 hold206
*4248 hold207
*4249 hold208
*4250 hold209
*4251 hold210
*4252 hold211
*4253 hold212
*4254 hold213
*4255 hold214
*4256 hold215
*4257 hold216
*4258 hold217
*4259 hold218
*4260 hold219
*4261 hold220
*4262 hold221
*4263 hold222
*4264 hold223
*4265 hold224
*4266 hold225
*4267 hold226
*4268 hold227
*4269 hold228
*4270 hold229
*4271 hold230
*4272 hold231
*4273 hold232
*4274 hold233
*4275 hold234
*4276 hold235
*4277 hold236
*4278 hold237
*4279 hold238
*4280 hold239
*4281 hold240
*4282 hold241
*4283 hold242
*4284 hold243
*4285 hold244
*4286 hold245
*4287 hold246
*4288 hold247
*4289 hold248
*4290 hold249
*4291 hold250
*4292 hold251
*4293 hold252
*4294 hold253
*4295 hold254
*4296 hold255
*4297 hold256
*4298 hold257
*4299 hold258
*4300 hold259
*4301 hold260
*4302 hold261
*4303 hold262
*4304 hold263
*4305 hold264
*4306 hold265
*4307 hold266
*4308 hold267
*4309 hold268
*4310 hold269
*4311 hold270
*4312 hold271
*4313 hold272
*4314 hold273
*4315 hold274
*4316 hold275
*4317 hold276
*4318 hold277
*4319 hold278
*4320 hold279
*4321 hold280
*4322 hold281
*4323 hold282
*4324 hold283
*4325 hold284
*4326 hold285
*4327 hold286
*4328 hold287
*4329 hold288
*4330 hold289
*4331 i2c_master_controller_top
*4332 i2c_master_controller_top_131
*4333 input1
*4334 input10
*4335 input11
*4336 input12
*4337 input13
*4338 input14
*4339 input15
*4340 input16
*4341 input17
*4342 input18
*4343 input19
*4344 input2
*4345 input20
*4346 input21
*4347 input22
*4348 input23
*4349 input24
*4350 input25
*4351 input26
*4352 input27
*4353 input28
*4354 input29
*4355 input3
*4356 input30
*4357 input31
*4358 input32
*4359 input33
*4360 input34
*4361 input35
*4362 input36
*4363 input37
*4364 input38
*4365 input39
*4366 input4
*4367 input40
*4368 input41
*4369 input42
*4370 input43
*4371 input5
*4372 input6
*4373 input7
*4374 input8
*4375 input9
*4376 load_slew102
*4377 load_slew104
*4378 load_slew108
*4379 load_slew115
*4380 load_slew117
*4381 load_slew96
*4382 load_slew99
*4383 output44
*4384 output45
*4385 output46
*4386 output47
*4387 output48
*4388 output49
*4389 output50
*4390 output51
*4391 output52
*4392 output53
*4393 output54
*4394 output55
*4395 output56
*4396 output57
*4397 output58
*4398 output59
*4399 output60
*4400 output61

*PORTS
i_byte_cnt_reg[0] I
i_byte_cnt_reg[1] I
i_byte_cnt_reg[2] I
i_byte_cnt_reg[3] I
i_byte_cnt_reg[4] I
i_byte_cnt_reg[5] I
i_byte_cnt_reg[6] I
i_byte_cnt_reg[7] I
i_clk I
i_clk_div_lsb[0] I
i_clk_div_lsb[1] I
i_clk_div_lsb[2] I
i_clk_div_lsb[3] I
i_clk_div_lsb[4] I
i_clk_div_lsb[5] I
i_clk_div_lsb[6] I
i_clk_div_lsb[7] I
i_config_reg[0] I
i_config_reg[1] I
i_config_reg[2] I
i_config_reg[3] I
i_config_reg[4] I
i_config_reg[5] I
i_mode_reg[0] I
i_mode_reg[1] I
i_mode_reg[2] I
i_mode_reg[3] I
i_mode_reg[4] I
i_mode_reg[5] I
i_mode_reg[6] I
i_mode_reg[7] I
i_rst_n I
i_slave_addr_reg[0] I
i_slave_addr_reg[1] I
i_slave_addr_reg[2] I
i_slave_addr_reg[3] I
i_slave_addr_reg[4] I
i_slave_addr_reg[5] I
i_slave_addr_reg[6] I
i_transmit_data[0] I
i_transmit_data[1] I
i_transmit_data[2] I
i_transmit_data[3] I
i_transmit_data[4] I
i_transmit_data[5] I
i_transmit_data[6] I
i_transmit_data[7] I
io_scl I
io_sda I
o_cmd_status_reg[0] O
o_cmd_status_reg[1] O
o_cmd_status_reg[2] O
o_cmd_status_reg[3] O
o_cmd_status_reg[4] O
o_cmd_status_reg[5] O
o_cmd_status_reg[6] O
o_cmd_status_reg[7] O
o_int_n O
o_receive_data[0] O
o_receive_data[1] O
o_receive_data[2] O
o_receive_data[3] O
o_receive_data[4] O
o_receive_data[5] O
o_receive_data[6] O
o_receive_data[7] O
o_received_data_valid O
o_start_ack O
o_transmit_data_request O

*D_NET *3 0.0021311
*CONN
*P i_byte_cnt_reg[0] I
*I *4333:A I *D sky130_fd_sc_hd__clkdlybuf4s25_1
*CAP
1 i_byte_cnt_reg[0] 0.000767641
2 *4333:A 0.000767641
3 *4333:A *3642:A1 7.83659e-05
4 *4333:A *3646:A1 7.17146e-05
5 *4333:A *3868:D 0.000207147
6 *4333:A *3870:CLK 0
7 *4333:A *3870:D 4.33002e-05
8 *4333:A *4355:A 0.000195294
9 *4333:A *4373:A 0
10 *4333:A *909:63 0
*RES
1 i_byte_cnt_reg[0] *4333:A 24.9247 
*END

*D_NET *4 0.00225192
*CONN
*P i_byte_cnt_reg[1] I
*I *4344:A I *D sky130_fd_sc_hd__clkdlybuf4s25_1
*CAP
1 i_byte_cnt_reg[1] 0.000796636
2 *4344:A 0.000796636
3 *4344:A o_receive_data[6] 7.3237e-05
4 *4344:A o_receive_data[7] 0.000273045
5 *4344:A *4372:A 0.000273045
6 *4344:A *4374:A 0
7 *4344:A *4396:A 3.93247e-05
*RES
1 i_byte_cnt_reg[1] *4344:A 31.3986 
*END

*D_NET *5 0.00103267
*CONN
*P i_byte_cnt_reg[2] I
*I *4355:A I *D sky130_fd_sc_hd__clkdlybuf4s25_1
*CAP
1 i_byte_cnt_reg[2] 0.00041869
2 *4355:A 0.00041869
3 *4355:A *4373:A 0
4 *4333:A *4355:A 0.000195294
*RES
1 i_byte_cnt_reg[2] *4355:A 23.2359 
*END

*D_NET *6 0.00197078
*CONN
*P i_byte_cnt_reg[3] I
*I *4366:A I *D sky130_fd_sc_hd__clkdlybuf4s25_1
*CAP
1 i_byte_cnt_reg[3] 0.000561832
2 *4366:A 0.000561832
3 *4366:A o_receive_data[6] 0.000437954
4 *4366:A *3647:A1 0
5 *4366:A *3875:D 0
6 *4366:A *4374:A 0.000409159
*RES
1 i_byte_cnt_reg[3] *4366:A 26.116 
*END

*D_NET *7 0.0016686
*CONN
*P i_byte_cnt_reg[4] I
*I *4371:A I *D sky130_fd_sc_hd__clkdlybuf4s25_1
*CAP
1 i_byte_cnt_reg[4] 0.000752225
2 *4371:A 0.000752225
3 *4371:A *4373:A 0.000164154
*RES
1 i_byte_cnt_reg[4] *4371:A 30.2531 
*END

*D_NET *8 0.00404992
*CONN
*P i_byte_cnt_reg[5] I
*I *4372:A I *D sky130_fd_sc_hd__clkdlybuf4s25_1
*CAP
1 i_byte_cnt_reg[5] 0.00090105
2 *4372:A 0.00090105
3 *4372:A o_receive_data[6] 0.000641173
4 *4372:A o_receive_data[7] 7.577e-05
5 *4372:A *3645:A1 0
6 *4372:A *3647:A1 0
7 *4372:A *3870:CLK 0.000109809
8 *4372:A *3873:CLK 0.000199556
9 *4372:A *4374:A 0.000712584
10 *4372:A *619:59 0.000120402
11 *4372:A *623:33 0.000115485
12 *4344:A *4372:A 0.000273045
*RES
1 i_byte_cnt_reg[5] *4372:A 38.1887 
*END

*D_NET *9 0.00185118
*CONN
*P i_byte_cnt_reg[6] I
*I *4373:A I *D sky130_fd_sc_hd__clkdlybuf4s25_1
*CAP
1 i_byte_cnt_reg[6] 0.00081128
2 *4373:A 0.00081128
3 *4373:A *3868:D 0
4 *4373:A *3870:CLK 0
5 *4373:A *4303:A 6.44623e-05
6 *4333:A *4373:A 0
7 *4355:A *4373:A 0
8 *4371:A *4373:A 0.000164154
*RES
1 i_byte_cnt_reg[6] *4373:A 27.991 
*END

*D_NET *10 0.00271409
*CONN
*P i_byte_cnt_reg[7] I
*I *4374:A I *D sky130_fd_sc_hd__clkdlybuf4s25_1
*CAP
1 i_byte_cnt_reg[7] 0.000598917
2 *4374:A 0.000598917
3 *4374:A o_receive_data[6] 3.43988e-06
4 *4374:A *3873:CLK 0.000201264
5 *4374:A *623:33 0.000189809
6 *4344:A *4374:A 0
7 *4366:A *4374:A 0.000409159
8 *4372:A *4374:A 0.000712584
*RES
1 i_byte_cnt_reg[7] *4374:A 30.7232 
*END

*D_NET *11 0.0183954
*CONN
*P i_clk I
*I *4075:A I *D sky130_fd_sc_hd__clkbuf_16
*CAP
1 i_clk 0.00273961
2 *4075:A 0.000121785
3 *11:14 0.00159131
4 *11:10 0.00399363
5 *11:8 0.00526372
6 *4075:A *3361:A 0
7 *4075:A *120:12 1.78226e-05
8 *11:8 *3505:A 0.000119216
9 *11:8 *4347:A 0.000400212
10 *11:10 *3359:A 1.04009e-05
11 *11:10 *3367:B 4.04022e-05
12 *11:10 *3377:B1 1.14406e-05
13 *11:10 *3381:B1 0
14 *11:10 *3677:B 1.02442e-05
15 *11:10 *3678:S 0
16 *11:10 *3716:A 6.84681e-05
17 *11:10 *3717:B1 0.000151768
18 *11:10 *3745:A1 5.85943e-06
19 *11:10 *3748:A1 0.000354571
20 *11:10 *3749:A1 0
21 *11:10 *3766:A1 0.000105859
22 *11:10 *3766:A2 0
23 *11:10 *3850:A1 3.99825e-06
24 *11:10 *3850:A2 9.93198e-05
25 *11:10 *3917:RESET_B 0.000215864
26 *11:10 *3918:CLK 0
27 *11:10 *3918:D 7.13706e-05
28 *11:10 *3919:D 7.16058e-05
29 *11:10 *3921:CLK 0.00031625
30 *11:10 *3982:CLK 1.39484e-05
31 *11:10 *4041:CLK 1.16344e-05
32 *11:10 *4041:D 0
33 *11:10 *4042:CLK 0
34 *11:10 *4042:RESET_B 7.25126e-05
35 *11:10 *4052:D 7.47199e-05
36 *11:10 *4053:RESET_B 0
37 *11:10 *4094:A 0
38 *11:10 *4175:A 0
39 *11:10 *4229:A 6.73141e-05
40 *11:10 *51:12 0.000144146
41 *11:10 *392:10 0.000176618
42 *11:10 *392:25 0.000214957
43 *11:10 *392:29 0.000228017
44 *11:10 *392:44 0.000100983
45 *11:10 *396:24 2.97443e-06
46 *11:10 *396:57 4.83561e-06
47 *11:10 *622:78 3.17508e-06
48 *11:10 *622:80 1.99913e-06
49 *11:10 *625:86 9.40168e-05
50 *11:10 *877:14 0
51 *11:10 *890:27 0
52 *11:10 *891:10 0.000109409
53 *11:10 *891:34 0.000277653
54 *11:10 *907:32 0
55 *11:10 *943:21 8.13194e-05
56 *11:10 *1042:10 4.26004e-05
57 *11:10 *1042:25 3.55261e-05
58 *11:14 *3361:A 0.000442379
59 *11:14 *3909:CLK 0.000148304
60 *11:14 *72:10 2.84306e-05
61 *11:14 *120:12 1.83905e-05
62 *11:14 *907:32 0.000214793
*RES
1 i_clk *11:8 10.5571 
2 *11:8 *11:10 60.6875 
3 *11:10 *11:14 28.3884 
4 *11:14 *4075:A 11.4473 
*END

*D_NET *13 0.00253881
*CONN
*P i_clk_div_lsb[1] I
*I *4375:A I *D sky130_fd_sc_hd__clkdlybuf4s25_1
*CAP
1 i_clk_div_lsb[1] 0.000719268
2 *4375:A 0.000719268
3 *4375:A *3405:A 0
4 *4375:A *3410:A1 5.96235e-05
5 *4375:A *3410:A2 0
6 *4375:A *3410:D1 0.000155877
7 *4375:A *4334:A 0.000424258
8 *4375:A *4335:A 1.97697e-05
9 *4375:A *4336:A 0
10 *4375:A *4337:A 0
11 *4375:A *4391:A 0.000120313
12 *4375:A *4392:A 9.48025e-05
13 *4375:A *631:27 0.000116374
14 *4375:A *642:14 1.31653e-05
15 *4375:A *906:12 9.60939e-05
*RES
1 i_clk_div_lsb[1] *4375:A 25.2289 
*END

*D_NET *14 0.00279453
*CONN
*P i_clk_div_lsb[2] I
*I *4334:A I *D sky130_fd_sc_hd__clkdlybuf4s25_1
*CAP
1 i_clk_div_lsb[2] 0.000496171
2 *4334:A 0.000496171
3 *4334:A o_receive_data[1] 0.00051486
4 *4334:A o_receive_data[4] 0.000300187
5 *4334:A *4335:A 0.000562888
6 *4375:A *4334:A 0.000424258
*RES
1 i_clk_div_lsb[2] *4334:A 28.5988 
*END

*D_NET *15 0.00333735
*CONN
*P i_clk_div_lsb[3] I
*I *4335:A I *D sky130_fd_sc_hd__clkdlybuf4s25_1
*CAP
1 i_clk_div_lsb[3] 0.000550875
2 *4335:A 0.000550875
3 *4335:A o_receive_data[1] 0.000422784
4 *4335:A *4337:A 0.00104059
5 *4335:A *4338:A 0.00014285
6 *4335:A *4394:A 4.67241e-05
7 *4335:A *414:23 0
8 *4335:A *642:14 0
9 *4334:A *4335:A 0.000562888
10 *4375:A *4335:A 1.97697e-05
*RES
1 i_clk_div_lsb[3] *4335:A 30.4751 
*END

*D_NET *16 0.00207398
*CONN
*P i_clk_div_lsb[4] I
*I *4336:A I *D sky130_fd_sc_hd__clkdlybuf4s25_1
*CAP
1 i_clk_div_lsb[4] 0.000525777
2 *4336:A 0.000525777
3 *4336:A *4337:A 0.000501277
4 *4336:A *4391:A 0.000259364
5 *4336:A *642:14 0.000261786
6 *4375:A *4336:A 0
*RES
1 i_clk_div_lsb[4] *4336:A 22.1926 
*END

*D_NET *17 0.00283273
*CONN
*P i_clk_div_lsb[5] I
*I *4337:A I *D sky130_fd_sc_hd__clkdlybuf4s25_1
*CAP
1 i_clk_div_lsb[5] 0.000505631
2 *4337:A 0.000505631
3 *4337:A *4391:A 6.39262e-05
4 *4337:A *4394:A 0.000183812
5 *4337:A *631:10 3.18676e-05
6 *4337:A *642:14 0
7 *4335:A *4337:A 0.00104059
8 *4336:A *4337:A 0.000501277
9 *4375:A *4337:A 0
*RES
1 i_clk_div_lsb[5] *4337:A 27.6186 
*END

*D_NET *18 0.00153685
*CONN
*P i_clk_div_lsb[6] I
*I *4338:A I *D sky130_fd_sc_hd__clkdlybuf4s25_1
*CAP
1 i_clk_div_lsb[6] 0.000495444
2 *4338:A 0.000495444
3 *4338:A *3406:B1 0
4 *4338:A *3414:B 1.72894e-05
5 *4338:A *4339:A 0.000328672
6 *4338:A *642:6 5.71472e-05
7 *4335:A *4338:A 0.00014285
*RES
1 i_clk_div_lsb[6] *4338:A 23.7391 
*END

*D_NET *19 0.00131451
*CONN
*P i_clk_div_lsb[7] I
*I *4339:A I *D sky130_fd_sc_hd__clkdlybuf4s25_1
*CAP
1 i_clk_div_lsb[7] 0.000492921
2 *4339:A 0.000492921
3 *4339:A *3414:B 0
4 *4339:A *3415:B1 0
5 *4339:A *4347:A 0
6 *4338:A *4339:A 0.000328672
*RES
1 i_clk_div_lsb[7] *4339:A 22.8303 
*END

*D_NET *20 0.00193505
*CONN
*P i_config_reg[0] I
*I *4340:A I *D sky130_fd_sc_hd__clkdlybuf4s25_1
*CAP
1 i_config_reg[0] 0.000830908
2 *4340:A 0.000830908
3 *4340:A o_received_data_valid 0
4 *4340:A *4179:A 0.00027323
5 *4340:A *4349:A 0
*RES
1 i_config_reg[0] *4340:A 30.1036 
*END

*D_NET *21 0.0043517
*CONN
*P i_config_reg[1] I
*I *4341:A I *D sky130_fd_sc_hd__clkdlybuf4s25_1
*CAP
1 i_config_reg[1] 0.00108303
2 *4341:A 0.00108303
3 *4341:A o_cmd_status_reg[5] 0.00071947
4 *4341:A o_int_n 0.000143478
5 *4341:A *3395:A 0
6 *4341:A *3876:RESET_B 0.000168592
7 *4341:A *3967:CLK 7.51425e-05
8 *4341:A *3969:CLK 0.00019809
9 *4341:A *3973:RESET_B 4.68148e-05
10 *4341:A *4069:A 0.000158126
11 *4341:A *4085:A 0.00026974
12 *4341:A *4128:A 9.15842e-06
13 *4341:A *4346:A 0
14 *4341:A *4387:A 0.000283506
15 *4341:A *654:10 0
16 *4341:A *654:22 0
17 *4341:A *910:10 9.29696e-05
18 *4341:A *910:50 2.05484e-05
*RES
1 i_config_reg[1] *4341:A 43.7643 
*END

*D_NET *22 0.00154524
*CONN
*P i_config_reg[2] I
*I *4342:A I *D sky130_fd_sc_hd__clkdlybuf4s25_1
*CAP
1 i_config_reg[2] 0.000428251
2 *4342:A 0.000428251
3 *4342:A o_cmd_status_reg[3] 0.000227488
4 *4342:A o_cmd_status_reg[4] 0
5 *4342:A o_cmd_status_reg[6] 0.00014285
6 *4342:A o_cmd_status_reg[7] 0
7 *4342:A *4387:A 7.77652e-05
8 *4342:A *23:13 0.000240639
*RES
1 i_config_reg[2] *4342:A 25.8714 
*END

*D_NET *23 0.00662229
*CONN
*P i_config_reg[3] I
*I *4343:A I *D sky130_fd_sc_hd__clkdlybuf4s25_1
*CAP
1 i_config_reg[3] 0.00106206
2 *4343:A 0
3 *23:13 0.00106206
4 *23:13 o_cmd_status_reg[7] 0.00257974
5 *23:13 *4346:A 0.00101719
6 *23:13 *4383:A 0
7 *23:13 *55:18 0.00052642
8 *23:13 *59:10 0
9 *23:13 *60:14 0.000134184
10 *4342:A *23:13 0.000240639
*RES
1 i_config_reg[3] *23:13 45.8393 
2 *23:13 *4343:A 13.8 
*END

*D_NET *24 0.00169828
*CONN
*P i_config_reg[4] I
*I *4345:A I *D sky130_fd_sc_hd__clkdlybuf4s25_1
*CAP
1 i_config_reg[4] 0.000748079
2 *4345:A 0.000748079
3 *4345:A *3639:A1 0
4 *4345:A *3962:CLK 0.00020212
5 *4345:A *4349:A 0
6 *4345:A *4350:A 0
*RES
1 i_config_reg[4] *4345:A 29.7464 
*END

*D_NET *25 0.00379397
*CONN
*P i_config_reg[5] I
*I *4346:A I *D sky130_fd_sc_hd__clkdlybuf4s25_1
*CAP
1 i_config_reg[5] 0.000934432
2 *4346:A 0.000934432
3 *4346:A o_cmd_status_reg[2] 3.00476e-05
4 *4346:A o_int_n 0
5 *4346:A *3863:RESET_B 0
6 *4346:A *3964:CLK 0.000311453
7 *4346:A *3964:D 0
8 *4346:A *4383:A 0
9 *4346:A *4389:A 0
10 *4346:A *60:14 0.000566412
11 *4341:A *4346:A 0
12 *23:13 *4346:A 0.00101719
*RES
1 i_config_reg[5] *4346:A 48.0679 
*END

*D_NET *26 0.000986512
*CONN
*P i_mode_reg[0] I
*I *4347:A I *D sky130_fd_sc_hd__clkdlybuf4s25_1
*CAP
1 i_mode_reg[0] 0.00029315
2 *4347:A 0.00029315
3 *4347:A *3415:B1 0
4 *4347:A *416:30 0
5 *4339:A *4347:A 0
6 *11:8 *4347:A 0.000400212
*RES
1 i_mode_reg[0] *4347:A 19.491 
*END

*D_NET *27 0.00130322
*CONN
*P i_mode_reg[1] I
*I *4348:A I *D sky130_fd_sc_hd__clkdlybuf4s25_1
*CAP
1 i_mode_reg[1] 0.000651611
2 *4348:A 0.000651611
*RES
1 i_mode_reg[1] *4348:A 26.5946 
*END

*D_NET *29 0.0023474
*CONN
*P i_mode_reg[3] I
*I *4349:A I *D sky130_fd_sc_hd__clkdlybuf4s25_1
*CAP
1 i_mode_reg[3] 0.0011737
2 *4349:A 0.0011737
3 *4349:A o_received_data_valid 0
4 *4340:A *4349:A 0
5 *4345:A *4349:A 0
*RES
1 i_mode_reg[3] *4349:A 31.8714 
*END

*D_NET *31 0.00236751
*CONN
*P i_mode_reg[5] I
*I *4350:A I *D sky130_fd_sc_hd__clkdlybuf4s25_1
*CAP
1 i_mode_reg[5] 0.000832592
2 *4350:A 0.000832592
3 *4350:A *3638:A1 0.000626714
4 *4350:A *3639:A1 4.58976e-05
5 *4350:A *4361:A 2.97137e-05
6 *4345:A *4350:A 0
*RES
1 i_mode_reg[5] *4350:A 31.9429 
*END

*D_NET *32 0.0025055
*CONN
*P i_mode_reg[6] I
*I *4351:A I *D sky130_fd_sc_hd__clkdlybuf4s25_1
*CAP
1 i_mode_reg[6] 0.000613666
2 *4351:A 0.000613666
3 *4351:A *4147:A 0.000428072
4 *4351:A *4352:A 0.00046817
5 *4351:A *828:42 0.000381928
*RES
1 i_mode_reg[6] *4351:A 27.6709 
*END

*D_NET *33 0.00198686
*CONN
*P i_mode_reg[7] I
*I *4352:A I *D sky130_fd_sc_hd__clkdlybuf4s25_1
*CAP
1 i_mode_reg[7] 0.000570188
2 *4352:A 0.000570188
3 *4352:A *4187:A 0.00026117
4 *4352:A *828:42 0.000117144
5 *4351:A *4352:A 0.00046817
*RES
1 i_mode_reg[7] *4352:A 26.4904 
*END

*D_NET *34 0.00100964
*CONN
*P i_rst_n I
*I *4353:A I *D sky130_fd_sc_hd__clkdlybuf4s25_1
*CAP
1 i_rst_n 0.000296982
2 *4353:A 0.000296982
3 *4353:A o_cmd_status_reg[0] 0.00041568
4 *4353:A *910:20 0
*RES
1 i_rst_n *4353:A 19.5083 
*END

*D_NET *35 0.00602587
*CONN
*P i_slave_addr_reg[0] I
*I *4354:A I *D sky130_fd_sc_hd__clkdlybuf4s25_1
*CAP
1 i_slave_addr_reg[0] 0.00196736
2 *4354:A 0.00196736
3 *4354:A *3472:A 1.45957e-05
4 *4354:A *3644:S 0
5 *4354:A *4356:A 0
6 *4354:A *4368:A 0.00202972
7 *4354:A *909:37 4.68405e-05
*RES
1 i_slave_addr_reg[0] *4354:A 38.6795 
*END

*D_NET *36 0.00283471
*CONN
*P i_slave_addr_reg[1] I
*I *4356:A I *D sky130_fd_sc_hd__clkdlybuf4s25_1
*CAP
1 i_slave_addr_reg[1] 0.00117065
2 *4356:A 0.00117065
3 *4356:A o_transmit_data_request 2.06178e-05
4 *4356:A *3484:A2 0.000169049
5 *4356:A *3485:D 1.90936e-05
6 *4356:A *3691:A1 2.11419e-05
7 *4356:A *3693:A1 0
8 *4356:A *3697:A1 5.52238e-05
9 *4356:A *4108:A 0
10 *4356:A *4359:A 0.000153054
11 *4356:A *4365:A 0
12 *4356:A *4367:A 0
13 *4356:A *4400:A 0
14 *4356:A *427:67 0
15 *4356:A *620:21 5.52238e-05
16 *4354:A *4356:A 0
*RES
1 i_slave_addr_reg[1] *4356:A 36.4429 
*END

*D_NET *37 0.00328274
*CONN
*P i_slave_addr_reg[2] I
*I *4357:A I *D sky130_fd_sc_hd__clkdlybuf4s25_1
*CAP
1 i_slave_addr_reg[2] 0.000803987
2 *4357:A 0.000803987
3 *4357:A o_transmit_data_request 0.000517944
4 *4357:A *3485:A 0
5 *4357:A *3485:B 1.77668e-05
6 *4357:A *3629:S 1.37292e-05
7 *4357:A *3695:A0 1.08359e-05
8 *4357:A *3858:RESET_B 0.000344162
9 *4357:A *3861:CLK 0.000269428
10 *4357:A *427:43 1.77668e-05
11 *4357:A *850:26 0.000313333
12 *4357:A *854:26 0.000169804
*RES
1 i_slave_addr_reg[2] *4357:A 43.9964 
*END

*D_NET *38 0.000908348
*CONN
*P i_slave_addr_reg[3] I
*I *4358:A I *D sky130_fd_sc_hd__clkdlybuf4s25_1
*CAP
1 i_slave_addr_reg[3] 0.000454174
2 *4358:A 0.000454174
3 *4358:A *3691:A1 0
*RES
1 i_slave_addr_reg[3] *4358:A 20.4017 
*END

*D_NET *39 0.00320624
*CONN
*P i_slave_addr_reg[4] I
*I *4359:A I *D sky130_fd_sc_hd__clkdlybuf4s25_1
*CAP
1 i_slave_addr_reg[4] 0.00106379
2 *4359:A 0.00106379
3 *4359:A *4364:A 0
4 *4359:A *4365:A 0.000925595
5 *4359:A *4368:A 0
6 *4359:A *43:11 0
7 *4356:A *4359:A 0.000153054
*RES
1 i_slave_addr_reg[4] *4359:A 45.675 
*END

*D_NET *40 0.00234484
*CONN
*P i_slave_addr_reg[5] I
*I *4360:A I *D sky130_fd_sc_hd__clkdlybuf4s25_1
*CAP
1 i_slave_addr_reg[5] 0.000865132
2 *4360:A 0.000865132
3 *4360:A *3632:A0 3.18676e-05
4 *4360:A *3632:A1 0.000142856
5 *4360:A *3687:B1 6.02977e-05
6 *4360:A *3861:D 2.89114e-05
7 *4360:A *3862:D 6.05161e-06
8 *4360:A *4369:A 0
9 *4360:A *4370:A 0
10 *4360:A *845:6 0.000140933
11 *4360:A *845:10 0
12 *4360:A *908:18 0.000186662
13 *4360:A *908:32 1.69961e-05
*RES
1 i_slave_addr_reg[5] *4360:A 31.8893 
*END

*D_NET *41 0.00135422
*CONN
*P i_slave_addr_reg[6] I
*I *4361:A I *D sky130_fd_sc_hd__clkdlybuf4s25_1
*CAP
1 i_slave_addr_reg[6] 0.000430745
2 *4361:A 0.000430745
3 *4361:A *4362:A 0.000463018
4 *4350:A *4361:A 2.97137e-05
*RES
1 i_slave_addr_reg[6] *4361:A 25.175 
*END

*D_NET *42 0.00191251
*CONN
*P i_transmit_data[0] I
*I *4362:A I *D sky130_fd_sc_hd__clkdlybuf4s25_1
*CAP
1 i_transmit_data[0] 0.000521511
2 *4362:A 0.000521511
3 *4362:A *3638:A1 0.000126629
4 *4362:A *3687:B1 5.23142e-05
5 *4362:A *4370:A 0.000227532
6 *4361:A *4362:A 0.000463018
*RES
1 i_transmit_data[0] *4362:A 28.3357 
*END

*D_NET *43 0.00571089
*CONN
*P i_transmit_data[1] I
*I *4363:A I *D sky130_fd_sc_hd__clkdlybuf4s25_1
*CAP
1 i_transmit_data[1] 0.00111263
2 *4363:A 0.000970986
3 *43:11 0.00208362
4 *4363:A *3627:A0 0
5 *4363:A *3627:A1 0
6 *4363:A *3857:D 0.000299274
7 *4363:A *4367:A 1.30998e-05
8 *4363:A *908:73 0.00021241
9 *4363:A *908:77 0.000411118
10 *4363:A *909:37 0.000343793
11 *43:11 *4364:A 0.000263954
12 *43:11 *4367:A 0
13 *4359:A *43:11 0
*RES
1 i_transmit_data[1] *43:11 31.4107 
2 *43:11 *4363:A 36.0857 
*END

*D_NET *44 0.00419772
*CONN
*P i_transmit_data[2] I
*I *4364:A I *D sky130_fd_sc_hd__clkdlybuf4s25_1
*CAP
1 i_transmit_data[2] 0.00122401
2 *4364:A 0.00122401
3 *4364:A *3627:A0 5.71472e-05
4 *4364:A *3627:A1 0.000119203
5 *4364:A *3627:S 3.18676e-05
6 *4364:A *3693:A1 0.000682346
7 *4364:A *4367:A 0
8 *4364:A *4368:A 0
9 *4364:A *844:14 0.000231947
10 *4364:A *850:26 0.000363239
11 *4359:A *4364:A 0
12 *43:11 *4364:A 0.000263954
*RES
1 i_transmit_data[2] *4364:A 43.7286 
*END

*D_NET *45 0.00451684
*CONN
*P i_transmit_data[3] I
*I *4365:A I *D sky130_fd_sc_hd__clkdlybuf4s25_1
*CAP
1 i_transmit_data[3] 0.00156187
2 *4365:A 0.00156187
3 *4365:A o_transmit_data_request 0.000424928
4 *4365:A *4367:A 4.25716e-05
5 *4356:A *4365:A 0
6 *4359:A *4365:A 0.000925595
*RES
1 i_transmit_data[3] *4365:A 48.9607 
*END

*D_NET *46 0.00459688
*CONN
*P i_transmit_data[4] I
*I *4367:A I *D sky130_fd_sc_hd__clkdlybuf4s25_1
*CAP
1 i_transmit_data[4] 0.00193058
2 *4367:A 0.00193058
3 *4367:A o_transmit_data_request 0.000502126
4 *4367:A *3485:D 0
5 *4367:A *3627:A1 2.3704e-05
6 *4367:A *3691:A1 0
7 *4367:A *4321:A 0.000154225
8 *4356:A *4367:A 0
9 *4363:A *4367:A 1.30998e-05
10 *4364:A *4367:A 0
11 *4365:A *4367:A 4.25716e-05
12 *43:11 *4367:A 0
*RES
1 i_transmit_data[4] *4367:A 36.9049 
*END

*D_NET *47 0.00785441
*CONN
*P i_transmit_data[5] I
*I *4368:A I *D sky130_fd_sc_hd__clkdlybuf4s25_1
*CAP
1 i_transmit_data[5] 0.00280262
2 *4368:A 0.00280262
3 *4368:A *3484:B1 5.44476e-05
4 *4368:A *3901:D 3.29297e-05
5 *4368:A *853:22 0.00011258
6 *4368:A *982:48 1.94879e-05
7 *4354:A *4368:A 0.00202972
8 *4359:A *4368:A 0
9 *4364:A *4368:A 0
*RES
1 i_transmit_data[5] *4368:A 41.9423 
*END

*D_NET *48 0.00320697
*CONN
*P i_transmit_data[6] I
*I *4369:A I *D sky130_fd_sc_hd__clkdlybuf4s25_1
*CAP
1 i_transmit_data[6] 0.00130299
2 *4369:A 0.00130299
3 *4369:A *3629:A0 9.90367e-05
4 *4369:A *3629:A1 5.52302e-05
5 *4369:A *3629:S 3.18676e-05
6 *4369:A *3703:A1 7.03103e-05
7 *4369:A *3858:RESET_B 1.32552e-05
8 *4369:A *4370:A 6.5647e-05
9 *4369:A *854:26 0.000265647
10 *4360:A *4369:A 0
*RES
1 i_transmit_data[6] *4369:A 38.5679 
*END

*D_NET *49 0.00201036
*CONN
*P i_transmit_data[7] I
*I *4370:A I *D sky130_fd_sc_hd__clkdlybuf4s25_1
*CAP
1 i_transmit_data[7] 0.000812198
2 *4370:A 0.000812198
3 *4370:A *3687:B1 9.27866e-05
4 *4360:A *4370:A 0
5 *4362:A *4370:A 0.000227532
6 *4369:A *4370:A 6.5647e-05
*RES
1 i_transmit_data[7] *4370:A 30.1036 
*END

*D_NET *50 0.00322238
*CONN
*P io_scl I
*I *3360:A I *D sky130_fd_sc_hd__inv_2
*I *4071:Z O *D sky130_fd_sc_hd__ebufn_2
*CAP
1 io_scl 0.001144
2 *3360:A 0.000188342
3 *4071:Z 0.000225945
4 *50:8 0.00155829
5 *50:8 *4044:D 5.33786e-05
6 *50:8 *4045:RESET_B 5.24274e-05
7 *50:8 *4071:A 0
*RES
1 *4071:Z *50:8 18.4786 
2 *50:8 *3360:A 16.8 
3 *50:8 io_scl 21.9732 
*END

*D_NET *51 0.00669895
*CONN
*P io_sda I
*I *3359:A I *D sky130_fd_sc_hd__inv_2
*I *4073:Z O *D sky130_fd_sc_hd__ebufn_2
*CAP
1 io_sda 0.00240608
2 *3359:A 0.000107987
3 *4073:Z 0.000206735
4 *51:12 0.0027208
5 io_sda o_receive_data[0] 0.000405711
6 io_sda o_receive_data[5] 0.00047375
7 *3359:A *4042:CLK 4.03318e-05
8 *3359:A *4053:RESET_B 1.01912e-05
9 *3359:A *622:17 6.87834e-06
10 *51:12 *4053:RESET_B 0.000134064
11 *51:12 *889:57 3.18676e-05
12 *11:10 *3359:A 1.04009e-05
13 *11:10 *51:12 0.000144146
*RES
1 *4073:Z *51:12 19.7018 
2 *51:12 io_sda 10.2689 
3 *51:12 *3359:A 15.8982 
*END

*D_NET *52 0.000903885
*CONN
*P o_cmd_status_reg[0] O
*I *4331:LO O *D sky130_fd_sc_hd__conb_1
*CAP
1 o_cmd_status_reg[0] 0.000244103
2 *4331:LO 0.000244103
3 *4353:A o_cmd_status_reg[0] 0.00041568
*RES
1 *4331:LO o_cmd_status_reg[0] 18.5976 
*END

*D_NET *53 0.00094092
*CONN
*P o_cmd_status_reg[1] O
*I *4332:LO O *D sky130_fd_sc_hd__conb_1
*CAP
1 o_cmd_status_reg[1] 0.00047046
2 *4332:LO 0.00047046
*RES
1 *4332:LO o_cmd_status_reg[1] 24.322 
*END

*D_NET *54 0.0030093
*CONN
*P o_cmd_status_reg[2] O
*I *4383:X O *D sky130_fd_sc_hd__clkdlybuf4s25_1
*CAP
1 o_cmd_status_reg[2] 1.43287e-05
2 *4383:X 0.00145912
3 *54:12 0.00147345
4 o_cmd_status_reg[2] o_int_n 3.23536e-05
5 *54:12 *60:14 0
6 *4346:A o_cmd_status_reg[2] 3.00476e-05
*RES
1 *4383:X *54:12 46.0321 
2 *54:12 o_cmd_status_reg[2] 5.19643 
*END

*D_NET *55 0.00541848
*CONN
*P o_cmd_status_reg[3] O
*I *4384:X O *D sky130_fd_sc_hd__clkdlybuf4s25_1
*CAP
1 o_cmd_status_reg[3] 8.43396e-05
2 *4384:X 0.00131411
3 *55:18 0.00139845
4 o_cmd_status_reg[3] o_cmd_status_reg[4] 0.000229794
5 *55:18 o_cmd_status_reg[6] 0
6 *55:18 *3659:A0 0.000305053
7 *55:18 *3880:RESET_B 0.000207918
8 *55:18 *4385:A 0
9 *55:18 *409:22 0
10 *55:18 *410:12 0.00100915
11 *55:18 *543:25 4.00276e-06
12 *55:18 *648:16 7.70015e-05
13 *55:18 *992:16 3.47561e-05
14 *4342:A o_cmd_status_reg[3] 0.000227488
15 *23:13 *55:18 0.00052642
*RES
1 *4384:X *55:18 48.4786 
2 *55:18 o_cmd_status_reg[3] 9.44643 
*END

*D_NET *56 0.00240274
*CONN
*P o_cmd_status_reg[4] O
*I *4385:X O *D sky130_fd_sc_hd__clkdlybuf4s25_1
*CAP
1 o_cmd_status_reg[4] 0.000814554
2 *4385:X 0.000814554
3 o_cmd_status_reg[4] o_cmd_status_reg[6] 0.000532305
4 o_cmd_status_reg[4] *4387:A 1.15281e-05
5 o_cmd_status_reg[4] *69:12 0
6 o_cmd_status_reg[3] o_cmd_status_reg[4] 0.000229794
7 *4342:A o_cmd_status_reg[4] 0
*RES
1 *4385:X o_cmd_status_reg[4] 29.3714 
*END

*D_NET *57 0.00378725
*CONN
*P o_cmd_status_reg[5] O
*I *4386:X O *D sky130_fd_sc_hd__clkdlybuf4s25_1
*CAP
1 o_cmd_status_reg[5] 0.000794934
2 *4386:X 0.000794934
3 o_cmd_status_reg[5] o_cmd_status_reg[6] 0.000262311
4 o_cmd_status_reg[5] o_cmd_status_reg[7] 0.000884732
5 o_cmd_status_reg[5] *910:10 0.000330871
6 *4341:A o_cmd_status_reg[5] 0.00071947
*RES
1 *4386:X o_cmd_status_reg[5] 46.2286 
*END

*D_NET *58 0.00271772
*CONN
*P o_cmd_status_reg[6] O
*I *4387:X O *D sky130_fd_sc_hd__clkdlybuf4s25_1
*CAP
1 o_cmd_status_reg[6] 0.000640496
2 *4387:X 0.000640496
3 o_cmd_status_reg[6] o_cmd_status_reg[7] 0.00024916
4 o_cmd_status_reg[6] *4387:A 0.000247273
5 o_cmd_status_reg[6] *992:16 2.8266e-06
6 o_cmd_status_reg[4] o_cmd_status_reg[6] 0.000532305
7 o_cmd_status_reg[5] o_cmd_status_reg[6] 0.000262311
8 *4342:A o_cmd_status_reg[6] 0.00014285
9 *55:18 o_cmd_status_reg[6] 0
*RES
1 *4387:X o_cmd_status_reg[6] 32.1393 
*END

*D_NET *59 0.00687329
*CONN
*P o_cmd_status_reg[7] O
*I *4388:X O *D sky130_fd_sc_hd__clkdlybuf4s25_1
*CAP
1 o_cmd_status_reg[7] 0.000977592
2 *4388:X 0.000236249
3 *59:10 0.00121384
4 o_cmd_status_reg[7] *60:14 9.27866e-05
5 *59:10 *4383:A 7.50697e-05
6 *59:10 *60:14 0.000564118
7 o_cmd_status_reg[5] o_cmd_status_reg[7] 0.000884732
8 o_cmd_status_reg[6] o_cmd_status_reg[7] 0.00024916
9 *4342:A o_cmd_status_reg[7] 0
10 *23:13 o_cmd_status_reg[7] 0.00257974
11 *23:13 *59:10 0
*RES
1 *4388:X *59:10 25.4071 
2 *59:10 o_cmd_status_reg[7] 37.2857 
*END

*D_NET *60 0.00423312
*CONN
*P o_int_n O
*I *4389:X O *D sky130_fd_sc_hd__clkdlybuf4s25_1
*CAP
1 o_int_n 0.000140063
2 *4389:X 0.00118245
3 *60:14 0.00132251
4 *60:14 *4196:A 5.10822e-05
5 *60:14 *4389:A 3.69047e-06
6 o_cmd_status_reg[2] o_int_n 3.23536e-05
7 o_cmd_status_reg[7] *60:14 9.27866e-05
8 *4341:A o_int_n 0.000143478
9 *4346:A o_int_n 0
10 *4346:A *60:14 0.000566412
11 *23:13 *60:14 0.000134184
12 *54:12 *60:14 0
13 *59:10 *60:14 0.000564118
*RES
1 *4389:X *60:14 45.7643 
2 *60:14 o_int_n 8.83929 
*END

*D_NET *61 0.00175367
*CONN
*P o_receive_data[0] O
*I *4390:X O *D sky130_fd_sc_hd__clkdlybuf4s25_1
*CAP
1 o_receive_data[0] 0.000512347
2 *4390:X 0.000512347
3 o_receive_data[0] o_receive_data[6] 0.000240306
4 o_receive_data[0] *3641:S 0
5 o_receive_data[0] *3643:A0 8.23597e-06
6 o_receive_data[0] *3647:A0 5.52302e-05
7 o_receive_data[0] *623:60 1.94945e-05
8 io_sda o_receive_data[0] 0.000405711
*RES
1 *4390:X o_receive_data[0] 20.2691 
*END

*D_NET *62 0.00517552
*CONN
*P o_receive_data[1] O
*I *4391:X O *D sky130_fd_sc_hd__clkdlybuf4s25_1
*CAP
1 o_receive_data[1] 0.000890251
2 *4391:X 0.000890251
3 o_receive_data[1] o_receive_data[2] 0.000983984
4 o_receive_data[1] o_receive_data[3] 0.000192875
5 o_receive_data[1] o_receive_data[4] 0.00112608
6 o_receive_data[1] o_receive_data[5] 0
7 o_receive_data[1] *4394:A 5.64126e-05
8 o_receive_data[1] *868:18 0
9 o_receive_data[1] *940:12 9.80193e-05
10 *4334:A o_receive_data[1] 0.00051486
11 *4335:A o_receive_data[1] 0.000422784
*RES
1 *4391:X o_receive_data[1] 43.0459 
*END

*D_NET *63 0.00341506
*CONN
*P o_receive_data[2] O
*I *4392:X O *D sky130_fd_sc_hd__clkdlybuf4s25_1
*CAP
1 o_receive_data[2] 0.00057151
2 *4392:X 0.00057151
3 o_receive_data[2] o_receive_data[3] 0.000385854
4 o_receive_data[2] *4394:A 7.26587e-05
5 o_receive_data[2] *867:16 0.000762055
6 o_receive_data[2] *940:12 6.74867e-05
7 o_receive_data[1] o_receive_data[2] 0.000983984
*RES
1 *4392:X o_receive_data[2] 30.9394 
*END

*D_NET *64 0.00502411
*CONN
*P o_receive_data[3] O
*I *4393:X O *D sky130_fd_sc_hd__clkdlybuf4s25_1
*CAP
1 o_receive_data[3] 0.00124675
2 *4393:X 0.00124675
3 o_receive_data[3] o_receive_data[4] 0.00091246
4 o_receive_data[3] *3670:A1 0.000268396
5 o_receive_data[3] *3988:D 0.000167452
6 o_receive_data[3] *4205:A 5.33005e-05
7 o_receive_data[3] *4393:A 0.000550265
8 o_receive_data[1] o_receive_data[3] 0.000192875
9 o_receive_data[2] o_receive_data[3] 0.000385854
*RES
1 *4393:X o_receive_data[3] 43.8297 
*END

*D_NET *65 0.00422869
*CONN
*P o_receive_data[4] O
*I *4394:X O *D sky130_fd_sc_hd__clkdlybuf4s25_1
*CAP
1 o_receive_data[4] 0.00094498
2 *4394:X 0.00094498
3 o_receive_data[4] o_receive_data[5] 0
4 o_receive_data[1] o_receive_data[4] 0.00112608
5 o_receive_data[3] o_receive_data[4] 0.00091246
6 *4334:A o_receive_data[4] 0.000300187
*RES
1 *4394:X o_receive_data[4] 40.4375 
*END

*D_NET *66 0.00425164
*CONN
*P o_receive_data[5] O
*I *4395:X O *D sky130_fd_sc_hd__clkdlybuf4s25_1
*CAP
1 o_receive_data[5] 0.00103564
2 *4395:X 0.00103564
3 o_receive_data[5] *3669:A 0.000524108
4 o_receive_data[5] *3670:A0 0.000136605
5 o_receive_data[5] *3673:A 0.000182763
6 o_receive_data[5] *3674:A1 0.000677119
7 o_receive_data[5] *3886:D 4.19548e-05
8 o_receive_data[5] *3889:CLK 0.000118391
9 o_receive_data[5] *624:59 2.56694e-05
10 io_sda o_receive_data[5] 0.00047375
11 o_receive_data[1] o_receive_data[5] 0
12 o_receive_data[4] o_receive_data[5] 0
*RES
1 *4395:X o_receive_data[5] 31.0223 
*END

*D_NET *67 0.00327192
*CONN
*P o_receive_data[6] O
*I *4396:X O *D sky130_fd_sc_hd__clkdlybuf4s25_1
*CAP
1 o_receive_data[6] 0.000696724
2 *4396:X 0.000696724
3 o_receive_data[6] o_receive_data[7] 0
4 o_receive_data[6] *3647:A1 0
5 o_receive_data[6] *3873:D 5.56943e-05
6 o_receive_data[6] *3875:D 0.000381923
7 o_receive_data[6] *623:33 4.47395e-05
8 o_receive_data[0] o_receive_data[6] 0.000240306
9 *4344:A o_receive_data[6] 7.3237e-05
10 *4366:A o_receive_data[6] 0.000437954
11 *4372:A o_receive_data[6] 0.000641173
12 *4374:A o_receive_data[6] 3.43988e-06
*RES
1 *4396:X o_receive_data[6] 31.6894 
*END

*D_NET *68 0.00265497
*CONN
*P o_receive_data[7] O
*I *4397:X O *D sky130_fd_sc_hd__clkdlybuf4s25_1
*CAP
1 o_receive_data[7] 0.000813349
2 *4397:X 0.000813349
3 o_receive_data[7] *3647:A1 0.000643751
4 o_receive_data[7] *3873:D 3.5707e-05
5 o_receive_data[6] o_receive_data[7] 0
6 *4344:A o_receive_data[7] 0.000273045
7 *4372:A o_receive_data[7] 7.577e-05
*RES
1 *4397:X o_receive_data[7] 27.0497 
*END

*D_NET *69 0.00328876
*CONN
*P o_received_data_valid O
*I *4398:X O *D sky130_fd_sc_hd__clkdlybuf4s25_1
*CAP
1 o_received_data_valid 4.38468e-05
2 *4398:X 0.00142564
3 *69:12 0.00146949
4 *69:12 o_start_ack 0.000349776
5 o_cmd_status_reg[4] *69:12 0
6 *4340:A o_received_data_valid 0
7 *4349:A o_received_data_valid 0
*RES
1 *4398:X *69:12 47.05 
2 *69:12 o_received_data_valid 5.55357 
*END

*D_NET *70 0.00263173
*CONN
*P o_start_ack O
*I *4399:X O *D sky130_fd_sc_hd__clkdlybuf4s25_1
*CAP
1 o_start_ack 0.00114098
2 *4399:X 0.00114098
3 o_start_ack *4398:A 0
4 o_start_ack *654:22 0
5 *69:12 o_start_ack 0.000349776
*RES
1 *4399:X o_start_ack 45.8536 
*END

*D_NET *71 0.00561452
*CONN
*P o_transmit_data_request O
*I *4400:X O *D sky130_fd_sc_hd__clkdlybuf4s25_1
*CAP
1 o_transmit_data_request 0.0019188
2 *4400:X 0.0019188
3 o_transmit_data_request *3485:D 0
4 o_transmit_data_request *3858:RESET_B 6.39829e-05
5 o_transmit_data_request *854:26 0
6 o_transmit_data_request *908:32 0.000247311
7 *4356:A o_transmit_data_request 2.06178e-05
8 *4357:A o_transmit_data_request 0.000517944
9 *4365:A o_transmit_data_request 0.000424928
10 *4367:A o_transmit_data_request 0.000502126
*RES
1 *4400:X o_transmit_data_request 36.4266 
*END

*D_NET *72 0.00145204
*CONN
*I *3471:B1 I *D sky130_fd_sc_hd__a21o_2
*I *3984:D I *D sky130_fd_sc_hd__dfrtp_2
*I *3402:X O *D sky130_fd_sc_hd__and2_2
*CAP
1 *3471:B1 0
2 *3984:D 9.85465e-05
3 *3402:X 0.000351363
4 *72:10 0.00044991
5 *3984:D *3343:A 8.15939e-05
6 *3984:D *3979:CLK 2.8266e-06
7 *3984:D *621:10 6.04162e-05
8 *3984:D *907:40 0
9 *72:10 *3471:A1 0.000106299
10 *72:10 *907:40 0
11 *72:10 *939:16 0.000272658
12 *11:14 *72:10 2.84306e-05
*RES
1 *3402:X *72:10 21.2464 
2 *72:10 *3984:D 16.3536 
3 *72:10 *3471:B1 13.8 
*END

*D_NET *73 0.00320715
*CONN
*I *3469:B1 I *D sky130_fd_sc_hd__a21o_2
*I *3983:D I *D sky130_fd_sc_hd__dfrtp_2
*I *3401:X O *D sky130_fd_sc_hd__and2_2
*CAP
1 *3469:B1 0.000353305
2 *3983:D 0.000147353
3 *3401:X 0.000118935
4 *73:6 0.000619593
5 *3469:B1 *3468:A2 5.33005e-05
6 *3469:B1 *3958:RESET_B 0.000254337
7 *3469:B1 *4093:A 2.87473e-05
8 *3469:B1 *109:14 0.000152929
9 *3469:B1 *604:89 0.00012401
10 *3469:B1 *646:41 0.000753559
11 *3469:B1 *749:12 0.000131385
12 *3983:D *3954:RESET_B 0.000216304
13 *3983:D *4249:A 2.27416e-05
14 *3983:D *905:20 2.89016e-05
15 *3983:D *936:33 0
16 *73:6 *707:10 5.52238e-05
17 *73:6 *749:12 0.000146523
*RES
1 *3401:X *73:6 11.8893 
2 *73:6 *3983:D 21.6929 
3 *73:6 *3469:B1 30.425 
*END

*D_NET *74 0.00190543
*CONN
*I *3932:D I *D sky130_fd_sc_hd__dfrtp_2
*I *3400:X O *D sky130_fd_sc_hd__and2_2
*CAP
1 *3932:D 0.000792875
2 *3400:X 0.000792875
3 *3932:D *3399:A 1.39841e-05
4 *3932:D *3431:A 0
5 *3932:D *3432:A2 0.000274294
6 *3932:D *3937:CLK 0
7 *3932:D *4216:A 0
8 *3932:D *611:102 0
9 *3932:D *708:10 0
10 *3932:D *1067:70 3.14048e-05
*RES
1 *3400:X *3932:D 40.0464 
*END

*D_NET *75 0.00101295
*CONN
*I *3957:D I *D sky130_fd_sc_hd__dfstp_2
*I *3471:X O *D sky130_fd_sc_hd__a21o_2
*CAP
1 *3957:D 0.0003095
2 *3471:X 0.0003095
3 *3957:D *3343:A 1.55885e-05
4 *3957:D *3471:A2 0.000142856
5 *3957:D *3905:RESET_B 7.79781e-06
6 *3957:D *353:10 0.000153047
7 *3957:D *621:10 2.89114e-05
8 *3957:D *636:74 4.57538e-05
*RES
1 *3471:X *3957:D 33.9036 
*END

*D_NET *76 0.000761151
*CONN
*I *4241:A I *D sky130_fd_sc_hd__dlygate4sd3_1
*I *3470:X O *D sky130_fd_sc_hd__a22o_2
*CAP
1 *4241:A 0.000270339
2 *3470:X 0.000270339
3 *4241:A *3469:A1 0.00012401
4 *4241:A *3470:A1 3.06476e-05
5 *4241:A *362:25 1.58213e-06
6 *4241:A *880:12 6.42338e-05
*RES
1 *3470:X *4241:A 31.8321 
*END

*D_NET *77 0.000560877
*CONN
*I *3955:D I *D sky130_fd_sc_hd__dfstp_2
*I *3469:X O *D sky130_fd_sc_hd__a21o_2
*CAP
1 *3955:D 0.000152278
2 *3469:X 0.000152278
3 *3955:D *3958:RESET_B 0.000128161
4 *3955:D *4093:A 0.000128161
*RES
1 *3469:X *3955:D 31.0107 
*END

*D_NET *78 0.00258241
*CONN
*I *4302:A I *D sky130_fd_sc_hd__dlygate4sd3_1
*I *3468:X O *D sky130_fd_sc_hd__a22o_2
*CAP
1 *4302:A 0.000647801
2 *3468:X 0.000647801
3 *4302:A *3451:A1 5.4333e-05
4 *4302:A *3462:B2 3.34295e-05
5 *4302:A *3468:B2 0.000171202
6 *4302:A *3525:S 0
7 *4302:A *3956:CLK 0
8 *4302:A *3956:D 4.57445e-05
9 *4302:A *4116:A 0.000398043
10 *4302:A *4301:A 9.60875e-05
11 *4302:A *362:25 0.000138881
12 *4302:A *617:124 0
13 *4302:A *958:18 8.55534e-05
14 *4302:A *978:18 0.00026353
15 *4302:A *993:14 0
*RES
1 *3468:X *4302:A 43.7429 
*END

*D_NET *79 0.000809602
*CONN
*I *3945:D I *D sky130_fd_sc_hd__dfstp_2
*I *3467:X O *D sky130_fd_sc_hd__a22o_2
*CAP
1 *3945:D 0.000272927
2 *3467:X 0.000272927
3 *3945:D *3456:A1 0
4 *3945:D *3467:A1 8.95688e-05
5 *3945:D *3680:B1 9.91086e-05
6 *3945:D *3680:B2 7.50697e-05
7 *3945:D *3681:B 0
8 *3945:D *3951:RESET_B 0
9 *3945:D *1000:10 0
*RES
1 *3467:X *3945:D 32.542 
*END

*D_NET *80 0.00152914
*CONN
*I *3946:D I *D sky130_fd_sc_hd__dfrtp_2
*I *3466:Y O *D sky130_fd_sc_hd__nor2_2
*CAP
1 *3946:D 0.000335416
2 *3466:Y 0.000335416
3 *3946:D *3462:B1 0.000274294
4 *3946:D *3946:CLK 8.07313e-05
5 *3946:D *638:37 0.000503278
*RES
1 *3466:Y *3946:D 36.6893 
*END

*D_NET *81 0.000379416
*CONN
*I *3947:D I *D sky130_fd_sc_hd__dfrtp_2
*I *3462:X O *D sky130_fd_sc_hd__a22o_2
*CAP
1 *3947:D 0.000148264
2 *3462:X 0.000148264
3 *3947:D *3458:B 0
4 *3947:D *3462:A1 3.38136e-05
5 *3947:D *3462:A2 1.41706e-05
6 *3947:D *426:16 1.72894e-05
7 *3947:D *638:37 0
8 *3947:D *1002:16 1.76135e-05
*RES
1 *3462:X *3947:D 30.6893 
*END

*D_NET *82 0.000430777
*CONN
*I *3948:D I *D sky130_fd_sc_hd__dfrtp_2
*I *3461:X O *D sky130_fd_sc_hd__a221o_2
*CAP
1 *3948:D 0.000102573
2 *3461:X 0.000102573
3 *3948:D *3461:A1 6.05161e-06
4 *3948:D *3743:A 9.74783e-05
5 *3948:D *1003:12 0.000122101
*RES
1 *3461:X *3948:D 21.6179 
*END

*D_NET *83 0.000629135
*CONN
*I *3949:D I *D sky130_fd_sc_hd__dfrtp_2
*I *3459:X O *D sky130_fd_sc_hd__a21o_2
*CAP
1 *3949:D 0.000144559
2 *3459:X 0.000144559
3 *3949:D *3524:A3 8.37104e-05
4 *3949:D *4090:A 0.000128154
5 *3949:D *109:14 0.000128154
*RES
1 *3459:X *3949:D 31.4214 
*END

*D_NET *84 0.000890963
*CONN
*I *3950:D I *D sky130_fd_sc_hd__dfrtp_2
*I *3456:X O *D sky130_fd_sc_hd__a22o_2
*CAP
1 *3950:D 0.000290271
2 *3456:X 0.000290271
3 *3950:D *3456:A1 6.91157e-05
4 *3950:D *3945:CLK 0.000122101
5 *3950:D *616:58 7.29851e-05
6 *3950:D *838:12 3.69697e-05
7 *3950:D *1000:10 9.25014e-06
*RES
1 *3456:X *3950:D 31.9661 
*END

*D_NET *85 0.00153422
*CONN
*I *3951:D I *D sky130_fd_sc_hd__dfrtp_2
*I *3455:X O *D sky130_fd_sc_hd__a21o_2
*CAP
1 *3951:D 0.000606369
2 *3455:X 0.000606369
3 *3951:D *3823:B1 6.05161e-06
4 *3951:D *3951:RESET_B 0.000118373
5 *3951:D *111:10 9.24395e-05
6 *3951:D *651:25 0
7 *3951:D *1006:14 0.00010462
*RES
1 *3455:X *3951:D 39.0107 
*END

*D_NET *86 0.00192171
*CONN
*I *3952:D I *D sky130_fd_sc_hd__dfrtp_2
*I *3453:X O *D sky130_fd_sc_hd__a22o_2
*CAP
1 *3952:D 0.000797271
2 *3453:X 0.000797271
3 *3952:D *3448:A 0
4 *3952:D *4306:A 0.00014285
5 *3952:D *618:134 7.5779e-05
6 *3952:D *1007:10 0.000108535
*RES
1 *3453:X *3952:D 37.4393 
*END

*D_NET *87 0.000615388
*CONN
*I *4256:A I *D sky130_fd_sc_hd__dlygate4sd3_1
*I *3451:X O *D sky130_fd_sc_hd__a22o_2
*CAP
1 *4256:A 8.32956e-05
2 *3451:X 8.32956e-05
3 *4256:A *3451:A1 2.72899e-05
4 *4256:A *3451:A2 4.24902e-05
5 *4256:A *3451:B1 3.30237e-05
6 *4256:A *3451:B2 2.89114e-05
7 *4256:A *978:18 0.000317082
*RES
1 *3451:X *4256:A 22.0286 
*END

*D_NET *88 0.00103341
*CONN
*I *3954:D I *D sky130_fd_sc_hd__dfrtp_2
*I *3450:X O *D sky130_fd_sc_hd__a21o_2
*CAP
1 *3954:D 0.000255205
2 *3450:X 0.000255205
3 *3954:D *3979:CLK 6.05161e-06
4 *3954:D *3979:D 0.000186669
5 *3954:D *3979:RESET_B 0
6 *3954:D *114:10 0
7 *3954:D *617:32 0.000200413
8 *3954:D *755:12 0.000129868
*RES
1 *3450:X *3954:D 33.7429 
*END

*D_NET *89 0.00240562
*CONN
*I *3942:D I *D sky130_fd_sc_hd__dfstp_2
*I *3442:X O *D sky130_fd_sc_hd__o21a_2
*CAP
1 *3942:D 0.000556408
2 *3442:X 0.000556408
3 *3942:D *3440:A2 5.7903e-06
4 *3942:D *3442:A2 0.000120307
5 *3942:D *3792:A2 0
6 *3942:D *3944:RESET_B 0.000177948
7 *3942:D *645:59 0.000367403
8 *3942:D *645:70 0.000421375
9 *3942:D *753:12 0.000144747
10 *3942:D *889:34 5.52302e-05
11 *3942:D *892:23 0
12 *3942:D *993:46 0
*RES
1 *3442:X *3942:D 41.9214 
*END

*D_NET *90 0.000580547
*CONN
*I *3943:D I *D sky130_fd_sc_hd__dfrtp_2
*I *3441:Y O *D sky130_fd_sc_hd__nor2_2
*CAP
1 *3943:D 0.000213887
2 *3441:Y 0.000213887
3 *3943:D *627:42 6.26276e-05
4 *3943:D *627:44 9.0145e-05
*RES
1 *3441:Y *3943:D 22.0286 
*END

*D_NET *91 0.00216817
*CONN
*I *3441:A I *D sky130_fd_sc_hd__nor2_2
*I *3944:D I *D sky130_fd_sc_hd__dfrtp_2
*I *3439:X O *D sky130_fd_sc_hd__and2_2
*CAP
1 *3441:A 0
2 *3944:D 0.000337923
3 *3439:X 0.000161306
4 *91:10 0.000499229
5 *3944:D *3440:A2 0.000173097
6 *3944:D *3944:CLK 4.87953e-05
7 *3944:D *627:55 9.97744e-05
8 *3944:D *627:59 3.17067e-05
9 *3944:D *763:10 0.000407481
10 *91:10 *3440:A2 0.000125277
11 *91:10 *4038:D 0.000137983
12 *91:10 *360:33 0
13 *91:10 *763:10 0.000145598
*RES
1 *3439:X *91:10 17.1036 
2 *91:10 *3944:D 21.2643 
3 *91:10 *3441:A 13.8 
*END

*D_NET *92 0.00126241
*CONN
*I *3938:D I *D sky130_fd_sc_hd__dfstp_2
*I *3438:X O *D sky130_fd_sc_hd__a22o_2
*CAP
1 *3938:D 0.000276231
2 *3438:X 0.000276231
3 *3938:D *3438:B1 3.34295e-05
4 *3938:D *3527:A1 0.000141975
5 *3938:D *3528:B1 5.23142e-05
6 *3938:D *3786:A1 0.000414748
7 *3938:D *763:10 0
8 *3938:D *1063:29 6.74815e-05
*RES
1 *3438:X *3938:D 35.475 
*END

*D_NET *93 0.000407299
*CONN
*I *4214:A I *D sky130_fd_sc_hd__dlygate4sd3_1
*I *3437:X O *D sky130_fd_sc_hd__a22o_2
*CAP
1 *4214:A 0.00020365
2 *3437:X 0.00020365
*RES
1 *3437:X *4214:A 21.6179 
*END

*D_NET *94 0.00142914
*CONN
*I *3940:D I *D sky130_fd_sc_hd__dfrtp_2
*I *3526:B1 I *D sky130_fd_sc_hd__o21ai_2
*I *3436:X O *D sky130_fd_sc_hd__a22o_2
*CAP
1 *3940:D 0.000292937
2 *3526:B1 0.000104217
3 *3436:X 7.20973e-05
4 *94:10 0.000469251
5 *3526:B1 *3527:B1 0.00018372
6 *3526:B1 *4213:A 5.23142e-05
7 *3940:D *4213:A 6.62783e-05
8 *3940:D *628:27 5.33433e-05
9 *94:10 *1030:16 0.000103267
10 *94:10 *1030:18 3.17148e-05
*RES
1 *3436:X *94:10 19.9429 
2 *94:10 *3526:B1 11.9071 
3 *94:10 *3940:D 14.7643 
*END

*D_NET *95 0.000787052
*CONN
*I *3941:D I *D sky130_fd_sc_hd__dfrtp_2
*I *3435:X O *D sky130_fd_sc_hd__a2bb2o_2
*CAP
1 *3941:D 0.000342428
2 *3435:X 0.000342428
3 *3941:D *3941:RESET_B 0
4 *3941:D *606:35 0
5 *3941:D *644:14 0.000102197
6 *3941:D *644:55 0
*RES
1 *3435:X *3941:D 31.9393 
*END

*D_NET *96 0.000563324
*CONN
*I *4265:A I *D sky130_fd_sc_hd__dlygate4sd3_1
*I *3433:X O *D sky130_fd_sc_hd__a22o_2
*CAP
1 *4265:A 0.000134604
2 *3433:X 0.000134604
3 *4265:A *3433:A2 0.000125731
4 *4265:A *3520:B 5.52238e-05
5 *4265:A *603:55 0.00011316
6 *4265:A *996:12 0
*RES
1 *3433:X *4265:A 30.9929 
*END

*D_NET *97 0.000609733
*CONN
*I *3933:D I *D sky130_fd_sc_hd__dfrtp_2
*I *3432:X O *D sky130_fd_sc_hd__a21o_2
*CAP
1 *3933:D 0.000245338
2 *3432:X 0.000245338
3 *3933:D *3520:A 6.05161e-06
4 *3933:D *3933:CLK 0.000113005
*RES
1 *3432:X *3933:D 22.4214 
*END

*D_NET *98 0.000634493
*CONN
*I *3934:D I *D sky130_fd_sc_hd__dfrtp_2
*I *3430:X O *D sky130_fd_sc_hd__a22o_2
*CAP
1 *3934:D 0.000178725
2 *3430:X 0.000178725
3 *3934:D *3824:B1 5.52238e-05
4 *3934:D *4120:A 9.60939e-05
5 *3934:D *686:10 0.000125724
6 *3934:D *1093:46 0
*RES
1 *3430:X *3934:D 30.6 
*END

*D_NET *99 0.000792858
*CONN
*I *4233:A I *D sky130_fd_sc_hd__dlygate4sd3_1
*I *3429:X O *D sky130_fd_sc_hd__a22o_2
*CAP
1 *4233:A 0.000217415
2 *3429:X 0.000217415
3 *4233:A *3431:B 4.59075e-05
4 *4233:A *3779:A1 0.000128154
5 *4233:A *3779:A2 0.000128154
6 *4233:A *3783:A2 5.33005e-05
7 *4233:A *911:30 2.51343e-06
*RES
1 *3429:X *4233:A 31.4214 
*END

*D_NET *100 0.00182
*CONN
*I *4236:A I *D sky130_fd_sc_hd__dlygate4sd3_1
*I *3428:X O *D sky130_fd_sc_hd__a21o_2
*CAP
1 *4236:A 0.00029765
2 *3428:X 0.00029765
3 *4236:A *3428:A1 9.25014e-06
4 *4236:A *3428:B1 5.33005e-05
5 *4236:A *3782:B1 0.0001399
6 *4236:A *3846:B1 3.97677e-05
7 *4236:A *4016:D 3.93986e-05
8 *4236:A *4151:A 0.000101545
9 *4236:A *880:61 0.000269428
10 *4236:A *880:91 0.000299785
11 *4236:A *894:51 1.02504e-05
12 *4236:A *894:60 5.58941e-05
13 *4236:A *894:72 0.000122101
14 *4236:A *911:62 8.40835e-05
*RES
1 *3428:X *4236:A 36.3679 
*END

*D_NET *101 0.00253167
*CONN
*I *4216:A I *D sky130_fd_sc_hd__dlygate4sd3_1
*I *3427:X O *D sky130_fd_sc_hd__a22o_2
*CAP
1 *4216:A 0.000750709
2 *3427:X 0.000750709
3 *4216:A *3335:A 0.00015134
4 *4216:A *3427:B2 0
5 *4216:A *3781:B1 0
6 *4216:A *3937:CLK 8.9163e-05
7 *4216:A *4212:A 0.000316184
8 *4216:A *4215:A 0.000320024
9 *4216:A *423:38 9.31893e-05
10 *4216:A *611:102 4.46186e-06
11 *4216:A *883:103 0
12 *4216:A *1070:10 5.58941e-05
13 *3932:D *4216:A 0
*RES
1 *3427:X *4216:A 43.9214 
*END

*D_NET *102 0.00180977
*CONN
*I *4199:A I *D sky130_fd_sc_hd__dlygate4sd3_1
*I *3426:Y O *D sky130_fd_sc_hd__a211oi_2
*CAP
1 *4199:A 0.000627286
2 *3426:Y 0.000627286
3 *4199:A *3928:CLK 0
4 *4199:A *4022:CLK 0.000175502
5 *4199:A *4022:D 0.000170523
6 *4199:A *611:132 0.000113083
7 *4199:A *692:6 9.60875e-05
*RES
1 *3426:Y *4199:A 37.5464 
*END

*D_NET *103 0.000654163
*CONN
*I *3929:D I *D sky130_fd_sc_hd__dfrtp_2
*I *3424:X O *D sky130_fd_sc_hd__a32o_2
*CAP
1 *3929:D 0.0002818
2 *3424:X 0.0002818
3 *3929:D *3929:RESET_B 5.54183e-05
4 *3929:D *4195:A 0
5 *3929:D *889:16 0
6 *3929:D *911:24 3.51442e-05
*RES
1 *3424:X *3929:D 32.4393 
*END

*D_NET *104 0.00123285
*CONN
*I *3930:D I *D sky130_fd_sc_hd__dfrtp_2
*I *3422:X O *D sky130_fd_sc_hd__o2bb2a_2
*CAP
1 *3930:D 0.000318632
2 *3422:X 0.000318632
3 *3930:D *3777:B1 0.000310286
4 *3930:D *3778:B1 8.36572e-05
5 *3930:D *911:10 0.000100823
6 *3930:D *1096:8 0.000100823
*RES
1 *3422:X *3930:D 32.7607 
*END

*D_NET *105 0.00487888
*CONN
*I *4039:D I *D sky130_fd_sc_hd__dfrtp_2
*I *3422:B1 I *D sky130_fd_sc_hd__o2bb2a_2
*I *3426:B1 I *D sky130_fd_sc_hd__a211oi_2
*I *3397:X O *D sky130_fd_sc_hd__and2_2
*CAP
1 *4039:D 0.000259706
2 *3422:B1 4.10173e-05
3 *3426:B1 7.79235e-05
4 *3397:X 0.000621357
5 *105:21 0.000596201
6 *105:8 0.000994758
7 *3422:B1 *3422:B2 3.18676e-05
8 *3422:B1 *3778:B1 0.000142856
9 *3426:B1 *3422:A1_N 0.000150618
10 *3426:B1 *3928:SET_B 0.000148911
11 *3426:B1 *4198:A 9.60875e-05
12 *3426:B1 *692:6 4.87953e-05
13 *4039:D *3930:CLK 0
14 *4039:D *4021:CLK 2.89114e-05
15 *4039:D *4037:RESET_B 6.32633e-05
16 *4039:D *607:78 0
17 *4039:D *885:62 5.52302e-05
18 *105:8 *3397:B 7.77652e-05
19 *105:8 *4194:A 1.58163e-05
20 *105:21 *3422:A1_N 0.000809987
21 *105:21 *3422:A2_N 0.000148189
22 *105:21 *3928:SET_B 0.000297566
23 *105:21 *1114:36 0.000172051
*RES
1 *3397:X *105:8 20.4964 
2 *105:8 *3426:B1 16.6929 
3 *105:8 *105:21 10.4464 
4 *105:21 *3422:B1 15.1571 
5 *105:21 *4039:D 19.0143 
*END

*D_NET *106 0.00478271
*CONN
*I *3965:D I *D sky130_fd_sc_hd__dfrtp_2
*I *3485:X O *D sky130_fd_sc_hd__or4_2
*CAP
1 *3965:D 0
2 *3485:X 0.00157695
3 *106:18 0.00157695
4 *106:18 *3483:B2 0.00018615
5 *106:18 *3485:C 0.000372362
6 *106:18 *3689:A1 2.11336e-05
7 *106:18 *3689:B1 1.4796e-05
8 *106:18 *3690:A2 5.13432e-05
9 *106:18 *3862:RESET_B 7.53623e-05
10 *106:18 *3866:CLK 3.4689e-05
11 *106:18 *3965:CLK 8.66063e-05
12 *106:18 *3977:RESET_B 0.000127439
13 *106:18 *618:105 0.000277473
14 *106:18 *634:24 3.20387e-05
15 *106:18 *872:16 0.000126639
16 *106:18 *908:10 3.01126e-05
17 *106:18 *924:8 0.000117392
18 *106:18 *924:27 7.52731e-05
*RES
1 *3485:X *106:18 44.8357 
2 *106:18 *3965:D 9.3 
*END

*D_NET *107 0.00290536
*CONN
*I *3973:D I *D sky130_fd_sc_hd__dfrtp_2
*I *3519:X O *D sky130_fd_sc_hd__and2_2
*CAP
1 *3973:D 0.00112389
2 *3519:X 0.00112389
3 *3973:D *3655:A_N 5.33882e-05
4 *3973:D *3894:D 0.000184745
5 *3973:D *3894:RESET_B 0.000267621
6 *3973:D *4013:CLK 7.32272e-05
7 *3973:D *4189:A 5.01338e-05
8 *3973:D *605:56 0
9 *3973:D *682:8 2.84677e-05
*RES
1 *3519:X *3973:D 42.2071 
*END

*D_NET *108 0.000873592
*CONN
*I *3976:D I *D sky130_fd_sc_hd__dfrtp_2
*I *3518:X O *D sky130_fd_sc_hd__a21o_2
*CAP
1 *3976:D 0.000277651
2 *3518:X 0.000277651
3 *3976:D *3518:A1 2.72967e-05
4 *3976:D *3518:B1 0.000290993
5 *3976:D *3893:D 0
*RES
1 *3518:X *3976:D 32.725 
*END

*D_NET *109 0.00965436
*CONN
*I *3449:A1 I *D sky130_fd_sc_hd__o21a_2
*I *3465:B1 I *D sky130_fd_sc_hd__a21oi_2
*I *3977:D I *D sky130_fd_sc_hd__dfrtp_2
*I *3444:X O *D sky130_fd_sc_hd__and2_2
*CAP
1 *3449:A1 2.54224e-05
2 *3465:B1 0
3 *3977:D 0.000607427
4 *3444:X 0.00155314
5 *109:28 0.00103647
6 *109:14 0.0020076
7 *3449:A1 *3449:B1 5.52238e-05
8 *3449:A1 *1004:18 6.05161e-06
9 *3977:D *3448:A 0.000188623
10 *3977:D *3465:A2 0.000146261
11 *3977:D *3638:A0 0.000199932
12 *3977:D *3866:D 0
13 *3977:D *924:19 3.8206e-05
14 *3977:D *924:51 0.000160604
15 *3977:D *981:27 0.00012249
16 *109:14 *3444:B 0.00057215
17 *109:14 *3449:B1 3.17148e-05
18 *109:14 *3524:A3 0
19 *109:14 *3954:RESET_B 0.000175694
20 *109:14 *4090:A 9.30065e-05
21 *109:14 *4093:A 0.000298281
22 *109:14 *4115:A 0
23 *109:14 *4211:A 6.65398e-05
24 *109:14 *4254:A 3.48705e-05
25 *109:14 *114:10 0
26 *109:14 *603:27 0
27 *109:14 *604:89 0.000772559
28 *109:14 *617:18 1.58163e-05
29 *109:14 *617:24 0.000143004
30 *109:14 *617:26 9.46929e-05
31 *109:14 *617:32 2.14658e-05
32 *109:28 *3448:A 4.55294e-05
33 *109:28 *3449:A2 0.000122758
34 *109:28 *3449:B1 3.63298e-05
35 *109:28 *3457:A1 0
36 *109:28 *3465:A2 1.00887e-05
37 *109:28 *3904:RESET_B 0.000204189
38 *109:28 *428:30 4.71848e-05
39 *109:28 *429:12 5.52238e-05
40 *109:28 *618:134 0
41 *109:28 *1004:18 0.000114045
42 *109:28 *1004:26 0.000168089
43 *109:28 *1007:10 9.41642e-05
44 *109:28 *1007:14 8.43535e-06
45 *3469:B1 *109:14 0.000152929
46 *3949:D *109:14 0.000128154
*RES
1 *3444:X *109:14 44.5321 
2 *109:14 *109:28 18.5893 
3 *109:28 *3977:D 27.8357 
4 *109:28 *3465:B1 13.8 
5 *109:14 *3449:A1 14.3357 
*END

*D_NET *110 0.00266534
*CONN
*I *3980:D I *D sky130_fd_sc_hd__dfrtp_2
*I *3523:X O *D sky130_fd_sc_hd__mux2_1
*CAP
1 *3980:D 0.000533096
2 *3523:X 0.000533096
3 *3980:D *3340:A 0.000123912
4 *3980:D *3461:B2 4.15914e-05
5 *3980:D *3950:RESET_B 0.000199691
6 *3980:D *3980:RESET_B 0.000362324
7 *3980:D *4017:RESET_B 7.79781e-06
8 *3980:D *4209:A 0.000122446
9 *3980:D *651:25 0.000336382
10 *3980:D *651:69 0.000206919
11 *3980:D *883:36 6.05161e-06
12 *3980:D *991:10 0.000192035
*RES
1 *3523:X *3980:D 43.1536 
*END

*D_NET *111 0.00749398
*CONN
*I *3975:D I *D sky130_fd_sc_hd__dfrtp_2
*I *3455:B1 I *D sky130_fd_sc_hd__a21o_2
*I *3454:X O *D sky130_fd_sc_hd__o21a_2
*CAP
1 *3975:D 0.000968305
2 *3455:B1 0
3 *3454:X 0.00141108
4 *111:10 0.00237939
5 *3975:D *3427:A1 0.000341788
6 *3975:D *3427:B1 0
7 *3975:D *3427:B2 0
8 *3975:D *3431:A 0.000143052
9 *3975:D *3432:B1 0.000125724
10 *3975:D *3779:A1 6.05161e-06
11 *3975:D *3783:B1 0
12 *3975:D *3825:A1 0
13 *3975:D *3975:CLK 0.000188094
14 *3975:D *4020:CLK 0.000106542
15 *3975:D *423:38 1.41029e-05
16 *3975:D *611:10 0.000151593
17 *3975:D *611:12 0.000207278
18 *3975:D *611:14 8.68665e-05
19 *3975:D *611:52 7.60306e-05
20 *3975:D *708:10 0.000304215
21 *3975:D *1006:14 0
22 *3975:D *1089:22 8.3722e-05
23 *111:10 *3341:A 0.000315172
24 *111:10 *3451:B2 0
25 *111:10 *3454:A2 0.0001399
26 *111:10 *3467:A2 0
27 *111:10 *3467:B2 0.000180408
28 *111:10 *3825:A1 0
29 *111:10 *3950:RESET_B 0
30 *111:10 *4077:A 1.44079e-05
31 *111:10 *603:43 3.03792e-05
32 *111:10 *616:10 0
33 *111:10 *616:21 0
34 *111:10 *651:25 0
35 *111:10 *838:12 0.000127439
36 *111:10 *1003:18 0
37 *111:10 *1003:53 0
38 *111:10 *1006:14 0
39 *3951:D *111:10 9.24395e-05
*RES
1 *3454:X *111:10 37.8179 
2 *111:10 *3455:B1 13.8 
3 *111:10 *3975:D 38.3714 
*END

*D_NET *112 0.00186045
*CONN
*I *3974:D I *D sky130_fd_sc_hd__dfrtp_2
*I *3525:X O *D sky130_fd_sc_hd__mux2_1
*CAP
1 *3974:D 0.000432911
2 *3525:X 0.000432911
3 *3974:D *3468:A2 0.000293422
4 *3974:D *3525:A1 3.92757e-05
5 *3974:D *4164:A 6.27951e-05
6 *3974:D *617:18 0.000389464
7 *3974:D *749:12 0.000125724
8 *3974:D *905:16 8.39517e-05
*RES
1 *3525:X *3974:D 39.4036 
*END

*D_NET *113 0.00234008
*CONN
*I *3972:D I *D sky130_fd_sc_hd__dfrtp_2
*I *3459:B1 I *D sky130_fd_sc_hd__a21o_2
*I *3458:X O *D sky130_fd_sc_hd__and3_2
*CAP
1 *3972:D 0.00018302
2 *3459:B1 9.1559e-05
3 *3458:X 0.000213566
4 *113:8 0.000488146
5 *3459:B1 *3459:A1 0.000229456
6 *3459:B1 *3459:A2 0.000240537
7 *3972:D *3453:A2 5.66157e-05
8 *3972:D *3524:A3 9.97744e-05
9 *3972:D *3949:RESET_B 0
10 *3972:D *3972:CLK 2.97074e-05
11 *3972:D *646:41 0
12 *3972:D *1004:12 0.000173804
13 *113:8 *3459:A1 0.000164481
14 *113:8 *3459:A2 2.59355e-05
15 *113:8 *3462:A2 0
16 *113:8 *3524:A2 2.14658e-05
17 *113:8 *3525:A0 0.000268409
18 *113:8 *364:12 5.36e-05
*RES
1 *3458:X *113:8 14.3714 
2 *113:8 *3459:B1 12.7286 
3 *113:8 *3972:D 22.675 
*END

*D_NET *114 0.00388326
*CONN
*I *3450:B1 I *D sky130_fd_sc_hd__a21o_2
*I *3979:D I *D sky130_fd_sc_hd__dfrtp_2
*I *3449:X O *D sky130_fd_sc_hd__o21a_2
*CAP
1 *3450:B1 2.1109e-05
2 *3979:D 0.000313089
3 *3449:X 0.00104715
4 *114:10 0.00138135
5 *3450:B1 *3444:B 4.90803e-05
6 *3450:B1 *3450:A1 2.8266e-06
7 *3450:B1 *3450:A2 1.02504e-05
8 *3450:B1 *3955:CLK 0
9 *3979:D *3979:CLK 5.04589e-05
10 *114:10 *3401:B 0.000135502
11 *114:10 *3444:B 9.91086e-05
12 *114:10 *3450:A1 5.44167e-05
13 *114:10 *3524:A3 0
14 *114:10 *3757:A0 0
15 *114:10 *3949:CLK 0
16 *114:10 *4115:A 0
17 *114:10 *707:10 0.000109671
18 *114:10 *755:12 0
19 *114:10 *905:28 0.00039229
20 *114:10 *936:33 0
21 *114:10 *961:22 3.0285e-05
22 *3954:D *3979:D 0.000186669
23 *3954:D *114:10 0
24 *109:14 *114:10 0
*RES
1 *3449:X *114:10 33.6036 
2 *114:10 *3979:D 18.05 
3 *114:10 *3450:B1 14.5321 
*END

*D_NET *115 0.000461325
*CONN
*I *4045:D I *D sky130_fd_sc_hd__dfrtp_2
*I *3360:Y O *D sky130_fd_sc_hd__inv_2
*CAP
1 *4045:D 0.00021102
2 *3360:Y 0.00021102
3 *4045:D *4071:A 3.92854e-05
*RES
1 *3360:Y *4045:D 30.4616 
*END

*D_NET *116 0.00107656
*CONN
*I *4042:D I *D sky130_fd_sc_hd__dfrtp_2
*I *3359:Y O *D sky130_fd_sc_hd__inv_2
*CAP
1 *4042:D 0.000384246
2 *3359:Y 0.000384246
3 *4042:D *3663:B 6.65725e-05
4 *4042:D *3749:S 0.000119493
5 *4042:D *641:37 0
6 *4042:D *907:12 5.84171e-05
7 *4042:D *907:16 5.33334e-05
8 *4042:D *907:102 0
9 *4042:D *934:26 1.02504e-05
*RES
1 *3359:Y *4042:D 33.0643 
*END

*D_NET *117 0.00247932
*CONN
*I *3997:D I *D sky130_fd_sc_hd__dfrtp_2
*I *3515:X O *D sky130_fd_sc_hd__and3b_2
*CAP
1 *3997:D 0.000988211
2 *3515:X 0.000988211
3 *3997:D *3381:A1 2.32517e-05
4 *3997:D *3515:C 2.56601e-05
5 *3997:D *3997:CLK 0.000381775
6 *3997:D *4098:A 1.94516e-06
7 *3997:D *396:24 0
8 *3997:D *625:92 7.02611e-05
*RES
1 *3515:X *3997:D 40.5866 
*END

*D_NET *118 0.000618612
*CONN
*I *3986:D I *D sky130_fd_sc_hd__dfrtp_2
*I *3528:X O *D sky130_fd_sc_hd__a21o_2
*CAP
1 *3986:D 0.000230319
2 *3528:X 0.000230319
3 *3986:D *626:21 0.000111469
4 *3986:D *645:114 0
5 *3986:D *893:31 2.89016e-05
6 *3986:D *993:58 1.76039e-05
*RES
1 *3528:X *3986:D 32.5107 
*END

*D_NET *119 0.00131576
*CONN
*I *4253:A I *D sky130_fd_sc_hd__dlygate4sd3_1
*I *3526:Y O *D sky130_fd_sc_hd__o21ai_2
*CAP
1 *4253:A 0.000410821
2 *3526:Y 0.000410821
3 *4253:A *3436:B1 0.000150625
4 *4253:A *3527:B1 0.00014183
5 *4253:A *879:37 0.000114838
6 *4253:A *893:55 3.34366e-05
7 *4253:A *1030:16 5.33882e-05
*RES
1 *3526:Y *4253:A 35.4571 
*END

*D_NET *120 0.00333686
*CONN
*I *4019:D I *D sky130_fd_sc_hd__dfrtp_2
*I *3362:A1 I *D sky130_fd_sc_hd__mux2_1
*I *3361:Y O *D sky130_fd_sc_hd__nor2_2
*CAP
1 *4019:D 0.00035783
2 *3362:A1 0
3 *3361:Y 0.000244458
4 *120:12 0.000602288
5 *4019:D *3679:B1 1.9643e-05
6 *4019:D *4019:CLK 7.77652e-05
7 *4019:D *365:16 0.00044468
8 *4019:D *617:124 0.000299981
9 *4019:D *696:6 9.71197e-05
10 *4019:D *880:12 9.60875e-05
11 *4019:D *902:66 0.000106066
12 *4019:D *993:14 0.000368096
13 *120:12 *3362:S 0.00016644
14 *120:12 *3679:B1 0.000379214
15 *120:12 *993:14 2.18827e-05
16 *120:12 *1067:28 1.90936e-05
17 *4075:A *120:12 1.78226e-05
18 *11:14 *120:12 1.83905e-05
*RES
1 *3361:Y *120:12 24.6393 
2 *120:12 *3362:A1 9.3 
3 *120:12 *4019:D 29.3893 
*END

*D_NET *121 0.000371893
*CONN
*I *3854:D I *D sky130_fd_sc_hd__dfstp_2
*I *3355:Y O *D sky130_fd_sc_hd__inv_2
*CAP
1 *3854:D 0.000158335
2 *3355:Y 0.000158335
3 *3854:D *660:31 0
4 *3854:D *900:20 5.52238e-05
*RES
1 *3355:Y *3854:D 30.0821 
*END

*D_NET *122 0.000648914
*CONN
*I *4188:A I *D sky130_fd_sc_hd__dlygate4sd3_1
*I *3516:Y O *D sky130_fd_sc_hd__nor2_2
*CAP
1 *4188:A 0.000242933
2 *3516:Y 0.000242933
3 *4188:A *3637:A0 0
4 *4188:A *3855:CLK 5.25998e-05
5 *4188:A *3855:SET_B 0
6 *4188:A *3865:D 0
7 *4188:A *660:27 5.52238e-05
8 *4188:A *900:18 5.52238e-05
*RES
1 *3516:Y *4188:A 32.5107 
*END

*D_NET *123 0.000542239
*CONN
*I *4316:A I *D sky130_fd_sc_hd__dlygate4sd3_1
*I *3520:X O *D sky130_fd_sc_hd__and2_2
*CAP
1 *4316:A 0.000231053
2 *3520:X 0.000231053
3 *4316:A *3433:A1 2.07382e-05
4 *4316:A *3520:A 6.05161e-06
5 *4316:A *3520:B 5.33433e-05
6 *4316:A *996:12 0
*RES
1 *3520:X *4316:A 31.0107 
*END

*D_NET *124 0.000342306
*CONN
*I *4193:A I *D sky130_fd_sc_hd__dlygate4sd3_1
*I *3625:Y O *D sky130_fd_sc_hd__nor3_2
*CAP
1 *4193:A 3.22718e-05
2 *3625:Y 3.22718e-05
3 *4193:A *3428:B1 0.000138881
4 *4193:A *3846:B1 5.52238e-05
5 *4193:A *645:59 8.36572e-05
*RES
1 *3625:Y *4193:A 19.9571 
*END

*D_NET *125 0.000653328
*CONN
*I *4018:D I *D sky130_fd_sc_hd__dfrtp_2
*I *3521:X O *D sky130_fd_sc_hd__or2_2
*CAP
1 *4018:D 0.000172626
2 *3521:X 0.000172626
3 *4018:D *3780:A1 0.000202128
4 *4018:D *4082:A 1.02504e-05
5 *4018:D *423:38 0
6 *4018:D *658:36 9.56968e-05
7 *4018:D *662:80 0
*RES
1 *3521:X *4018:D 31.975 
*END

*D_NET *126 0.000735873
*CONN
*I *3999:D I *D sky130_fd_sc_hd__dfrtp_2
*I *3529:Y O *D sky130_fd_sc_hd__o21ai_2
*CAP
1 *3999:D 0.000306568
2 *3529:Y 0.000306568
3 *3999:D *3529:A2 0
4 *3999:D *3823:A1 0
5 *3999:D *3951:CLK 6.81335e-05
6 *3999:D *3999:RESET_B 4.1331e-06
7 *3999:D *612:8 5.04705e-05
8 *3999:D *612:21 0
*RES
1 *3529:Y *3999:D 33.1536 
*END

*D_NET *127 0.000858802
*CONN
*I *4009:D I *D sky130_fd_sc_hd__dfrtp_2
*I *3557:Y O *D sky130_fd_sc_hd__nor3_2
*CAP
1 *4009:D 0.000192566
2 *3557:Y 0.000192566
3 *4009:D *3553:A1 3.18676e-05
4 *4009:D *3553:B1 0
5 *4009:D *904:111 0.000118105
6 *4009:D *1073:22 0.000103267
7 *4009:D *1086:36 0.000220429
*RES
1 *3557:Y *4009:D 33.4214 
*END

*D_NET *128 0.000522826
*CONN
*I *4010:D I *D sky130_fd_sc_hd__dfrtp_2
*I *3561:X O *D sky130_fd_sc_hd__o21a_2
*CAP
1 *4010:D 0.000141173
2 *3561:X 0.000141173
3 *4010:D *3571:B1 0.000144773
4 *4010:D *4014:CLK 0
5 *4010:D *493:18 9.57064e-05
6 *4010:D *613:103 0
*RES
1 *3561:X *4010:D 31.2071 
*END

*D_NET *129 0.00163514
*CONN
*I *4011:D I *D sky130_fd_sc_hd__dfrtp_2
*I *3564:X O *D sky130_fd_sc_hd__and3_2
*CAP
1 *4011:D 0.000642353
2 *3564:X 0.000642353
3 *4011:D *3564:A 0
4 *4011:D *3567:A1 0.000113073
5 *4011:D *4326:A 0.000184745
6 *4011:D *457:12 5.26184e-05
*RES
1 *3564:X *4011:D 39.1179 
*END

*D_NET *130 0.000542451
*CONN
*I *4012:D I *D sky130_fd_sc_hd__dfrtp_2
*I *3567:Y O *D sky130_fd_sc_hd__a211oi_2
*CAP
1 *4012:D 0.000242652
2 *3567:Y 0.000242652
3 *4012:D *3567:C1 5.71472e-05
4 *4012:D *503:10 0
5 *4012:D *654:72 0
*RES
1 *3567:Y *4012:D 31.725 
*END

*D_NET *131 0.000557549
*CONN
*I *4013:D I *D sky130_fd_sc_hd__dfrtp_2
*I *3569:X O *D sky130_fd_sc_hd__o21a_2
*CAP
1 *4013:D 0.000157195
2 *3569:X 0.000157195
3 *4013:D *3973:RESET_B 0.000139907
4 *4013:D *919:10 0.000103253
*RES
1 *3569:X *4013:D 30.2964 
*END

*D_NET *132 0.000725286
*CONN
*I *4014:D I *D sky130_fd_sc_hd__dfrtp_2
*I *3572:Y O *D sky130_fd_sc_hd__nor2_2
*CAP
1 *4014:D 0.000161256
2 *3572:Y 0.000161256
3 *4014:D *3570:A1 0.000128161
4 *4014:D *3570:A2 0.00014285
5 *4014:D *3570:B1 6.97972e-05
6 *4014:D *4014:CLK 5.41609e-05
7 *4014:D *503:18 7.80714e-06
8 *4014:D *654:72 0
*RES
1 *3572:Y *4014:D 32.1357 
*END

*D_NET *133 0.000313675
*CONN
*I *4000:D I *D sky130_fd_sc_hd__dfrtp_2
*I *3533:X O *D sky130_fd_sc_hd__and3_2
*CAP
1 *4000:D 0.000105208
2 *3533:X 0.000105208
3 *4000:D *4001:CLK 0.00010326
*RES
1 *3533:X *4000:D 29.475 
*END

*D_NET *134 0.000620309
*CONN
*I *4001:D I *D sky130_fd_sc_hd__dfrtp_2
*I *3535:Y O *D sky130_fd_sc_hd__a21oi_2
*CAP
1 *4001:D 0.000143546
2 *3535:Y 0.000143546
3 *4001:D *3533:A 4.94362e-05
4 *4001:D *3535:A1 0.00014285
5 *4001:D *3535:A2 0.000140933
*RES
1 *3535:Y *4001:D 30.9036 
*END

*D_NET *135 0.000538782
*CONN
*I *4002:D I *D sky130_fd_sc_hd__dfrtp_2
*I *3538:X O *D sky130_fd_sc_hd__and3b_2
*CAP
1 *4002:D 0.000121704
2 *3538:X 0.000121704
3 *4002:D *3807:A1 0
4 *4002:D *3807:B1 0.00014285
5 *4002:D *142:12 8.07313e-05
6 *4002:D *1071:21 7.17932e-05
*RES
1 *3538:X *4002:D 30.9036 
*END

*D_NET *136 0.000356655
*CONN
*I *4003:D I *D sky130_fd_sc_hd__dfrtp_2
*I *3541:X O *D sky130_fd_sc_hd__and3_2
*CAP
1 *4003:D 9.84812e-05
2 *3541:X 9.84812e-05
3 *4003:D *3541:C 5.71472e-05
4 *4003:D *485:10 0.000102545
*RES
1 *3541:X *4003:D 29.475 
*END

*D_NET *137 0.000906407
*CONN
*I *4004:D I *D sky130_fd_sc_hd__dfrtp_2
*I *3543:Y O *D sky130_fd_sc_hd__a211oi_2
*CAP
1 *4004:D 0.000176488
2 *3543:Y 0.000176488
3 *4004:D *3489:B 0.000137983
4 *4004:D *3543:A1 0.000339497
5 *4004:D *4004:CLK 1.89001e-05
6 *4004:D *902:48 5.70496e-05
*RES
1 *3543:Y *4004:D 24.0107 
*END

*D_NET *138 0.00047187
*CONN
*I *4005:D I *D sky130_fd_sc_hd__dfrtp_2
*I *3546:X O *D sky130_fd_sc_hd__and3_2
*CAP
1 *4005:D 0.000116115
2 *3546:X 0.000116115
3 *4005:D *3347:A 5.52302e-05
4 *4005:D *3545:B 5.33005e-05
5 *4005:D *490:8 0.000100823
6 *4005:D *1083:10 3.0285e-05
*RES
1 *3546:X *4005:D 30.0107 
*END

*D_NET *139 0.000270363
*CONN
*I *4293:A I *D sky130_fd_sc_hd__dlygate4sd3_1
*I *3549:Y O *D sky130_fd_sc_hd__a21oi_2
*CAP
1 *4293:A 0.000112309
2 *3549:Y 0.000112309
3 *4293:A *3549:A1 4.57445e-05
4 *4293:A *3626:A2 0
*RES
1 *3549:Y *4293:A 29.7786 
*END

*D_NET *140 0.000334862
*CONN
*I *4007:D I *D sky130_fd_sc_hd__dfrtp_2
*I *3552:Y O *D sky130_fd_sc_hd__nor3_2
*CAP
1 *4007:D 0.000102134
2 *3552:Y 0.000102134
3 *4007:D *3550:B1 0
4 *4007:D *3552:B 0.000102545
5 *4007:D *3555:A2 2.27416e-05
6 *4007:D *493:55 5.30637e-06
*RES
1 *3552:Y *4007:D 29.475 
*END

*D_NET *141 0.000212209
*CONN
*I *4008:D I *D sky130_fd_sc_hd__dfrtp_2
*I *3554:X O *D sky130_fd_sc_hd__o21a_2
*CAP
1 *4008:D 8.1043e-05
2 *3554:X 8.1043e-05
3 *4008:D *613:82 5.01234e-05
*RES
1 *3554:X *4008:D 28.9393 
*END

*D_NET *142 0.00351467
*CONN
*I *4015:D I *D sky130_fd_sc_hd__dfrtp_2
*I *3529:A2 I *D sky130_fd_sc_hd__o21ai_2
*I *3494:Y O *D sky130_fd_sc_hd__nor3_2
*CAP
1 *4015:D 0.000474999
2 *3529:A2 0.000175649
3 *3494:Y 0.000336758
4 *142:12 0.000987407
5 *3529:A2 *3529:B1 0
6 *3529:A2 *3999:RESET_B 0
7 *3529:A2 *4002:CLK 0.000139653
8 *3529:A2 *4289:A 0
9 *3529:A2 *612:21 1.19309e-05
10 *3529:A2 *612:43 0.000176234
11 *3529:A2 *902:66 3.5707e-05
12 *4015:D *3538:B 2.51343e-06
13 *4015:D *3807:A1 0.000125724
14 *4015:D *4002:CLK 3.34366e-05
15 *4015:D *4015:CLK 7.3237e-05
16 *4015:D *898:6 1.32552e-05
17 *4015:D *902:66 6.8551e-05
18 *4015:D *1071:21 0
19 *142:12 *3488:D_N 4.87854e-05
20 *142:12 *3807:A1 2.59355e-05
21 *142:12 *3807:A2 0.000559122
22 *142:12 *3807:B1 0.000145043
23 *3999:D *3529:A2 0
24 *4002:D *142:12 8.07313e-05
*RES
1 *3494:Y *142:12 23.5143 
2 *142:12 *3529:A2 18.175 
3 *142:12 *4015:D 22.2286 
*END

*D_NET *143 0.000895242
*CONN
*I *4020:D I *D sky130_fd_sc_hd__dfrtp_2
*I *3522:X O *D sky130_fd_sc_hd__and2_2
*CAP
1 *4020:D 0.000291685
2 *3522:X 0.000291685
3 *4020:D *3827:A1 9.60875e-05
4 *4020:D *3980:RESET_B 0.000103267
5 *4020:D *651:69 9.25014e-06
6 *4020:D *898:18 0.000103267
*RES
1 *3522:X *4020:D 32.7607 
*END

*D_NET *144 0.00137525
*CONN
*I *4195:A I *D sky130_fd_sc_hd__dlygate4sd3_1
*I *3517:Y O *D sky130_fd_sc_hd__nor2_2
*CAP
1 *4195:A 0.000687627
2 *3517:Y 0.000687627
3 *4195:A *3929:RESET_B 0
4 *4195:A *4140:A 0
5 *4195:A *889:16 0
6 *3929:D *4195:A 0
*RES
1 *3517:Y *4195:A 38.6714 
*END

*D_NET *145 0.000721175
*CONN
*I *4021:D I *D sky130_fd_sc_hd__dfrtp_2
*I *3573:Y O *D sky130_fd_sc_hd__o21ai_2
*CAP
1 *4021:D 0.000267257
2 *3573:Y 0.000267257
3 *4021:D *3573:A1 0
4 *4021:D *4037:D 0.000186662
5 *4021:D *161:12 0
6 *4021:D *899:60 0
*RES
1 *3573:Y *4021:D 32.2429 
*END

*D_NET *146 0.000384018
*CONN
*I *4031:D I *D sky130_fd_sc_hd__dfrtp_2
*I *3601:Y O *D sky130_fd_sc_hd__nor3_2
*CAP
1 *4031:D 0.00016159
2 *3601:Y 0.00016159
3 *4031:D *3601:A 3.69047e-06
4 *4031:D *3601:C 0
5 *4031:D *4031:CLK 5.71472e-05
*RES
1 *3601:Y *4031:D 21.2071 
*END

*D_NET *147 0.000473533
*CONN
*I *4248:A I *D sky130_fd_sc_hd__dlygate4sd3_1
*I *3605:X O *D sky130_fd_sc_hd__o21a_2
*CAP
1 *4248:A 0.000187245
2 *3605:X 0.000187245
3 *4248:A *3840:A1 9.90431e-05
*RES
1 *3605:X *4248:A 31.0107 
*END

*D_NET *148 0.000606861
*CONN
*I *4033:D I *D sky130_fd_sc_hd__dfrtp_2
*I *3608:X O *D sky130_fd_sc_hd__and3_2
*CAP
1 *4033:D 9.57442e-05
2 *3608:X 9.57442e-05
3 *4033:D *3608:C 0.000125724
4 *4033:D *3842:B1 0.000125724
5 *4033:D *609:12 9.76491e-05
6 *4033:D *1100:10 6.62752e-05
*RES
1 *3608:X *4033:D 31.0107 
*END

*D_NET *149 0.000160787
*CONN
*I *4034:D I *D sky130_fd_sc_hd__dfrtp_2
*I *3611:Y O *D sky130_fd_sc_hd__a211oi_2
*CAP
1 *4034:D 6.14201e-05
2 *3611:Y 6.14201e-05
3 *4034:D *3842:B1 0
4 *4034:D *4034:CLK 3.79467e-05
5 *4034:D *4034:RESET_B 0
*RES
1 *3611:Y *4034:D 28.9393 
*END

*D_NET *150 0.00103511
*CONN
*I *4035:D I *D sky130_fd_sc_hd__dfrtp_2
*I *3613:X O *D sky130_fd_sc_hd__o21a_2
*CAP
1 *4035:D 0.000422168
2 *3613:X 0.000422168
3 *4035:D *4036:CLK 5.57914e-05
4 *4035:D *4036:D 6.97972e-05
5 *4035:D *885:104 0
6 *4035:D *887:82 6.5185e-05
7 *4035:D *901:69 0
*RES
1 *3613:X *4035:D 34.3679 
*END

*D_NET *151 0.000799323
*CONN
*I *4036:D I *D sky130_fd_sc_hd__dfrtp_2
*I *3616:Y O *D sky130_fd_sc_hd__nor2_2
*CAP
1 *4036:D 0.000180685
2 *3616:Y 0.000180685
3 *4036:D *3616:B 0.000101545
4 *4036:D *4036:CLK 0
5 *4036:D *659:99 9.60875e-05
6 *4036:D *885:104 0.000170523
7 *4035:D *4036:D 6.97972e-05
*RES
1 *3616:Y *4036:D 32.6179 
*END

*D_NET *152 0.00134141
*CONN
*I *4022:D I *D sky130_fd_sc_hd__dfrtp_2
*I *3577:X O *D sky130_fd_sc_hd__and3_2
*CAP
1 *4022:D 0.000469704
2 *3577:X 0.000469704
3 *4022:D *3579:A2 4.48113e-05
4 *4022:D *3928:CLK 0
5 *4022:D *4022:CLK 0.000186669
6 *4022:D *662:41 0
7 *4022:D *662:80 0
8 *4022:D *899:28 0
9 *4199:A *4022:D 0.000170523
*RES
1 *3577:X *4022:D 37.4036 
*END

*D_NET *153 0.00063653
*CONN
*I *4023:D I *D sky130_fd_sc_hd__dfrtp_2
*I *3579:Y O *D sky130_fd_sc_hd__a21oi_2
*CAP
1 *4023:D 0.000159555
2 *3579:Y 0.000159555
3 *4023:D *3579:A1 0.000103765
4 *4023:D *4023:RESET_B 0
5 *4023:D *4024:CLK 0
6 *4023:D *610:47 0
7 *4023:D *662:33 1.15281e-05
8 *4023:D *662:80 0.000202128
*RES
1 *3579:Y *4023:D 31.5107 
*END

*D_NET *154 0.000252981
*CONN
*I *4024:D I *D sky130_fd_sc_hd__dfrtp_2
*I *3582:X O *D sky130_fd_sc_hd__and3b_2
*CAP
1 *4024:D 0.000126491
2 *3582:X 0.000126491
3 *4024:D *3579:B1 0
4 *4024:D *3582:C 0
5 *4024:D *1104:10 0
*RES
1 *3582:X *4024:D 29.5464 
*END

*D_NET *155 0.0015685
*CONN
*I *4025:D I *D sky130_fd_sc_hd__dfrtp_2
*I *3585:X O *D sky130_fd_sc_hd__and3_2
*CAP
1 *4025:D 0.000423205
2 *3585:X 0.000423205
3 *4025:D *3351:A 0.00012401
4 *4025:D *3499:A_N 6.26466e-05
5 *4025:D *3591:A 3.18676e-05
6 *4025:D *4026:CLK 0.000313458
7 *4025:D *511:34 0.000139907
8 *4025:D *662:33 2.59355e-05
9 *4025:D *1107:60 2.42662e-05
10 *4025:D *1109:46 0
*RES
1 *3585:X *4025:D 35.6179 
*END

*D_NET *156 0.00062088
*CONN
*I *4026:D I *D sky130_fd_sc_hd__dfrtp_2
*I *3587:Y O *D sky130_fd_sc_hd__a211oi_2
*CAP
1 *4026:D 9.26078e-05
2 *3587:Y 9.26078e-05
3 *4026:D *3587:C1 5.52238e-05
4 *4026:D *3589:B 1.98839e-05
5 *4026:D *1108:6 5.12966e-05
6 *4026:D *1110:14 0.00030926
*RES
1 *3587:Y *4026:D 21.6 
*END

*D_NET *157 0.00184762
*CONN
*I *4027:D I *D sky130_fd_sc_hd__dfrtp_2
*I *3590:X O *D sky130_fd_sc_hd__and3_2
*CAP
1 *4027:D 0.000602321
2 *3590:X 0.000602321
3 *4027:D *3588:A 5.30637e-06
4 *4027:D *3591:A 0.0001278
5 *4027:D *4027:CLK 0.000172932
6 *4027:D *4028:RESET_B 0
7 *4027:D *609:54 0.000207552
8 *4027:D *1109:46 0.000129386
*RES
1 *3590:X *4027:D 46.0821 
*END

*D_NET *158 0.000939501
*CONN
*I *4028:D I *D sky130_fd_sc_hd__dfrtp_2
*I *3593:Y O *D sky130_fd_sc_hd__a21oi_2
*CAP
1 *4028:D 0.000235153
2 *3593:Y 0.000235153
3 *4028:D *3352:A 0.000219711
4 *4028:D *609:43 0.00010326
5 *4028:D *609:54 4.4679e-05
6 *4028:D *1110:33 0.000101545
*RES
1 *3593:Y *4028:D 31.9795 
*END

*D_NET *159 0.000364319
*CONN
*I *4029:D I *D sky130_fd_sc_hd__dfrtp_2
*I *3596:Y O *D sky130_fd_sc_hd__nor3_2
*CAP
1 *4029:D 4.14704e-05
2 *3596:Y 4.14704e-05
3 *4029:D *521:42 9.7659e-05
4 *4029:D *1111:8 0.00018372
*RES
1 *3596:Y *4029:D 20.3679 
*END

*D_NET *160 0.000912673
*CONN
*I *4030:D I *D sky130_fd_sc_hd__dfrtp_2
*I *3598:X O *D sky130_fd_sc_hd__o21a_2
*CAP
1 *4030:D 0.000271099
2 *3598:X 0.000271099
3 *4030:D *3597:A2 0.000118339
4 *4030:D *3598:B1 0.000184635
5 *4030:D *521:55 6.75007e-05
*RES
1 *3598:X *4030:D 34.1536 
*END

*D_NET *161 0.00283712
*CONN
*I *3573:A2 I *D sky130_fd_sc_hd__o21ai_2
*I *4037:D I *D sky130_fd_sc_hd__dfrtp_2
*I *3504:Y O *D sky130_fd_sc_hd__nor3_2
*CAP
1 *3573:A2 0
2 *4037:D 0.000541332
3 *3504:Y 0.000637528
4 *161:12 0.00117886
5 *4037:D *4037:CLK 7.13131e-05
6 *4037:D *899:47 6.37566e-05
7 *4037:D *899:60 5.22045e-05
8 *161:12 *3573:A1 6.19181e-05
9 *161:12 *1097:8 4.35421e-05
10 *4021:D *4037:D 0.000186662
11 *4021:D *161:12 0
*RES
1 *3504:Y *161:12 26.2286 
2 *161:12 *4037:D 19.8714 
3 *161:12 *3573:A2 9.3 
*END

*D_NET *162 0.00300207
*CONN
*I *3987:D I *D sky130_fd_sc_hd__dfrtp_2
*I *3408:A1 I *D sky130_fd_sc_hd__o21ai_2
*I *3327:Y O *D sky130_fd_sc_hd__inv_2
*CAP
1 *3987:D 0
2 *3408:A1 0.000704191
3 *3327:Y 0.000357974
4 *162:6 0.00106217
5 *3408:A1 *3405:A 0.00012401
6 *3408:A1 *3405:B 3.34672e-05
7 *3408:A1 *3410:A1 2.39148e-05
8 *3408:A1 *3410:C1 8.50152e-05
9 *3408:A1 *3410:D1 3.23017e-05
10 *3408:A1 *3989:D 8.71761e-05
11 *3408:A1 *413:22 1.83136e-05
12 *3408:A1 *414:10 2.8266e-06
13 *3408:A1 *631:12 1.77672e-05
14 *3408:A1 *642:14 0
15 *3408:A1 *906:12 0.000233092
16 *162:6 *3327:A 0.000181796
17 *162:6 *3987:CLK 3.55443e-05
18 *162:6 *624:106 2.51343e-06
*RES
1 *3327:Y *162:6 14.7643 
2 *162:6 *3408:A1 28.9964 
3 *162:6 *3987:D 9.3 
*END

*D_NET *163 0.00155346
*CONN
*I *3988:D I *D sky130_fd_sc_hd__dfrtp_2
*I *3405:X O *D sky130_fd_sc_hd__xor2_2
*CAP
1 *3988:D 0.000286103
2 *3405:X 0.000286103
3 *3988:D *3506:B 0.000173804
4 *3988:D *3507:B 0.000315711
5 *3988:D *3987:RESET_B 7.30285e-05
6 *3988:D *3990:CLK 6.26673e-05
7 *3988:D *4393:A 0.000188586
8 o_receive_data[3] *3988:D 0.000167452
*RES
1 *3405:X *3988:D 36.2607 
*END

*D_NET *164 0.00132139
*CONN
*I *3989:D I *D sky130_fd_sc_hd__dfrtp_2
*I *3408:Y O *D sky130_fd_sc_hd__o21ai_2
*CAP
1 *3989:D 0.000481439
2 *3408:Y 0.000481439
3 *3989:D *3405:B 0
4 *3989:D *3408:B1 0.000242422
5 *3989:D *3507:B 0
6 *3989:D *3670:A1 0
7 *3989:D *3987:RESET_B 0
8 *3989:D *624:91 0
9 *3989:D *906:12 2.89114e-05
10 *3408:A1 *3989:D 8.71761e-05
*RES
1 *3408:Y *3989:D 36.9929 
*END

*D_NET *165 0.00135172
*CONN
*I *3990:D I *D sky130_fd_sc_hd__dfrtp_2
*I *3409:Y O *D sky130_fd_sc_hd__xnor2_2
*CAP
1 *3990:D 0.000606579
2 *3409:Y 0.000606579
3 *3990:D *3990:CLK 4.82456e-05
4 *3990:D *413:22 9.03141e-05
*RES
1 *3409:Y *3990:D 35.225 
*END

*D_NET *166 0.000666659
*CONN
*I *3991:D I *D sky130_fd_sc_hd__dfrtp_2
*I *3412:Y O *D sky130_fd_sc_hd__nand2_2
*CAP
1 *3991:D 0.000267971
2 *3412:Y 0.000267971
3 *3991:D *3406:A1 0
4 *3991:D *3799:A1 0
5 *3991:D *3799:B1 0
6 *3991:D *3991:CLK 0.000130718
*RES
1 *3412:Y *3991:D 32.6536 
*END

*D_NET *167 0.000271752
*CONN
*I *3992:D I *D sky130_fd_sc_hd__dfrtp_2
*I *3413:Y O *D sky130_fd_sc_hd__xnor2_2
*CAP
1 *3992:D 9.22312e-05
2 *3413:Y 9.22312e-05
3 *3992:D *3993:CLK 2.89114e-05
4 *3992:D *625:29 5.83781e-05
*RES
1 *3413:Y *3992:D 20.3679 
*END

*D_NET *168 0.000288415
*CONN
*I *3993:D I *D sky130_fd_sc_hd__dfrtp_2
*I *3416:Y O *D sky130_fd_sc_hd__nand2_2
*CAP
1 *3993:D 7.84991e-05
2 *3416:Y 7.84991e-05
3 *3993:D *3993:CLK 7.61932e-05
4 *3993:D *416:24 5.52238e-05
*RES
1 *3416:Y *3993:D 20.3679 
*END

*D_NET *169 0.000588813
*CONN
*I *3994:D I *D sky130_fd_sc_hd__dfrtp_2
*I *3419:Y O *D sky130_fd_sc_hd__nand2_2
*CAP
1 *3994:D 0.000255524
2 *3419:Y 0.000255524
3 *3994:D *3994:CLK 7.77652e-05
*RES
1 *3419:Y *3994:D 22.8321 
*END

*D_NET *170 0.00172009
*CONN
*I *3995:D I *D sky130_fd_sc_hd__dfrtp_2
*I *3420:Y O *D sky130_fd_sc_hd__xnor2_2
*CAP
1 *3995:D 0.000560991
2 *3420:Y 0.000560991
3 *3995:D *3420:A 0.000497655
4 *3995:D *3800:A1 3.67405e-05
5 *3995:D *3995:CLK 6.37089e-05
*RES
1 *3420:Y *3995:D 27.2964 
*END

*D_NET *171 0.000176307
*CONN
*I *3854:SET_B I *D sky130_fd_sc_hd__dfstp_2
*I *3626:X O *D sky130_fd_sc_hd__o21a_2
*CAP
1 *3854:SET_B 4.13328e-05
2 *3626:X 4.13328e-05
3 *3854:SET_B *3497:C1 3.79467e-05
4 *3854:SET_B *660:31 5.56943e-05
*RES
1 *3626:X *3854:SET_B 19.6393 
*END

*D_NET *172 0.000857544
*CONN
*I *3855:SET_B I *D sky130_fd_sc_hd__dfstp_2
*I *3762:X O *D sky130_fd_sc_hd__o21a_2
*CAP
1 *3855:SET_B 0.000325873
2 *3762:X 0.000325873
3 *3855:SET_B *3637:A0 0
4 *3855:SET_B *3865:D 0.000104974
5 *3855:SET_B *485:10 0
6 *3855:SET_B *661:19 0
7 *3855:SET_B *897:54 0.000100823
8 *3855:SET_B *902:96 0
9 *4188:A *3855:SET_B 0
*RES
1 *3762:X *3855:SET_B 24.4964 
*END

*D_NET *173 0.00179608
*CONN
*I *4174:A I *D sky130_fd_sc_hd__dlygate4sd3_1
*I *3635:Y O *D sky130_fd_sc_hd__nor3_2
*CAP
1 *4174:A 0.000516623
2 *3635:Y 0.000516623
3 *4174:A *3635:C 9.84673e-05
4 *4174:A *3964:D 2.85321e-05
5 *4174:A *4180:A 0.000190187
6 *4174:A *4246:A 0.000189226
7 *4174:A *4383:A 0.000157389
8 *4174:A *1010:12 9.90367e-05
*RES
1 *3635:Y *4174:A 39.5107 
*END

*D_NET *174 0.000466482
*CONN
*I *3915:RESET_B I *D sky130_fd_sc_hd__dfrtp_2
*I *3763:X O *D sky130_fd_sc_hd__o21a_2
*CAP
1 *3915:RESET_B 0.000152244
2 *3763:X 0.000152244
3 *3915:RESET_B *4234:A 0
4 *3915:RESET_B *911:10 0.000161993
*RES
1 *3763:X *3915:RESET_B 22.0679 
*END

*D_NET *175 0.00103064
*CONN
*I *3916:RESET_B I *D sky130_fd_sc_hd__dfrtp_2
*I *3764:X O *D sky130_fd_sc_hd__o21a_2
*CAP
1 *3916:RESET_B 0.00023137
2 *3764:X 0.00023137
3 *3916:RESET_B *3389:A1 6.44449e-05
4 *3916:RESET_B *3434:A 0
5 *3916:RESET_B *4040:RESET_B 0.000177234
6 *3916:RESET_B *723:10 3.40128e-05
7 *3916:RESET_B *878:92 0.000292207
*RES
1 *3764:X *3916:RESET_B 25.4071 
*END

*D_NET *176 0.000711836
*CONN
*I *3917:RESET_B I *D sky130_fd_sc_hd__dfrtp_2
*I *3765:X O *D sky130_fd_sc_hd__o21a_2
*CAP
1 *3917:RESET_B 0.000219413
2 *3765:X 0.000219413
3 *3917:RESET_B *877:8 5.71472e-05
4 *3917:RESET_B *877:14 0
5 *11:10 *3917:RESET_B 0.000215864
*RES
1 *3765:X *3917:RESET_B 23.5143 
*END

*D_NET *177 0.000474418
*CONN
*I *3918:RESET_B I *D sky130_fd_sc_hd__dfrtp_2
*I *3766:X O *D sky130_fd_sc_hd__o21a_2
*CAP
1 *3918:RESET_B 0.000133873
2 *3766:X 0.000133873
3 *3918:RESET_B *3388:A1 3.18676e-05
4 *3918:RESET_B *3766:A2 0.000174805
5 *3918:RESET_B *4219:A 0
*RES
1 *3766:X *3918:RESET_B 21.0857 
*END

*D_NET *178 0.000930651
*CONN
*I *3919:RESET_B I *D sky130_fd_sc_hd__dfrtp_2
*I *3767:X O *D sky130_fd_sc_hd__o21a_2
*CAP
1 *3919:RESET_B 0.000181617
2 *3767:X 0.000181617
3 *3919:RESET_B *3365:B 8.03134e-05
4 *3919:RESET_B *3383:A1 3.90513e-05
5 *3919:RESET_B *3383:A2 0.000240477
6 *3919:RESET_B *391:10 9.91086e-05
7 *3919:RESET_B *877:31 2.96981e-05
8 *3919:RESET_B *890:27 4.73514e-05
9 *3919:RESET_B *1043:8 3.14178e-05
*RES
1 *3767:X *3919:RESET_B 23.5589 
*END

*D_NET *179 0.000616414
*CONN
*I *3920:RESET_B I *D sky130_fd_sc_hd__dfrtp_2
*I *3768:X O *D sky130_fd_sc_hd__o21a_2
*CAP
1 *3920:RESET_B 0.000280595
2 *3768:X 0.000280595
3 *3920:RESET_B *3382:B1 0
4 *3920:RESET_B *4237:A 0
5 *3920:RESET_B *392:29 0
6 *3920:RESET_B *394:12 5.52238e-05
7 *3920:RESET_B *891:62 0
8 *3920:RESET_B *1044:45 0
*RES
1 *3768:X *3920:RESET_B 22.6036 
*END

*D_NET *180 0.000527481
*CONN
*I *3921:RESET_B I *D sky130_fd_sc_hd__dfrtp_2
*I *3769:X O *D sky130_fd_sc_hd__o21a_2
*CAP
1 *3921:RESET_B 0.000127384
2 *3769:X 0.000127384
3 *3921:RESET_B *3770:A1 3.5707e-05
4 *3921:RESET_B *3770:A2 0.000100823
5 *3921:RESET_B *1045:6 0.000136182
*RES
1 *3769:X *3921:RESET_B 21.3446 
*END

*D_NET *181 0.000524741
*CONN
*I *3922:RESET_B I *D sky130_fd_sc_hd__dfrtp_2
*I *3770:X O *D sky130_fd_sc_hd__o21a_2
*CAP
1 *3922:RESET_B 0.000121958
2 *3770:X 0.000121958
3 *3922:RESET_B *3505:A 0.000179995
4 *3922:RESET_B *3922:D 0.000100831
*RES
1 *3770:X *3922:RESET_B 21.3446 
*END

*D_NET *182 0.000943372
*CONN
*I *3923:RESET_B I *D sky130_fd_sc_hd__dfrtp_2
*I *3771:X O *D sky130_fd_sc_hd__o21a_2
*CAP
1 *3923:RESET_B 0.000457235
2 *3771:X 0.000457235
3 *3923:RESET_B *3368:B1 0
4 *3923:RESET_B *3771:A1 0
5 *3923:RESET_B *3771:B1 2.89016e-05
6 *3923:RESET_B *3925:RESET_B 0
7 *3923:RESET_B *1047:20 0
*RES
1 *3771:X *3923:RESET_B 25.9429 
*END

*D_NET *183 0.000660177
*CONN
*I *3924:RESET_B I *D sky130_fd_sc_hd__dfrtp_2
*I *3772:X O *D sky130_fd_sc_hd__o21a_2
*CAP
1 *3924:RESET_B 0.00013464
2 *3772:X 0.00013464
3 *3924:RESET_B *3772:B1 5.91352e-05
4 *3924:RESET_B *893:80 0.000188586
5 *3924:RESET_B *1048:6 5.52302e-05
6 *3924:RESET_B *1048:10 8.79458e-05
*RES
1 *3772:X *3924:RESET_B 12.6482 
*END

*D_NET *184 0.000568947
*CONN
*I *3925:RESET_B I *D sky130_fd_sc_hd__dfrtp_2
*I *3773:X O *D sky130_fd_sc_hd__o21a_2
*CAP
1 *3925:RESET_B 0.000174279
2 *3773:X 0.000174279
3 *3925:RESET_B *3771:A1 0.000142023
4 *3925:RESET_B *1047:8 7.83659e-05
5 *3925:RESET_B *1047:20 0
6 *3923:RESET_B *3925:RESET_B 0
*RES
1 *3773:X *3925:RESET_B 22.9786 
*END

*D_NET *185 0.000490309
*CONN
*I *3926:RESET_B I *D sky130_fd_sc_hd__dfrtp_2
*I *3774:X O *D sky130_fd_sc_hd__o21a_2
*CAP
1 *3926:RESET_B 0.000100436
2 *3774:X 0.000100436
3 *3926:RESET_B *3434:B 9.56872e-05
4 *3926:RESET_B *3774:B1 1.58163e-05
5 *3926:RESET_B *644:55 0.000177934
*RES
1 *3774:X *3926:RESET_B 21.0857 
*END

*D_NET *186 0.000781611
*CONN
*I *3927:RESET_B I *D sky130_fd_sc_hd__dfrtp_2
*I *3775:X O *D sky130_fd_sc_hd__o21a_2
*CAP
1 *3927:RESET_B 0.000130537
2 *3775:X 0.000130537
3 *3927:RESET_B *3679:B1 0.000371533
4 *3927:RESET_B *3686:B1 0.00010326
5 *3927:RESET_B *3927:D 4.57445e-05
6 *3927:RESET_B *3998:RESET_B 0
*RES
1 *3775:X *3927:RESET_B 22.9786 
*END

*D_NET *187 0.00122232
*CONN
*I *3928:SET_B I *D sky130_fd_sc_hd__dfstp_2
*I *3776:X O *D sky130_fd_sc_hd__o21a_2
*CAP
1 *3928:SET_B 0.000192364
2 *3776:X 0.000192364
3 *3928:SET_B *3422:A1_N 1.18064e-05
4 *3928:SET_B *3426:C1 0.000109576
5 *3928:SET_B *611:132 0.000133062
6 *3928:SET_B *997:10 5.33882e-05
7 *3928:SET_B *1114:36 5.83304e-05
8 *3928:SET_B *1116:12 2.49484e-05
9 *3426:B1 *3928:SET_B 0.000148911
10 *105:21 *3928:SET_B 0.000297566
*RES
1 *3776:X *3928:SET_B 25.4071 
*END

*D_NET *188 0.000300847
*CONN
*I *3929:RESET_B I *D sky130_fd_sc_hd__dfrtp_2
*I *3777:X O *D sky130_fd_sc_hd__o21a_2
*CAP
1 *3929:RESET_B 9.13734e-05
2 *3777:X 9.13734e-05
3 *3929:RESET_B *889:16 6.26818e-05
4 *3929:D *3929:RESET_B 5.54183e-05
5 *4195:A *3929:RESET_B 0
*RES
1 *3777:X *3929:RESET_B 20.55 
*END

*D_NET *189 0.000608757
*CONN
*I *3930:RESET_B I *D sky130_fd_sc_hd__dfrtp_2
*I *3778:X O *D sky130_fd_sc_hd__o21a_2
*CAP
1 *3930:RESET_B 0.000175864
2 *3778:X 0.000175864
3 *3930:RESET_B *3422:A2_N 0
4 *3930:RESET_B *885:28 3.57163e-05
5 *3930:RESET_B *1096:29 0.000221314
*RES
1 *3778:X *3930:RESET_B 21.7554 
*END

*D_NET *190 0.000669441
*CONN
*I *3931:SET_B I *D sky130_fd_sc_hd__dfstp_2
*I *3779:X O *D sky130_fd_sc_hd__o21a_2
*CAP
1 *3931:SET_B 0.000282674
2 *3779:X 0.000282674
3 *3931:SET_B *3784:B1 4.88637e-05
4 *3931:SET_B *603:55 0
5 *3931:SET_B *894:83 5.52302e-05
6 *3931:SET_B *1088:10 0
*RES
1 *3779:X *3931:SET_B 22.7911 
*END

*D_NET *191 0.000495133
*CONN
*I *3932:RESET_B I *D sky130_fd_sc_hd__dfrtp_2
*I *3780:X O *D sky130_fd_sc_hd__o21a_2
*CAP
1 *3932:RESET_B 0.000112197
2 *3780:X 0.000112197
3 *3932:RESET_B *4018:CLK 4.73514e-05
4 *3932:RESET_B *4083:A 9.24491e-05
5 *3932:RESET_B *423:38 5.08577e-05
6 *3932:RESET_B *1089:22 8.00806e-05
*RES
1 *3780:X *3932:RESET_B 21.4339 
*END

*D_NET *192 0.000222583
*CONN
*I *3933:RESET_B I *D sky130_fd_sc_hd__dfrtp_2
*I *3781:X O *D sky130_fd_sc_hd__o21a_2
*CAP
1 *3933:RESET_B 8.22804e-05
2 *3781:X 8.22804e-05
3 *3933:RESET_B *4215:A 5.80217e-05
4 *3933:RESET_B *883:103 0
*RES
1 *3781:X *3933:RESET_B 20.2464 
*END

*D_NET *193 0.000787327
*CONN
*I *3934:RESET_B I *D sky130_fd_sc_hd__dfrtp_2
*I *3782:X O *D sky130_fd_sc_hd__o21a_2
*CAP
1 *3934:RESET_B 0.000162745
2 *3782:X 0.000162745
3 *3934:RESET_B *3782:B1 8.14342e-05
4 *3934:RESET_B *4016:D 0.000126439
5 *3934:RESET_B *4122:A 0.000148189
6 *3934:RESET_B *894:51 5.2475e-05
7 *3934:RESET_B *911:62 5.33005e-05
*RES
1 *3782:X *3934:RESET_B 22.6036 
*END

*D_NET *194 0.00080602
*CONN
*I *3935:RESET_B I *D sky130_fd_sc_hd__dfrtp_2
*I *3783:X O *D sky130_fd_sc_hd__o21a_2
*CAP
1 *3935:RESET_B 8.48976e-05
2 *3783:X 8.48976e-05
3 *3935:RESET_B *3431:B 0.000177227
4 *3935:RESET_B *3779:A2 0.000311488
5 *3935:RESET_B *898:46 1.02504e-05
6 *3935:RESET_B *911:30 9.11365e-06
7 *3935:RESET_B *1092:10 0.000128146
*RES
1 *3783:X *3935:RESET_B 22.3714 
*END

*D_NET *195 0.000758649
*CONN
*I *3936:RESET_B I *D sky130_fd_sc_hd__dfrtp_2
*I *3784:X O *D sky130_fd_sc_hd__o21a_2
*CAP
1 *3936:RESET_B 0.000225646
2 *3784:X 0.000225646
3 *3936:RESET_B *3931:D 0.000154762
4 *3936:RESET_B *3936:CLK 7.79781e-06
5 *3936:RESET_B *603:55 0
6 *3936:RESET_B *627:10 4.57538e-05
7 *3936:RESET_B *894:72 9.90431e-05
*RES
1 *3784:X *3936:RESET_B 23.0143 
*END

*D_NET *196 0.000764085
*CONN
*I *3937:RESET_B I *D sky130_fd_sc_hd__dfrtp_2
*I *3785:X O *D sky130_fd_sc_hd__o21a_2
*CAP
1 *3937:RESET_B 0.000202606
2 *3785:X 0.000202606
3 *3937:RESET_B *3785:A1 3.18676e-05
4 *3937:RESET_B *3937:CLK 0.000142805
5 *3937:RESET_B *4212:A 0
6 *3937:RESET_B *883:122 0.000136395
7 *3937:RESET_B *898:102 4.78056e-05
*RES
1 *3785:X *3937:RESET_B 22.7018 
*END

*D_NET *197 0.000189253
*CONN
*I *3938:SET_B I *D sky130_fd_sc_hd__dfstp_2
*I *3786:X O *D sky130_fd_sc_hd__o21a_2
*CAP
1 *3938:SET_B 4.89308e-05
2 *3786:X 4.89308e-05
3 *3938:SET_B *3786:A1 3.56976e-05
4 *3938:SET_B *763:10 5.56943e-05
*RES
1 *3786:X *3938:SET_B 19.6393 
*END

*D_NET *198 0.00143963
*CONN
*I *3939:RESET_B I *D sky130_fd_sc_hd__dfrtp_2
*I *3787:X O *D sky130_fd_sc_hd__o21a_2
*CAP
1 *3939:RESET_B 0.000420266
2 *3787:X 0.000420266
3 *3939:RESET_B *3788:A2 0.000196262
4 *3939:RESET_B *3788:B1 1.92789e-05
5 *3939:RESET_B *3939:CLK 0.000181796
6 *3939:RESET_B *4153:A 0.000198691
7 *3939:RESET_B *879:8 3.06878e-06
*RES
1 *3787:X *3939:RESET_B 25.7018 
*END

*D_NET *199 0.00077103
*CONN
*I *3940:RESET_B I *D sky130_fd_sc_hd__dfrtp_2
*I *3788:X O *D sky130_fd_sc_hd__o21a_2
*CAP
1 *3940:RESET_B 0.00032774
2 *3788:X 0.00032774
3 *3940:RESET_B *3788:A1 0
4 *3940:RESET_B *3788:B1 6.97972e-05
5 *3940:RESET_B *3939:CLK 4.57538e-05
6 *3940:RESET_B *3939:D 0
7 *3940:RESET_B *4213:A 0
8 *3940:RESET_B *879:25 0
9 *3940:RESET_B *1030:18 0
*RES
1 *3788:X *3940:RESET_B 24.4964 
*END

*D_NET *200 0.000921117
*CONN
*I *3941:RESET_B I *D sky130_fd_sc_hd__dfrtp_2
*I *3789:X O *D sky130_fd_sc_hd__o21a_2
*CAP
1 *3941:RESET_B 0.000365929
2 *3789:X 0.000365929
3 *3941:RESET_B *3941:CLK 0.00016135
4 *3941:RESET_B *606:35 2.79092e-05
5 *3941:D *3941:RESET_B 0
*RES
1 *3789:X *3941:RESET_B 24.0589 
*END

*D_NET *201 0.00220989
*CONN
*I *3942:SET_B I *D sky130_fd_sc_hd__dfstp_2
*I *3790:X O *D sky130_fd_sc_hd__o21a_2
*CAP
1 *3942:SET_B 0.00036921
2 *3790:X 0.00036921
3 *3942:SET_B *3790:B1 0.000108516
4 *3942:SET_B *3985:RESET_B 0.000369811
5 *3942:SET_B *627:40 9.65075e-05
6 *3942:SET_B *878:33 6.64457e-05
7 *3942:SET_B *878:43 5.33005e-05
8 *3942:SET_B *892:23 2.92543e-05
9 *3942:SET_B *993:46 0.000606625
10 *3942:SET_B *1030:28 0.00014101
*RES
1 *3790:X *3942:SET_B 29.8893 
*END

*D_NET *202 0.000825431
*CONN
*I *3943:RESET_B I *D sky130_fd_sc_hd__dfrtp_2
*I *3791:X O *D sky130_fd_sc_hd__o21a_2
*CAP
1 *3943:RESET_B 0.000198397
2 *3791:X 0.000198397
3 *3943:RESET_B *3791:A1 5.52238e-05
4 *3943:RESET_B *3791:B1 9.91086e-05
5 *3943:RESET_B *878:33 0.00018471
6 *3943:RESET_B *1035:12 8.95956e-05
*RES
1 *3791:X *3943:RESET_B 23.5143 
*END

*D_NET *203 0.000576161
*CONN
*I *3944:RESET_B I *D sky130_fd_sc_hd__dfrtp_2
*I *3792:X O *D sky130_fd_sc_hd__o21a_2
*CAP
1 *3944:RESET_B 0.000199107
2 *3792:X 0.000199107
3 *3944:RESET_B *993:46 0
4 *3942:D *3944:RESET_B 0.000177948
*RES
1 *3792:X *3944:RESET_B 22.2554 
*END

*D_NET *204 0.00178721
*CONN
*I *3985:RESET_B I *D sky130_fd_sc_hd__dfrtp_2
*I *3793:X O *D sky130_fd_sc_hd__o21a_2
*CAP
1 *3985:RESET_B 0.000261681
2 *3793:X 0.000261681
3 *3985:RESET_B *627:40 0.000419613
4 *3985:RESET_B *889:34 0.00044852
5 *3985:RESET_B *993:46 2.59093e-05
6 *3942:SET_B *3985:RESET_B 0.000369811
*RES
1 *3793:X *3985:RESET_B 27.8179 
*END

*D_NET *205 0.00022953
*CONN
*I *3986:RESET_B I *D sky130_fd_sc_hd__dfrtp_2
*I *3794:X O *D sky130_fd_sc_hd__o21a_2
*CAP
1 *3986:RESET_B 0.000114765
2 *3794:X 0.000114765
3 *3986:RESET_B *879:37 0
4 *3986:RESET_B *879:59 0
5 *3986:RESET_B *1051:20 0
6 *3986:RESET_B *1052:8 0
*RES
1 *3794:X *3986:RESET_B 20.2464 
*END

*D_NET *206 0.00110881
*CONN
*I *3987:RESET_B I *D sky130_fd_sc_hd__dfrtp_2
*I *3795:X O *D sky130_fd_sc_hd__o21a_2
*CAP
1 *3987:RESET_B 0.000363023
2 *3795:X 0.000363023
3 *3987:RESET_B *3507:B 0.000309733
4 *3987:RESET_B *3990:CLK 0
5 *3988:D *3987:RESET_B 7.30285e-05
6 *3989:D *3987:RESET_B 0
*RES
1 *3795:X *3987:RESET_B 24.0679 
*END

*D_NET *207 0.000317621
*CONN
*I *3988:RESET_B I *D sky130_fd_sc_hd__dfrtp_2
*I *3796:X O *D sky130_fd_sc_hd__o21a_2
*CAP
1 *3988:RESET_B 0.000104264
2 *3796:X 0.000104264
3 *3988:RESET_B *3510:C1 0
4 *3988:RESET_B *890:27 2.51935e-05
5 *3988:RESET_B *890:29 8.39e-05
*RES
1 *3796:X *3988:RESET_B 20.7196 
*END

*D_NET *208 0.000328863
*CONN
*I *3989:RESET_B I *D sky130_fd_sc_hd__dfrtp_2
*I *3797:X O *D sky130_fd_sc_hd__o21a_2
*CAP
1 *3989:RESET_B 0.000164431
2 *3797:X 0.000164431
*RES
1 *3797:X *3989:RESET_B 11.8268 
*END

*D_NET *209 0.00021169
*CONN
*I *3990:RESET_B I *D sky130_fd_sc_hd__dfrtp_2
*I *3798:X O *D sky130_fd_sc_hd__o21a_2
*CAP
1 *3990:RESET_B 5.33579e-05
2 *3798:X 5.33579e-05
3 *3990:RESET_B *3510:C1 0
4 *3990:RESET_B *890:79 0.000104974
*RES
1 *3798:X *3990:RESET_B 19.6393 
*END

*D_NET *210 0.000390026
*CONN
*I *3991:RESET_B I *D sky130_fd_sc_hd__dfrtp_2
*I *3799:X O *D sky130_fd_sc_hd__o21a_2
*CAP
1 *3991:RESET_B 9.47408e-05
2 *3799:X 9.47408e-05
3 *3991:RESET_B *3406:A1 0
4 *3991:RESET_B *3414:A 2.59355e-05
5 *3991:RESET_B *3799:B1 9.91224e-05
6 *3991:RESET_B *625:21 7.54868e-05
*RES
1 *3799:X *3991:RESET_B 20.175 
*END

*D_NET *211 0.00040461
*CONN
*I *3992:RESET_B I *D sky130_fd_sc_hd__dfrtp_2
*I *3800:X O *D sky130_fd_sc_hd__o21a_2
*CAP
1 *3992:RESET_B 0.000117342
2 *3800:X 0.000117342
3 *3992:RESET_B *3800:B1 6.05161e-06
4 *3992:RESET_B *3995:CLK 3.05522e-05
5 *3992:RESET_B *625:53 3.19595e-05
6 *3992:RESET_B *641:124 0.000101363
*RES
1 *3800:X *3992:RESET_B 20.5857 
*END

*D_NET *212 0.000451966
*CONN
*I *3993:RESET_B I *D sky130_fd_sc_hd__dfrtp_2
*I *3801:X O *D sky130_fd_sc_hd__o21a_2
*CAP
1 *3993:RESET_B 0.000155119
2 *3801:X 0.000155119
3 *3993:RESET_B *1059:10 0.000141729
*RES
1 *3801:X *3993:RESET_B 11.8268 
*END

*D_NET *213 0.000344824
*CONN
*I *3994:RESET_B I *D sky130_fd_sc_hd__dfrtp_2
*I *3802:X O *D sky130_fd_sc_hd__o21a_2
*CAP
1 *3994:RESET_B 8.25839e-05
2 *3802:X 8.25839e-05
3 *3994:RESET_B *3802:B1 0.000179656
*RES
1 *3802:X *3994:RESET_B 20.55 
*END

*D_NET *214 0.000504797
*CONN
*I *3995:RESET_B I *D sky130_fd_sc_hd__dfrtp_2
*I *3803:X O *D sky130_fd_sc_hd__o21a_2
*CAP
1 *3995:RESET_B 0.00010546
2 *3803:X 0.00010546
3 *3995:RESET_B *3803:B1 0.000118365
4 *3995:RESET_B *387:14 0.000175512
*RES
1 *3803:X *3995:RESET_B 21.0857 
*END

*D_NET *215 0.000161347
*CONN
*I *3996:SET_B I *D sky130_fd_sc_hd__dfstp_2
*I *3804:X O *D sky130_fd_sc_hd__o21a_2
*CAP
1 *3996:SET_B 8.06735e-05
2 *3804:X 8.06735e-05
3 *3996:SET_B *3996:D 0
4 *3996:SET_B *628:42 0
*RES
1 *3804:X *3996:SET_B 19.6393 
*END

*D_NET *216 0.000309127
*CONN
*I *3997:RESET_B I *D sky130_fd_sc_hd__dfrtp_2
*I *3805:X O *D sky130_fd_sc_hd__o21a_2
*CAP
1 *3997:RESET_B 0.000102933
2 *3805:X 0.000102933
3 *3997:RESET_B *644:77 0.00010326
4 *3997:RESET_B *877:48 0
*RES
1 *3805:X *3997:RESET_B 20.175 
*END

*D_NET *217 0.00254795
*CONN
*I *3998:RESET_B I *D sky130_fd_sc_hd__dfrtp_2
*I *3806:X O *D sky130_fd_sc_hd__o21a_2
*CAP
1 *3998:RESET_B 0.000628087
2 *3806:X 0.000628087
3 *3998:RESET_B *3337:A 0.00012501
4 *3998:RESET_B *3361:B 0
5 *3998:RESET_B *3430:B2 0.000295144
6 *3998:RESET_B *3469:A1 0.000465243
7 *3998:RESET_B *3679:B1 0
8 *3998:RESET_B *3686:B1 0
9 *3998:RESET_B *3806:A1 0.000135028
10 *3998:RESET_B *3927:D 0
11 *3998:RESET_B *880:21 0.000271352
12 *3927:RESET_B *3998:RESET_B 0
*RES
1 *3806:X *3998:RESET_B 31.6571 
*END

*D_NET *218 0.000619084
*CONN
*I *3999:RESET_B I *D sky130_fd_sc_hd__dfrtp_2
*I *3807:X O *D sky130_fd_sc_hd__o21a_2
*CAP
1 *3999:RESET_B 0.000219443
2 *3807:X 0.000219443
3 *3999:RESET_B *3823:A1 0
4 *3999:RESET_B *3999:CLK 4.96254e-05
5 *3999:RESET_B *883:10 0
6 *3999:RESET_B *902:66 0.000126439
7 *3529:A2 *3999:RESET_B 0
8 *3999:D *3999:RESET_B 4.1331e-06
*RES
1 *3807:X *3999:RESET_B 22.5768 
*END

*D_NET *219 0.000430724
*CONN
*I *4000:RESET_B I *D sky130_fd_sc_hd__dfrtp_2
*I *3808:X O *D sky130_fd_sc_hd__o21a_2
*CAP
1 *4000:RESET_B 0.000208341
2 *3808:X 0.000208341
3 *4000:RESET_B *1078:8 1.40415e-05
*RES
1 *3808:X *4000:RESET_B 12.2375 
*END

*D_NET *220 0.000639567
*CONN
*I *4001:RESET_B I *D sky130_fd_sc_hd__dfrtp_2
*I *3809:X O *D sky130_fd_sc_hd__o21a_2
*CAP
1 *4001:RESET_B 0.000108743
2 *3809:X 0.000108743
3 *4001:RESET_B *3532:A 2.56694e-05
4 *4001:RESET_B *882:58 3.34295e-05
5 *4001:RESET_B *1078:10 6.85604e-05
6 *4001:RESET_B *1087:10 0.000294422
*RES
1 *3809:X *4001:RESET_B 22.0679 
*END

*D_NET *221 0.000321736
*CONN
*I *4002:RESET_B I *D sky130_fd_sc_hd__dfrtp_2
*I *3810:X O *D sky130_fd_sc_hd__o21a_2
*CAP
1 *4002:RESET_B 6.93892e-05
2 *3810:X 6.93892e-05
3 *4002:RESET_B *3810:B1 9.14786e-05
4 *4002:RESET_B *479:10 9.14786e-05
*RES
1 *3810:X *4002:RESET_B 20.55 
*END

*D_NET *222 0.000326701
*CONN
*I *4003:RESET_B I *D sky130_fd_sc_hd__dfrtp_2
*I *3811:X O *D sky130_fd_sc_hd__o21a_2
*CAP
1 *4003:RESET_B 0.000103654
2 *3811:X 0.000103654
3 *4003:RESET_B *656:109 1.85616e-05
4 *4003:RESET_B *902:96 0.000100831
*RES
1 *3811:X *4003:RESET_B 20.175 
*END

*D_NET *223 0.000311216
*CONN
*I *4004:RESET_B I *D sky130_fd_sc_hd__dfrtp_2
*I *3812:X O *D sky130_fd_sc_hd__o21a_2
*CAP
1 *4004:RESET_B 0.000100161
2 *3812:X 0.000100161
3 *4004:RESET_B *656:89 3.2534e-05
4 *4004:RESET_B *1082:14 7.83587e-05
*RES
1 *3812:X *4004:RESET_B 20.175 
*END

*D_NET *224 0.000839936
*CONN
*I *4005:RESET_B I *D sky130_fd_sc_hd__dfrtp_2
*I *3813:X O *D sky130_fd_sc_hd__o21a_2
*CAP
1 *4005:RESET_B 0.00020527
2 *3813:X 0.00020527
3 *4005:RESET_B *4006:RESET_B 4.79842e-05
4 *4005:RESET_B *656:78 0.000367382
5 *4005:RESET_B *657:53 1.40306e-05
6 *4005:RESET_B *1084:10 0
*RES
1 *3813:X *4005:RESET_B 23.5143 
*END

*D_NET *225 0.00060585
*CONN
*I *4006:RESET_B I *D sky130_fd_sc_hd__dfrtp_2
*I *3814:X O *D sky130_fd_sc_hd__o21a_2
*CAP
1 *4006:RESET_B 0.000233626
2 *3814:X 0.000233626
3 *4006:RESET_B *490:8 0
4 *4006:RESET_B *656:69 0
5 *4006:RESET_B *656:78 0
6 *4006:RESET_B *657:53 3.34672e-05
7 *4006:RESET_B *881:103 5.71472e-05
8 *4005:RESET_B *4006:RESET_B 4.79842e-05
*RES
1 *3814:X *4006:RESET_B 22.9071 
*END

*D_NET *226 0.000388132
*CONN
*I *4007:RESET_B I *D sky130_fd_sc_hd__dfrtp_2
*I *3815:X O *D sky130_fd_sc_hd__o21a_2
*CAP
1 *4007:RESET_B 4.17331e-05
2 *3815:X 4.17331e-05
3 *4007:RESET_B *881:90 0.000152333
4 *4007:RESET_B *896:123 0.000152333
*RES
1 *3815:X *4007:RESET_B 20.2464 
*END

*D_NET *227 0.00102462
*CONN
*I *4008:RESET_B I *D sky130_fd_sc_hd__dfrtp_2
*I *3816:X O *D sky130_fd_sc_hd__o21a_2
*CAP
1 *4008:RESET_B 0.00031135
2 *3816:X 0.00031135
3 *4008:RESET_B *3554:B1 7.74135e-05
4 *4008:RESET_B *613:82 7.58841e-05
5 *4008:RESET_B *655:14 0.000145231
6 *4008:RESET_B *881:23 5.50052e-05
7 *4008:RESET_B *1086:8 4.83905e-05
*RES
1 *3816:X *4008:RESET_B 23.7732 
*END

*D_NET *228 0.00278554
*CONN
*I *4009:RESET_B I *D sky130_fd_sc_hd__dfrtp_2
*I *3817:X O *D sky130_fd_sc_hd__o21a_2
*CAP
1 *4009:RESET_B 0.00042702
2 *3817:X 0.00042702
3 *4009:RESET_B *3817:A2 0.000721098
4 *4009:RESET_B *656:10 0
5 *4009:RESET_B *657:23 0.000762762
6 *4009:RESET_B *896:10 0.000447638
7 *4009:RESET_B *1118:14 0
*RES
1 *3817:X *4009:RESET_B 33.3 
*END

*D_NET *229 0.000880211
*CONN
*I *4010:RESET_B I *D sky130_fd_sc_hd__dfrtp_2
*I *3818:X O *D sky130_fd_sc_hd__o21a_2
*CAP
1 *4010:RESET_B 0.000125745
2 *3818:X 0.000125745
3 *4010:RESET_B *3553:B1 7.50601e-05
4 *4010:RESET_B *3554:A2 0.000200137
5 *4010:RESET_B *3554:B1 0.000176958
6 *4010:RESET_B *493:18 0.000170661
7 *4010:RESET_B *613:97 5.90443e-06
8 *4010:RESET_B *904:111 0
*RES
1 *3818:X *4010:RESET_B 22.9786 
*END

*D_NET *230 0.000378638
*CONN
*I *4011:RESET_B I *D sky130_fd_sc_hd__dfrtp_2
*I *3819:X O *D sky130_fd_sc_hd__o21a_2
*CAP
1 *4011:RESET_B 5.33292e-05
2 *3819:X 5.33292e-05
3 *4011:RESET_B *3820:A1 0.000177234
4 *4011:RESET_B *904:57 9.47456e-05
*RES
1 *3819:X *4011:RESET_B 20.55 
*END

*D_NET *231 0.00151436
*CONN
*I *4012:RESET_B I *D sky130_fd_sc_hd__dfrtp_2
*I *3820:X O *D sky130_fd_sc_hd__o21a_2
*CAP
1 *4012:RESET_B 0.000199252
2 *3820:X 0.000199252
3 *4012:RESET_B *3820:A1 0.00035086
4 *4012:RESET_B *3820:A2 5.74499e-06
5 *4012:RESET_B *3820:B1 9.71197e-05
6 *4012:RESET_B *4084:A 0.000265447
7 *4012:RESET_B *904:57 0.00020042
8 *4012:RESET_B *904:63 0.000196262
*RES
1 *3820:X *4012:RESET_B 25.8714 
*END

*D_NET *232 0.000520213
*CONN
*I *4013:RESET_B I *D sky130_fd_sc_hd__dfrtp_2
*I *3821:X O *D sky130_fd_sc_hd__o21a_2
*CAP
1 *4013:RESET_B 0.000237751
2 *3821:X 0.000237751
3 *4013:RESET_B *3650:A1 9.25014e-06
4 *4013:RESET_B *3822:B1 0
5 *4013:RESET_B *4128:A 0
6 *4013:RESET_B *1076:12 3.54619e-05
*RES
1 *3821:X *4013:RESET_B 22.4518 
*END

*D_NET *233 0.00103716
*CONN
*I *4014:RESET_B I *D sky130_fd_sc_hd__dfrtp_2
*I *3822:X O *D sky130_fd_sc_hd__o21a_2
*CAP
1 *4014:RESET_B 0.000277669
2 *3822:X 0.000277669
3 *4014:RESET_B *3571:A1 0.000151333
4 *4014:RESET_B *3820:A2 0
5 *4014:RESET_B *4014:CLK 0.000133233
6 *4014:RESET_B *1076:12 8.00806e-05
7 *4014:RESET_B *1077:8 1.07719e-05
8 *4014:RESET_B *1077:27 0.000106403
*RES
1 *3822:X *4014:RESET_B 24.2732 
*END

*D_NET *234 0.00114909
*CONN
*I *4015:RESET_B I *D sky130_fd_sc_hd__dfrtp_2
*I *3823:X O *D sky130_fd_sc_hd__o21a_2
*CAP
1 *4015:RESET_B 0.000306558
2 *3823:X 0.000306558
3 *4015:RESET_B *3781:B1 0.000117994
4 *4015:RESET_B *3823:A2 0
5 *4015:RESET_B *3823:B1 5.26184e-05
6 *4015:RESET_B *3951:CLK 0.00010096
7 *4015:RESET_B *4020:RESET_B 2.7505e-05
8 *4015:RESET_B *4141:A 9.48025e-05
9 *4015:RESET_B *888:43 0.00014209
10 *4015:RESET_B *898:126 0
*RES
1 *3823:X *4015:RESET_B 25.4429 
*END

*D_NET *235 0.000745351
*CONN
*I *4016:SET_B I *D sky130_fd_sc_hd__dfstp_2
*I *3824:X O *D sky130_fd_sc_hd__o21a_2
*CAP
1 *4016:SET_B 7.58241e-05
2 *3824:X 7.58241e-05
3 *4016:SET_B *3661:A1 0.000296852
4 *4016:SET_B *3998:D 0.000296852
*RES
1 *3824:X *4016:SET_B 22.0679 
*END

*D_NET *236 0.00101802
*CONN
*I *4017:RESET_B I *D sky130_fd_sc_hd__dfrtp_2
*I *3825:X O *D sky130_fd_sc_hd__o21a_2
*CAP
1 *4017:RESET_B 0.000286113
2 *3825:X 0.000286113
3 *4017:RESET_B *4019:RESET_B 0
4 *4017:RESET_B *365:16 3.4879e-05
5 *4017:RESET_B *902:66 9.60939e-05
6 *4017:RESET_B *991:10 0.000307028
7 *3980:D *4017:RESET_B 7.79781e-06
*RES
1 *3825:X *4017:RESET_B 24.0946 
*END

*D_NET *237 0.000553074
*CONN
*I *4018:RESET_B I *D sky130_fd_sc_hd__dfrtp_2
*I *3826:X O *D sky130_fd_sc_hd__o21a_2
*CAP
1 *4018:RESET_B 0.000220755
2 *3826:X 0.000220755
3 *4018:RESET_B *610:25 0
4 *4018:RESET_B *658:10 7.58571e-05
5 *4018:RESET_B *658:36 3.5707e-05
*RES
1 *3826:X *4018:RESET_B 22.6036 
*END

*D_NET *238 0.000464047
*CONN
*I *4019:RESET_B I *D sky130_fd_sc_hd__dfrtp_2
*I *3827:X O *D sky130_fd_sc_hd__o21a_2
*CAP
1 *4019:RESET_B 0.000204409
2 *3827:X 0.000204409
3 *4019:RESET_B *3896:RESET_B 5.52302e-05
4 *4019:RESET_B *4019:CLK 0
5 *4019:RESET_B *603:13 0
6 *4019:RESET_B *991:10 0
7 *4017:RESET_B *4019:RESET_B 0
*RES
1 *3827:X *4019:RESET_B 21.6929 
*END

*D_NET *239 0.000998552
*CONN
*I *4020:RESET_B I *D sky130_fd_sc_hd__dfrtp_2
*I *3828:X O *D sky130_fd_sc_hd__o21a_2
*CAP
1 *4020:RESET_B 0.000367606
2 *3828:X 0.000367606
3 *4020:RESET_B *4141:A 9.48025e-05
4 *4020:RESET_B *888:43 3.34295e-05
5 *4020:RESET_B *898:126 6.58195e-05
6 *4020:RESET_B *980:12 4.17828e-05
7 *4015:RESET_B *4020:RESET_B 2.7505e-05
*RES
1 *3828:X *4020:RESET_B 25.1304 
*END

*D_NET *240 0.000341873
*CONN
*I *4021:RESET_B I *D sky130_fd_sc_hd__dfrtp_2
*I *3829:X O *D sky130_fd_sc_hd__o21a_2
*CAP
1 *4021:RESET_B 8.11086e-05
2 *3829:X 8.11086e-05
3 *4021:RESET_B *3573:A1 0.000179656
4 *4021:RESET_B *4283:A 0
5 *4021:RESET_B *903:12 0
6 *4021:RESET_B *1097:10 0
*RES
1 *3829:X *4021:RESET_B 20.55 
*END

*D_NET *241 0.000878984
*CONN
*I *4022:RESET_B I *D sky130_fd_sc_hd__dfrtp_2
*I *3830:X O *D sky130_fd_sc_hd__o21a_2
*CAP
1 *4022:RESET_B 0.00015388
2 *3830:X 0.00015388
3 *4022:RESET_B *4023:RESET_B 0.000179656
4 *4022:RESET_B *610:47 0.000391568
5 *4022:RESET_B *662:80 0
*RES
1 *3830:X *4022:RESET_B 23.2821 
*END

*D_NET *242 0.000551861
*CONN
*I *4023:RESET_B I *D sky130_fd_sc_hd__dfrtp_2
*I *3831:X O *D sky130_fd_sc_hd__o21a_2
*CAP
1 *4023:RESET_B 0.000155741
2 *3831:X 0.000155741
3 *4023:RESET_B *610:47 6.07232e-05
4 *4023:RESET_B *662:80 0
5 *4022:RESET_B *4023:RESET_B 0.000179656
6 *4023:D *4023:RESET_B 0
*RES
1 *3831:X *4023:RESET_B 22.0679 
*END

*D_NET *243 0.00115351
*CONN
*I *4024:RESET_B I *D sky130_fd_sc_hd__dfrtp_2
*I *3832:X O *D sky130_fd_sc_hd__o21a_2
*CAP
1 *4024:RESET_B 0.000290868
2 *3832:X 0.000290868
3 *4024:RESET_B *4145:A 5.71472e-05
4 *4024:RESET_B *4158:A 0.000222885
5 *4024:RESET_B *460:10 5.29461e-05
6 *4024:RESET_B *901:51 7.46814e-05
7 *4024:RESET_B *1104:10 5.75803e-05
8 *4024:RESET_B *1105:21 0.000106533
*RES
1 *3832:X *4024:RESET_B 25.9429 
*END

*D_NET *244 0.000903292
*CONN
*I *4025:RESET_B I *D sky130_fd_sc_hd__dfrtp_2
*I *3833:X O *D sky130_fd_sc_hd__o21a_2
*CAP
1 *4025:RESET_B 0.000253807
2 *3833:X 0.000253807
3 *4025:RESET_B *3497:A2 0.000152333
4 *4025:RESET_B *3497:C1 7.99137e-05
5 *4025:RESET_B *610:19 6.74911e-05
6 *4025:RESET_B *660:64 7.8327e-05
7 *4025:RESET_B *1107:10 1.76135e-05
8 *4025:RESET_B *1109:46 0
*RES
1 *3833:X *4025:RESET_B 24.4964 
*END

*D_NET *245 0.000887096
*CONN
*I *4026:RESET_B I *D sky130_fd_sc_hd__dfrtp_2
*I *3834:X O *D sky130_fd_sc_hd__o21a_2
*CAP
1 *4026:RESET_B 0.000205363
2 *3834:X 0.000205363
3 *4026:RESET_B *3636:A1 8.00806e-05
4 *4026:RESET_B *4025:CLK 0
5 *4026:RESET_B *661:30 0.000367389
6 *4026:RESET_B *902:96 2.89016e-05
*RES
1 *3834:X *4026:RESET_B 23.5143 
*END

*D_NET *246 0.000448081
*CONN
*I *4027:RESET_B I *D sky130_fd_sc_hd__dfrtp_2
*I *3835:X O *D sky130_fd_sc_hd__o21a_2
*CAP
1 *4027:RESET_B 6.80443e-05
2 *3835:X 6.80443e-05
3 *4027:RESET_B *661:30 0.000227021
4 *4027:RESET_B *886:87 8.49707e-05
*RES
1 *3835:X *4027:RESET_B 21.1571 
*END

*D_NET *247 0.00080445
*CONN
*I *4028:RESET_B I *D sky130_fd_sc_hd__dfrtp_2
*I *3836:X O *D sky130_fd_sc_hd__o21a_2
*CAP
1 *4028:RESET_B 0.000376985
2 *3836:X 0.000376985
3 *4028:RESET_B *4025:CLK 0
4 *4028:RESET_B *4027:CLK 0
5 *4028:RESET_B *511:50 0
6 *4028:RESET_B *661:30 0
7 *4028:RESET_B *1110:14 5.048e-05
8 *4027:D *4028:RESET_B 0
*RES
1 *3836:X *4028:RESET_B 24.3982 
*END

*D_NET *248 0.000572194
*CONN
*I *4029:RESET_B I *D sky130_fd_sc_hd__dfrtp_2
*I *3837:X O *D sky130_fd_sc_hd__o21a_2
*CAP
1 *4029:RESET_B 0.000109841
2 *3837:X 0.000109841
3 *4029:RESET_B *3598:B1 0.000118775
4 *4029:RESET_B *661:83 0.000106299
5 *4029:RESET_B *1112:14 0.000127439
*RES
1 *3837:X *4029:RESET_B 22.3714 
*END

*D_NET *249 0.000716639
*CONN
*I *4030:RESET_B I *D sky130_fd_sc_hd__dfrtp_2
*I *3838:X O *D sky130_fd_sc_hd__o21a_2
*CAP
1 *4030:RESET_B 0.000312481
2 *3838:X 0.000312481
3 *4030:RESET_B *886:111 0
4 *4030:RESET_B *1112:14 9.1677e-05
*RES
1 *3838:X *4030:RESET_B 23.7018 
*END

*D_NET *250 0.00045582
*CONN
*I *4031:RESET_B I *D sky130_fd_sc_hd__dfrtp_2
*I *3839:X O *D sky130_fd_sc_hd__o21a_2
*CAP
1 *4031:RESET_B 0.000140158
2 *3839:X 0.000140158
3 *4031:RESET_B *3599:A2 0
4 *4031:RESET_B *661:94 0.000175505
*RES
1 *3839:X *4031:RESET_B 21.0857 
*END

*D_NET *251 0.000345869
*CONN
*I *4032:RESET_B I *D sky130_fd_sc_hd__dfrtp_2
*I *3840:X O *D sky130_fd_sc_hd__o21a_2
*CAP
1 *4032:RESET_B 0.000158484
2 *3840:X 0.000158484
3 *4032:RESET_B *3840:A1 0
4 *4032:RESET_B *3840:B1 2.89016e-05
5 *4032:RESET_B *4032:CLK 0
*RES
1 *3840:X *4032:RESET_B 20.7821 
*END

*D_NET *252 0.000309117
*CONN
*I *4033:RESET_B I *D sky130_fd_sc_hd__dfrtp_2
*I *3841:X O *D sky130_fd_sc_hd__o21a_2
*CAP
1 *4033:RESET_B 0.000133643
2 *3841:X 0.000133643
3 *4033:RESET_B *466:12 0
4 *4033:RESET_B *609:12 1.66373e-05
5 *4033:RESET_B *901:107 0
6 *4033:RESET_B *1100:10 2.51935e-05
*RES
1 *3841:X *4033:RESET_B 20.7196 
*END

*D_NET *253 0.000274189
*CONN
*I *4034:RESET_B I *D sky130_fd_sc_hd__dfrtp_2
*I *3842:X O *D sky130_fd_sc_hd__o21a_2
*CAP
1 *4034:RESET_B 8.80931e-05
2 *3842:X 8.80931e-05
3 *4034:RESET_B *3842:B1 9.80029e-05
4 *4034:D *4034:RESET_B 0
*RES
1 *3842:X *4034:RESET_B 20.55 
*END

*D_NET *254 0.000559163
*CONN
*I *4035:RESET_B I *D sky130_fd_sc_hd__dfrtp_2
*I *3843:X O *D sky130_fd_sc_hd__o21a_2
*CAP
1 *4035:RESET_B 0.000179956
2 *3843:X 0.000179956
3 *4035:RESET_B *3614:A2 6.05161e-06
4 *4035:RESET_B *3616:A 1.40034e-05
5 *4035:RESET_B *3843:A2 3.69047e-06
6 *4035:RESET_B *4036:RESET_B 0.000175505
7 *4035:RESET_B *531:38 0
*RES
1 *3843:X *4035:RESET_B 21.4964 
*END

*D_NET *255 0.00108509
*CONN
*I *4036:RESET_B I *D sky130_fd_sc_hd__dfrtp_2
*I *3844:X O *D sky130_fd_sc_hd__o21a_2
*CAP
1 *4036:RESET_B 0.000208236
2 *3844:X 0.000208236
3 *4036:RESET_B *3614:A1 0
4 *4036:RESET_B *3614:A2 0
5 *4036:RESET_B *3844:A2 0.000125731
6 *4036:RESET_B *531:38 0
7 *4036:RESET_B *899:116 0.000367382
8 *4035:RESET_B *4036:RESET_B 0.000175505
*RES
1 *3844:X *4036:RESET_B 24.4964 
*END

*D_NET *256 0.00100075
*CONN
*I *4037:RESET_B I *D sky130_fd_sc_hd__dfrtp_2
*I *3845:X O *D sky130_fd_sc_hd__o21a_2
*CAP
1 *4037:RESET_B 0.0002329
2 *3845:X 0.0002329
3 *4037:RESET_B *3930:CLK 1.19309e-05
4 *4037:RESET_B *4043:RESET_B 0.000103267
5 *4037:RESET_B *628:93 5.41797e-06
6 *4037:RESET_B *628:97 4.8476e-05
7 *4037:RESET_B *628:127 9.87983e-06
8 *4037:RESET_B *885:62 0
9 *4037:RESET_B *885:93 0
10 *4037:RESET_B *899:82 0.000292715
11 *4039:D *4037:RESET_B 6.32633e-05
*RES
1 *3845:X *4037:RESET_B 24.4964 
*END

*D_NET *257 0.000483939
*CONN
*I *4038:SET_B I *D sky130_fd_sc_hd__dfstp_2
*I *3846:X O *D sky130_fd_sc_hd__o21a_2
*CAP
1 *4038:SET_B 0.00012183
2 *3846:X 0.00012183
3 *4038:SET_B *3390:A1 3.34366e-05
4 *4038:SET_B *3398:A 0.000177941
5 *4038:SET_B *3846:A1 0
6 *4038:SET_B *3846:B1 2.89016e-05
*RES
1 *3846:X *4038:SET_B 21.0857 
*END

*D_NET *258 0.000226207
*CONN
*I *4039:RESET_B I *D sky130_fd_sc_hd__dfrtp_2
*I *3847:X O *D sky130_fd_sc_hd__o21a_2
*CAP
1 *4039:RESET_B 5.35308e-05
2 *3847:X 5.35308e-05
3 *4039:RESET_B *607:78 0.000104974
4 *4039:RESET_B *885:62 1.41706e-05
*RES
1 *3847:X *4039:RESET_B 19.6393 
*END

*D_NET *259 0.000681672
*CONN
*I *4040:RESET_B I *D sky130_fd_sc_hd__dfrtp_2
*I *3848:X O *D sky130_fd_sc_hd__o21a_2
*CAP
1 *4040:RESET_B 0.000161035
2 *3848:X 0.000161035
3 *4040:RESET_B *3434:A 6.04162e-05
4 *4040:RESET_B *4040:CLK 2.29097e-05
5 *4040:RESET_B *892:62 9.90431e-05
6 *3916:RESET_B *4040:RESET_B 0.000177234
*RES
1 *3848:X *4040:RESET_B 21.9696 
*END

*D_NET *260 0.000292387
*CONN
*I *4041:RESET_B I *D sky130_fd_sc_hd__dfrtp_2
*I *3849:X O *D sky130_fd_sc_hd__o21a_2
*CAP
1 *4041:RESET_B 6.63825e-05
2 *3849:X 6.63825e-05
3 *4041:RESET_B *4094:A 6.48863e-05
4 *4041:RESET_B *643:76 9.4736e-05
*RES
1 *3849:X *4041:RESET_B 20.55 
*END

*D_NET *261 0.000318771
*CONN
*I *4042:RESET_B I *D sky130_fd_sc_hd__dfrtp_2
*I *3850:X O *D sky130_fd_sc_hd__o21a_2
*CAP
1 *4042:RESET_B 0.000123129
2 *3850:X 0.000123129
3 *4042:RESET_B *3749:A1 0
4 *11:10 *4042:RESET_B 7.25126e-05
*RES
1 *3850:X *4042:RESET_B 20.4786 
*END

*D_NET *262 0.00123583
*CONN
*I *4043:RESET_B I *D sky130_fd_sc_hd__dfrtp_2
*I *3851:X O *D sky130_fd_sc_hd__o21a_2
*CAP
1 *4043:RESET_B 0.000494925
2 *3851:X 0.000494925
3 *4043:RESET_B *4100:A 5.33978e-05
4 *4043:RESET_B *628:91 1.46624e-05
5 *4043:RESET_B *659:6 3.88168e-05
6 *4043:RESET_B *659:16 2.40379e-05
7 *4043:RESET_B *659:58 0
8 *4043:RESET_B *885:93 0
9 *4043:RESET_B *899:82 1.17968e-05
10 *4043:RESET_B *901:59 0
11 *4037:RESET_B *4043:RESET_B 0.000103267
*RES
1 *3851:X *4043:RESET_B 26.6482 
*END

*D_NET *263 0.000298805
*CONN
*I *4044:RESET_B I *D sky130_fd_sc_hd__dfrtp_2
*I *3852:X O *D sky130_fd_sc_hd__o21a_2
*CAP
1 *4044:RESET_B 0.000133469
2 *3852:X 0.000133469
3 *4044:RESET_B *3391:A2 3.18676e-05
4 *4044:RESET_B *3853:A2 0
5 *4044:RESET_B *659:90 0
6 *4044:RESET_B *1028:8 0
*RES
1 *3852:X *4044:RESET_B 20.4786 
*END

*D_NET *264 0.000278976
*CONN
*I *4045:RESET_B I *D sky130_fd_sc_hd__dfrtp_2
*I *3853:X O *D sky130_fd_sc_hd__o21a_2
*CAP
1 *4045:RESET_B 8.8996e-05
2 *3853:X 8.8996e-05
3 *4045:RESET_B *4044:D 4.85567e-05
4 *50:8 *4045:RESET_B 5.24274e-05
*RES
1 *3853:X *4045:RESET_B 20.1125 
*END

*D_NET *265 0.00133827
*CONN
*I *3856:D I *D sky130_fd_sc_hd__dfrtp_2
*I *3627:X O *D sky130_fd_sc_hd__mux2_1
*CAP
1 *3856:D 0.000331582
2 *3627:X 0.000331582
3 *3856:D *3627:A1 0.000295137
4 *3856:D *3693:A1 0.000314139
5 *3856:D *3857:CLK 6.58289e-05
*RES
1 *3627:X *3856:D 34.3679 
*END

*D_NET *266 0.00120924
*CONN
*I *3857:D I *D sky130_fd_sc_hd__dfrtp_2
*I *3628:X O *D sky130_fd_sc_hd__mux2_1
*CAP
1 *3857:D 0.000282169
2 *3628:X 0.000282169
3 *3857:D *3627:A0 0.000109661
4 *3857:D *852:22 8.43097e-06
5 *3857:D *908:73 0.000227532
6 *4363:A *3857:D 0.000299274
*RES
1 *3628:X *3857:D 33.9571 
*END

*D_NET *267 0.00123334
*CONN
*I *3858:D I *D sky130_fd_sc_hd__dfrtp_2
*I *3629:X O *D sky130_fd_sc_hd__mux2_1
*CAP
1 *3858:D 0.00030008
2 *3629:X 0.00030008
3 *3858:D *3629:A0 0
4 *3858:D *3629:A1 0
5 *3858:D *427:55 6.58289e-05
6 *3858:D *844:14 0.000291137
7 *3858:D *850:26 0.000276211
*RES
1 *3629:X *3858:D 33.9571 
*END

*D_NET *268 0.000629736
*CONN
*I *3859:D I *D sky130_fd_sc_hd__dfrtp_2
*I *3630:X O *D sky130_fd_sc_hd__mux2_1
*CAP
1 *3859:D 0.000160574
2 *3630:X 0.000160574
3 *3859:D *3484:B2 5.33005e-05
4 *3859:D *3691:A1 0.000172737
5 *3859:D *3859:CLK 6.05161e-06
6 *3859:D *620:21 1.98839e-05
7 *3859:D *620:32 5.66157e-05
*RES
1 *3630:X *3859:D 30.9214 
*END

*D_NET *269 0.000890117
*CONN
*I *3860:D I *D sky130_fd_sc_hd__dfrtp_2
*I *3631:X O *D sky130_fd_sc_hd__mux2_1
*CAP
1 *3860:D 0.000174517
2 *3631:X 0.000174517
3 *3860:D *3700:B2 0.000359835
4 *3860:D *853:22 0.000181247
*RES
1 *3631:X *3860:D 32.8143 
*END

*D_NET *270 0.00112342
*CONN
*I *3861:D I *D sky130_fd_sc_hd__dfrtp_2
*I *3632:X O *D sky130_fd_sc_hd__mux2_1
*CAP
1 *3861:D 0.000410562
2 *3632:X 0.000410562
3 *3861:D *3485:A 0.000158484
4 *3861:D *845:6 0.000114902
5 *3861:D *854:26 0
6 *4360:A *3861:D 2.89114e-05
*RES
1 *3632:X *3861:D 33.5821 
*END

*D_NET *271 0.000376499
*CONN
*I *3862:D I *D sky130_fd_sc_hd__dfrtp_2
*I *3633:X O *D sky130_fd_sc_hd__mux2_1
*CAP
1 *3862:D 0.000152439
2 *3633:X 0.000152439
3 *3862:D *3632:A0 0
4 *3862:D *3687:B1 3.2534e-05
5 *3862:D *908:18 3.30352e-05
6 *4360:A *3862:D 6.05161e-06
*RES
1 *3633:X *3862:D 29.8857 
*END

*D_NET *272 0.00569763
*CONN
*I *4246:A I *D sky130_fd_sc_hd__dlygate4sd3_1
*I *3395:X O *D sky130_fd_sc_hd__or3_2
*CAP
1 *4246:A 0.000553617
2 *3395:X 0.00082128
3 *272:20 0.0013749
4 *4246:A *3554:A2 5.1061e-05
5 *4246:A *3635:B 0
6 *4246:A *3635:C 0.000130761
7 *4246:A *3816:B1 5.36422e-05
8 *4246:A *4065:A 0.000125724
9 *4246:A *896:39 1.5864e-05
10 *4246:A *1010:12 4.58517e-05
11 *4246:A *1118:14 0
12 *272:20 *3395:A 0.000310612
13 *272:20 *3650:A1 7.20644e-05
14 *272:20 *3821:A1 0.00048708
15 *272:20 *3967:D 0.000310605
16 *272:20 *655:20 6.42916e-05
17 *272:20 *655:28 0.00040015
18 *272:20 *881:23 9.58632e-05
19 *272:20 *881:29 0.000193995
20 *272:20 *896:45 0.00040105
21 *4174:A *4246:A 0.000189226
*RES
1 *3395:X *272:20 40.9607 
2 *272:20 *4246:A 26.05 
*END

*D_NET *273 0.000853321
*CONN
*I *3864:D I *D sky130_fd_sc_hd__dfrtp_2
*I *3636:X O *D sky130_fd_sc_hd__mux2_1
*CAP
1 *3864:D 0.000167494
2 *3636:X 0.000167494
3 *3864:D *3516:B 0.000331863
4 *3864:D *3865:D 0.000125717
5 *3864:D *900:18 6.07532e-05
*RES
1 *3636:X *3864:D 32.3143 
*END

*D_NET *274 0.00116748
*CONN
*I *3865:D I *D sky130_fd_sc_hd__dfrtp_2
*I *3637:X O *D sky130_fd_sc_hd__mux2_1
*CAP
1 *3865:D 0.00034203
2 *3637:X 0.00034203
3 *3865:D *3855:CLK 0
4 *3865:D *3855:D 5.71472e-05
5 *3865:D *610:98 0
6 *3865:D *661:19 0
7 *3865:D *900:18 0.000142278
8 *3865:D *918:6 5.33005e-05
9 *3855:SET_B *3865:D 0.000104974
10 *3864:D *3865:D 0.000125717
11 *4188:A *3865:D 0
*RES
1 *3637:X *3865:D 34.8679 
*END

*D_NET *275 0.00117217
*CONN
*I *3866:D I *D sky130_fd_sc_hd__dfrtp_2
*I *3638:X O *D sky130_fd_sc_hd__mux2_1
*CAP
1 *3866:D 0.000478579
2 *3638:X 0.000478579
3 *3866:D *3638:A0 0
4 *3866:D *3862:CLK 0
5 *3866:D *3862:RESET_B 4.37999e-05
6 *3866:D *618:20 0
7 *3866:D *646:41 0.000171215
8 *3977:D *3866:D 0
*RES
1 *3638:X *3866:D 35.4571 
*END

*D_NET *276 0.000160787
*CONN
*I *3867:D I *D sky130_fd_sc_hd__dfrtp_2
*I *3639:X O *D sky130_fd_sc_hd__mux2_1
*CAP
1 *3867:D 6.14201e-05
2 *3639:X 6.14201e-05
3 *3867:D *618:109 3.79467e-05
4 *3867:D *981:10 0
*RES
1 *3639:X *3867:D 28.9393 
*END

*D_NET *277 0.00101298
*CONN
*I *3868:D I *D sky130_fd_sc_hd__dfrtp_2
*I *3640:X O *D sky130_fd_sc_hd__mux2_1
*CAP
1 *3868:D 0.000250223
2 *3640:X 0.000250223
3 *3868:D *3646:A1 0.000252947
4 *3868:D *3870:D 5.24438e-05
5 *4333:A *3868:D 0.000207147
6 *4373:A *3868:D 0
*RES
1 *3640:X *3868:D 34.3321 
*END

*D_NET *278 0.000418489
*CONN
*I *3869:D I *D sky130_fd_sc_hd__dfrtp_2
*I *3641:X O *D sky130_fd_sc_hd__mux2_1
*CAP
1 *3869:D 0.00014084
2 *3641:X 0.00014084
3 *3869:D *3707:A 0
4 *3869:D *3869:CLK 6.8646e-06
5 *3869:D *3871:RESET_B 5.33005e-05
6 *3869:D *4310:A 7.6644e-05
7 *3869:D *4396:A 0
*RES
1 *3641:X *3869:D 30.0821 
*END

*D_NET *279 0.00045225
*CONN
*I *3870:D I *D sky130_fd_sc_hd__dfrtp_2
*I *3642:X O *D sky130_fd_sc_hd__mux2_1
*CAP
1 *3870:D 0.000136444
2 *3642:X 0.000136444
3 *3870:D *3642:A0 2.59355e-05
4 *3870:D *3642:A1 8.25843e-06
5 *3870:D *3870:CLK 4.94245e-05
6 *3868:D *3870:D 5.24438e-05
7 *4333:A *3870:D 4.33002e-05
*RES
1 *3642:X *3870:D 30.4929 
*END

*D_NET *280 0.000292356
*CONN
*I *3871:D I *D sky130_fd_sc_hd__dfrtp_2
*I *3643:X O *D sky130_fd_sc_hd__mux2_1
*CAP
1 *3871:D 6.63574e-05
2 *3643:X 6.63574e-05
3 *3871:D *3647:A1 9.47456e-05
4 *3871:D *3875:D 6.48957e-05
*RES
1 *3643:X *3871:D 29.85 
*END

*D_NET *281 0.00143165
*CONN
*I *3872:D I *D sky130_fd_sc_hd__dfrtp_2
*I *3644:X O *D sky130_fd_sc_hd__mux2_1
*CAP
1 *3872:D 0.000399861
2 *3644:X 0.000399861
3 *3872:D *4309:A 0
4 *3872:D *862:22 0.000538493
5 *3872:D *929:10 9.34348e-05
*RES
1 *3644:X *3872:D 37.475 
*END

*D_NET *282 0.000275226
*CONN
*I *3873:D I *D sky130_fd_sc_hd__dfrtp_2
*I *3645:X O *D sky130_fd_sc_hd__mux2_1
*CAP
1 *3873:D 9.19125e-05
2 *3645:X 9.19125e-05
3 o_receive_data[6] *3873:D 5.56943e-05
4 o_receive_data[7] *3873:D 3.5707e-05
*RES
1 *3645:X *3873:D 29.475 
*END

*D_NET *283 0.000716215
*CONN
*I *3874:D I *D sky130_fd_sc_hd__dfrtp_2
*I *3646:X O *D sky130_fd_sc_hd__mux2_1
*CAP
1 *3874:D 0.000179935
2 *3646:X 0.000179935
3 *3874:D *3646:A1 0
4 *3874:D *3868:CLK 9.25014e-06
5 *3874:D *608:33 0.000129868
6 *3874:D *608:42 0.000177941
7 *3874:D *862:22 3.92854e-05
*RES
1 *3646:X *3874:D 31.9036 
*END

*D_NET *284 0.00108922
*CONN
*I *3875:D I *D sky130_fd_sc_hd__dfrtp_2
*I *3647:X O *D sky130_fd_sc_hd__mux2_1
*CAP
1 *3875:D 0.000321203
2 *3647:X 0.000321203
3 *3875:D *3647:A1 0
4 o_receive_data[6] *3875:D 0.000381923
5 *3871:D *3875:D 6.48957e-05
6 *4366:A *3875:D 0
*RES
1 *3647:X *3875:D 34.7429 
*END

*D_NET *285 0.000618063
*CONN
*I *3876:D I *D sky130_fd_sc_hd__dfrtp_2
*I *3650:X O *D sky130_fd_sc_hd__o21a_2
*CAP
1 *3876:D 0.000205811
2 *3650:X 0.000205811
3 *3876:D *613:10 8.3857e-05
4 *3876:D *706:12 0.000100936
5 *3876:D *1012:14 2.16482e-05
*RES
1 *3650:X *3876:D 31.9036 
*END

*D_NET *286 0.00122304
*CONN
*I *3877:D I *D sky130_fd_sc_hd__dfrtp_2
*I *3652:X O *D sky130_fd_sc_hd__o21a_2
*CAP
1 *3877:D 0.000366285
2 *3652:X 0.000366285
3 *3877:D *3652:A2 3.54498e-05
4 *3877:D *3652:B1 2.85234e-05
5 *3877:D *3654:A1 0.000177463
6 *3877:D *3878:CLK 0
7 *3877:D *3878:D 0.000178986
8 *3877:D *4167:A 7.4057e-06
9 *3877:D *4399:A 6.26466e-05
*RES
1 *3652:X *3877:D 36.0643 
*END

*D_NET *287 0.00117459
*CONN
*I *3878:D I *D sky130_fd_sc_hd__dfrtp_2
*I *3654:X O *D sky130_fd_sc_hd__o21a_2
*CAP
1 *3878:D 0.000416568
2 *3654:X 0.000416568
3 *3878:D *3651:A_N 6.02671e-05
4 *3878:D *3653:A_N 0
5 *3878:D *3654:A1 0
6 *3878:D *3654:A2 0
7 *3878:D *4399:A 0.000102197
8 *3878:D *650:10 0
9 *3877:D *3878:D 0.000178986
*RES
1 *3654:X *3878:D 36.5821 
*END

*D_NET *288 0.00115703
*CONN
*I *3879:D I *D sky130_fd_sc_hd__dfrtp_2
*I *3656:X O *D sky130_fd_sc_hd__o21a_2
*CAP
1 *3879:D 0.000268915
2 *3656:X 0.000268915
3 *3879:D *3393:B1_N 7.36733e-05
4 *3879:D *3652:B1 1.32293e-05
5 *3879:D *3656:A1 1.98839e-05
6 *3879:D *3656:B1 4.51148e-05
7 *3879:D *3658:A1 0.000139331
8 *3879:D *4070:A 9.86486e-06
9 *3879:D *614:10 7.73848e-05
10 *3879:D *614:63 0.000115281
11 *3879:D *994:18 0.000125437
*RES
1 *3656:X *3879:D 33.1536 
*END

*D_NET *289 0.00171573
*CONN
*I *3880:D I *D sky130_fd_sc_hd__dfrtp_2
*I *3658:X O *D sky130_fd_sc_hd__o21a_2
*CAP
1 *3880:D 0.000442627
2 *3658:X 0.000442627
3 *3880:D *3393:B1_N 0.000166285
4 *3880:D *3654:B1 9.84673e-05
5 *3880:D *3656:A2 0.000121866
6 *3880:D *3658:A1 1.06328e-05
7 *3880:D *3879:CLK 1.58163e-05
8 *3880:D *3880:CLK 7.48091e-05
9 *3880:D *4067:A 9.71197e-05
10 *3880:D *4167:A 8.51219e-05
11 *3880:D *4258:A 3.51442e-05
12 *3880:D *614:10 1.46893e-05
13 *3880:D *614:12 1.97381e-05
14 *3880:D *994:18 9.07839e-05
*RES
1 *3658:X *3880:D 36.6357 
*END

*D_NET *290 0.00103511
*CONN
*I *3881:D I *D sky130_fd_sc_hd__dfrtp_2
*I *3659:X O *D sky130_fd_sc_hd__mux2_1
*CAP
1 *3881:D 0.000206722
2 *3659:X 0.000206722
3 *3881:D *3659:A0 0.000288386
4 *3881:D *910:60 4.48952e-05
5 *3881:D *992:16 0.000288386
*RES
1 *3659:X *3881:D 32.725 
*END

*D_NET *291 0.000464954
*CONN
*I *3882:D I *D sky130_fd_sc_hd__dfrtp_2
*I *3660:X O *D sky130_fd_sc_hd__mux2_1
*CAP
1 *3882:D 0.0001333
2 *3660:X 0.0001333
3 *3882:D *3660:A1 0.000129868
4 *3882:D *4384:A 5.52302e-05
5 *3882:D *910:60 1.32552e-05
6 *3882:D *992:16 0
*RES
1 *3660:X *3882:D 30.1893 
*END

*D_NET *292 0.00123771
*CONN
*I *3883:D I *D sky130_fd_sc_hd__dfstp_2
*I *3662:X O *D sky130_fd_sc_hd__a21o_2
*CAP
1 *3883:D 0.000221661
2 *3662:X 0.000221661
3 *3883:D *3402:B 0.000317587
4 *3883:D *3662:B1 8.33655e-05
5 *3883:D *4073:TE_B 0.000341781
6 *3883:D *354:20 2.89114e-05
7 *3883:D *643:43 2.27416e-05
8 *3883:D *643:67 0
*RES
1 *3662:X *3883:D 34.6357 
*END

*D_NET *293 0.000659323
*CONN
*I *3884:D I *D sky130_fd_sc_hd__dfxtp_2
*I *3664:X O *D sky130_fd_sc_hd__mux2_1
*CAP
1 *3884:D 0.000258033
2 *3664:X 0.000258033
3 *3884:D *3664:A0 2.89114e-05
4 *3884:D *3664:A1 0
5 *3884:D *3678:S 0
6 *3884:D *4049:RESET_B 7.73758e-05
7 *3884:D *4053:RESET_B 0
8 *3884:D *4285:A 3.69697e-05
*RES
1 *3664:X *3884:D 32.0687 
*END

*D_NET *294 0.0018734
*CONN
*I *3885:D I *D sky130_fd_sc_hd__dfxtp_2
*I *3666:X O *D sky130_fd_sc_hd__mux2_1
*CAP
1 *3885:D 0.000413565
2 *3666:X 0.000413565
3 *3885:D *3666:A0 0.000365256
4 *3885:D *3666:A1 0.000323264
5 *3885:D *3672:A1 0.000125674
6 *3885:D *3888:D 0.00010326
7 *3885:D *359:87 2.06762e-05
8 *3885:D *623:77 0.00010326
9 *3885:D *940:12 4.87669e-06
*RES
1 *3666:X *3885:D 38.5866 
*END

*D_NET *295 0.0010375
*CONN
*I *3886:D I *D sky130_fd_sc_hd__dfxtp_2
*I *3668:X O *D sky130_fd_sc_hd__mux2_1
*CAP
1 *3886:D 0.000252482
2 *3668:X 0.000252482
3 *3886:D *3672:A1 0.00025516
4 *3886:D *3674:A1 7.83659e-05
5 *3886:D *624:59 0.000153047
6 *3886:D *940:12 4.00276e-06
7 o_receive_data[5] *3886:D 4.19548e-05
*RES
1 *3668:X *3886:D 33.7473 
*END

*D_NET *296 0.00123173
*CONN
*I *3887:D I *D sky130_fd_sc_hd__dfxtp_2
*I *3670:X O *D sky130_fd_sc_hd__mux2_1
*CAP
1 *3887:D 0.000223984
2 *3670:X 0.000223984
3 *3887:D *3666:A1 0.000187883
4 *3887:D *3669:A 0.000146116
5 *3887:D *3672:A1 0.000442752
6 *3887:D *624:59 7.01199e-06
*RES
1 *3670:X *3887:D 34.3187 
*END

*D_NET *297 0.000653519
*CONN
*I *3888:D I *D sky130_fd_sc_hd__dfxtp_2
*I *3672:X O *D sky130_fd_sc_hd__mux2_1
*CAP
1 *3888:D 0.000146186
2 *3672:X 0.000146186
3 *3888:D *3672:A1 0.000101545
4 *3888:D *359:87 0.000139907
5 *3888:D *623:77 1.64343e-05
6 *3885:D *3888:D 0.00010326
*RES
1 *3672:X *3888:D 30.4616 
*END

*D_NET *298 0.000689538
*CONN
*I *3889:D I *D sky130_fd_sc_hd__dfxtp_2
*I *3674:X O *D sky130_fd_sc_hd__mux2_1
*CAP
1 *3889:D 0.000187628
2 *3674:X 0.000187628
3 *3889:D *3889:CLK 0.000278574
4 *3889:D *623:60 3.5707e-05
*RES
1 *3674:X *3889:D 31.5688 
*END

*D_NET *299 0.000479445
*CONN
*I *3890:D I *D sky130_fd_sc_hd__dfxtp_2
*I *3676:X O *D sky130_fd_sc_hd__mux2_1
*CAP
1 *3890:D 0.000138023
2 *3676:X 0.000138023
3 *3890:D *3676:S 5.49489e-05
4 *3890:D *640:28 0.000148449
*RES
1 *3676:X *3890:D 30.2473 
*END

*D_NET *300 0.000488308
*CONN
*I *3891:D I *D sky130_fd_sc_hd__dfxtp_2
*I *3678:X O *D sky130_fd_sc_hd__mux2_1
*CAP
1 *3891:D 0.000146754
2 *3678:X 0.000146754
3 *3891:D *3712:B 5.33334e-05
4 *3891:D *3905:CLK 4.57445e-05
5 *3891:D *640:14 1.64343e-05
6 *3891:D *641:10 7.92879e-05
7 *3891:D *646:61 0
*RES
1 *3678:X *3891:D 30.658 
*END

*D_NET *301 0.000194444
*CONN
*I *4250:A I *D sky130_fd_sc_hd__dlygate4sd3_1
*I *3679:X O *D sky130_fd_sc_hd__a22o_2
*CAP
1 *4250:A 9.72221e-05
2 *3679:X 9.72221e-05
*RES
1 *3679:X *4250:A 19.975 
*END

*D_NET *302 0.000741704
*CONN
*I *3893:D I *D sky130_fd_sc_hd__dfrtp_2
*I *3681:Y O *D sky130_fd_sc_hd__nor2_2
*CAP
1 *3893:D 0.000299427
2 *3681:Y 0.000299427
3 *3893:D *3518:A1 0
4 *3893:D *3893:RESET_B 0
5 *3893:D *605:46 0.00014285
6 *3893:D *652:16 0
7 *3976:D *3893:D 0
*RES
1 *3681:Y *3893:D 33.3321 
*END

*D_NET *303 0.000889943
*CONN
*I *3894:D I *D sky130_fd_sc_hd__dfrtp_2
*I *3684:X O *D sky130_fd_sc_hd__a22o_2
*CAP
1 *3894:D 0.00023655
2 *3684:X 0.00023655
3 *3894:D *3685:A1 0.000177948
4 *3894:D *3685:B2 4.038e-06
5 *3894:D *3946:RESET_B 5.01117e-05
6 *3894:D *838:12 0
7 *3973:D *3894:D 0.000184745
*RES
1 *3684:X *3894:D 33.1357 
*END

*D_NET *304 0.000583236
*CONN
*I *3895:D I *D sky130_fd_sc_hd__dfrtp_2
*I *3685:X O *D sky130_fd_sc_hd__a22o_2
*CAP
1 *3895:D 0.000291618
2 *3685:X 0.000291618
*RES
1 *3685:X *3895:D 22.975 
*END

*D_NET *305 0.00111853
*CONN
*I *4202:A I *D sky130_fd_sc_hd__dlygate4sd3_1
*I *3686:X O *D sky130_fd_sc_hd__a21o_2
*CAP
1 *4202:A 0.000235836
2 *3686:X 0.000235836
3 *4202:A *3686:A1 2.89016e-05
4 *4202:A *4164:A 5.5671e-05
5 *4202:A *905:8 0.000562283
*RES
1 *3686:X *4202:A 24.475 
*END

*D_NET *306 0.000678974
*CONN
*I *3897:D I *D sky130_fd_sc_hd__dfrtp_2
*I *3688:X O *D sky130_fd_sc_hd__o21a_2
*CAP
1 *3897:D 0.000287904
2 *3688:X 0.000287904
3 *3897:D *3688:A1 0
4 *3897:D *3688:B1 3.73361e-05
5 *3897:D *618:68 6.58289e-05
*RES
1 *3688:X *3897:D 32.6179 
*END

*D_NET *307 0.00142422
*CONN
*I *3898:D I *D sky130_fd_sc_hd__dfrtp_2
*I *3692:X O *D sky130_fd_sc_hd__a22o_2
*CAP
1 *3898:D 0.00026331
2 *3692:X 0.00026331
3 *3898:D *3620:A2 0.000256412
4 *3898:D *3692:A1 5.68538e-05
5 *3898:D *3696:B1 5.66971e-05
6 *3898:D *4243:A 0.000217505
7 *3898:D *562:14 8.52379e-05
8 *3898:D *562:35 0.000146084
9 *3898:D *569:24 7.88091e-05
*RES
1 *3692:X *3898:D 35.725 
*END

*D_NET *308 0.000628752
*CONN
*I *3899:D I *D sky130_fd_sc_hd__dfrtp_2
*I *3694:X O *D sky130_fd_sc_hd__a22o_2
*CAP
1 *3899:D 0.000175342
2 *3694:X 0.000175342
3 *3899:D *3694:B1 0.00017616
4 *3899:D *562:35 0.000101908
*RES
1 *3694:X *3899:D 30.6313 
*END

*D_NET *309 0.000854117
*CONN
*I *3900:D I *D sky130_fd_sc_hd__dfrtp_2
*I *3696:X O *D sky130_fd_sc_hd__a22o_2
*CAP
1 *3900:D 0.000196717
2 *3696:X 0.000196717
3 *3900:D *3696:A2 0.000124749
4 *3900:D *3696:B1 5.66943e-05
5 *3900:D *434:43 3.29297e-05
6 *3900:D *564:14 7.6623e-05
7 *3900:D *569:24 0.000137639
8 *3900:D *632:12 3.20477e-05
*RES
1 *3696:X *3900:D 31.8143 
*END

*D_NET *310 0.000952573
*CONN
*I *3901:D I *D sky130_fd_sc_hd__dfrtp_2
*I *3698:X O *D sky130_fd_sc_hd__o22a_2
*CAP
1 *3901:D 0.00028144
2 *3698:X 0.00028144
3 *3901:D *3484:B1 9.14132e-05
4 *3901:D *3698:B1 0.000138749
5 *3901:D *3901:CLK 7.8195e-05
6 *3901:D *853:22 4.84073e-05
7 *4368:A *3901:D 3.29297e-05
*RES
1 *3698:X *3901:D 34.1536 
*END

*D_NET *311 0.00221809
*CONN
*I *3902:D I *D sky130_fd_sc_hd__dfrtp_2
*I *3700:X O *D sky130_fd_sc_hd__o22a_2
*CAP
1 *3902:D 0.000783144
2 *3700:X 0.000783144
3 *3902:D *3694:B2 2.29112e-05
4 *3902:D *3902:CLK 3.17465e-05
5 *3902:D *3902:RESET_B 3.78449e-05
6 *3902:D *4092:A 7.74135e-05
7 *3902:D *563:22 0.000481885
*RES
1 *3700:X *3902:D 37.8545 
*END

*D_NET *312 0.00186354
*CONN
*I *3903:D I *D sky130_fd_sc_hd__dfrtp_2
*I *3702:X O *D sky130_fd_sc_hd__o22a_2
*CAP
1 *3903:D 0.000579278
2 *3702:X 0.000579278
3 *3903:D *3473:A 5.65955e-05
4 *3903:D *3473:B 4.13122e-06
5 *3903:D *3698:A2 0.000266968
6 *3903:D *3698:B2 0
7 *3903:D *3702:A2 0.000265396
8 *3903:D *3903:CLK 0.000102739
9 *3903:D *909:29 9.15842e-06
*RES
1 *3702:X *3903:D 38.1937 
*END

*D_NET *313 0.000951366
*CONN
*I *3904:D I *D sky130_fd_sc_hd__dfrtp_2
*I *3704:X O *D sky130_fd_sc_hd__o22a_2
*CAP
1 *3904:D 0.000343163
2 *3704:X 0.000343163
3 *3904:D *3688:A1 7.7939e-05
4 *3904:D *563:6 0.0001871
*RES
1 *3704:X *3904:D 33.1357 
*END

*D_NET *314 0.00114414
*CONN
*I *3905:D I *D sky130_fd_sc_hd__dfrtp_2
*I *3716:Y O *D sky130_fd_sc_hd__nor2_2
*CAP
1 *3905:D 0.000303383
2 *3716:Y 0.000303383
3 *3905:D *3678:A0 6.30023e-05
4 *3905:D *3678:A1 0.000150618
5 *3905:D *3712:B 3.90513e-05
6 *3905:D *3745:A0 6.74911e-05
7 *3905:D *640:14 2.89114e-05
8 *3905:D *871:10 9.77491e-05
9 *3905:D *907:26 9.0553e-05
*RES
1 *3716:Y *3905:D 35.5821 
*END

*D_NET *315 0.000937647
*CONN
*I *3906:D I *D sky130_fd_sc_hd__dfrtp_2
*I *3721:X O *D sky130_fd_sc_hd__and3_2
*CAP
1 *3906:D 0.000362941
2 *3721:X 0.000362941
3 *3906:D *3721:B 0
4 *3906:D *3906:RESET_B 7.8327e-05
5 *3906:D *4172:A 5.41494e-05
6 *3906:D *4182:A 0
7 *3906:D *915:10 7.92879e-05
*RES
1 *3721:X *3906:D 34.0821 
*END

*D_NET *316 0.000769118
*CONN
*I *3907:D I *D sky130_fd_sc_hd__dfrtp_2
*I *3724:X O *D sky130_fd_sc_hd__and3b_2
*CAP
1 *3907:D 0.000157994
2 *3724:X 0.000157994
3 *3907:D *3907:CLK 6.05161e-06
4 *3907:D *580:10 0.000197269
5 *3907:D *632:22 0.000195555
6 *3907:D *916:32 5.42547e-05
*RES
1 *3724:X *3907:D 31.5107 
*END

*D_NET *317 0.00089289
*CONN
*I *3908:D I *D sky130_fd_sc_hd__dfrtp_2
*I *3727:X O *D sky130_fd_sc_hd__and3b_2
*CAP
1 *3908:D 0.000193889
2 *3727:X 0.000193889
3 *3908:D *3727:C 0.000100979
4 *3908:D *3907:CLK 5.33005e-05
5 *3908:D *580:10 0.000311028
6 *3908:D *588:16 0
7 *3908:D *588:29 1.78353e-05
8 *3908:D *588:49 2.8266e-06
9 *3908:D *632:22 1.91418e-05
*RES
1 *3727:X *3908:D 32.8143 
*END

*D_NET *318 0.00100871
*CONN
*I *3909:D I *D sky130_fd_sc_hd__dfrtp_2
*I *3730:X O *D sky130_fd_sc_hd__and3_2
*CAP
1 *3909:D 0.000419675
2 *3730:X 0.000419675
3 *3909:D *3730:A 2.28499e-05
4 *3909:D *3909:RESET_B 7.96359e-05
5 *3909:D *579:10 5.35423e-05
6 *3909:D *582:10 1.33343e-05
*RES
1 *3730:X *3909:D 34.725 
*END

*D_NET *319 0.00131631
*CONN
*I *3910:D I *D sky130_fd_sc_hd__dfrtp_2
*I *3733:X O *D sky130_fd_sc_hd__and3b_2
*CAP
1 *3910:D 0.000398352
2 *3733:X 0.000398352
3 *3910:D *3731:B1 0.000143652
4 *3910:D *3733:C 9.99853e-05
5 *3910:D *3910:CLK 3.72841e-05
6 *3910:D *619:14 0.000106542
7 *3910:D *619:34 5.51406e-05
8 *3910:D *916:32 7.70035e-05
*RES
1 *3733:X *3910:D 35.2607 
*END

*D_NET *320 0.00179338
*CONN
*I *3911:D I *D sky130_fd_sc_hd__dfrtp_2
*I *3736:X O *D sky130_fd_sc_hd__and3b_2
*CAP
1 *3911:D 0.000600316
2 *3736:X 0.000600316
3 *3911:D *3735:B 0.000216793
4 *3911:D *3911:RESET_B 1.77009e-05
5 *3911:D *4397:A 3.97677e-05
6 *3911:D *595:8 0.000182592
7 *3911:D *619:51 0.000135894
*RES
1 *3736:X *3911:D 37.2964 
*END

*D_NET *321 0.00196651
*CONN
*I *3912:D I *D sky130_fd_sc_hd__dfrtp_2
*I *3739:X O *D sky130_fd_sc_hd__and3_2
*CAP
1 *3912:D 0.000657282
2 *3739:X 0.000657282
3 *3912:D *3640:A0 8.00806e-05
4 *3912:D *3739:A 0
5 *3912:D *3742:C 3.38229e-05
6 *3912:D *3913:D 7.83587e-05
7 *3912:D *582:59 0
8 *3912:D *916:77 0.000459684
*RES
1 *3739:X *3912:D 38.6045 
*END

*D_NET *322 0.000533522
*CONN
*I *3913:D I *D sky130_fd_sc_hd__dfrtp_2
*I *3742:X O *D sky130_fd_sc_hd__and3_2
*CAP
1 *3913:D 0.000120484
2 *3742:X 0.000120484
3 *3913:D *3740:B1 0
4 *3913:D *3742:C 0.000158736
5 *3913:D *916:77 5.54602e-05
6 *3912:D *3913:D 7.83587e-05
*RES
1 *3742:X *3913:D 31.3679 
*END

*D_NET *323 0.0010912
*CONN
*I *3914:D I *D sky130_fd_sc_hd__dfrtp_2
*I *3744:X O *D sky130_fd_sc_hd__a21o_2
*CAP
1 *3914:D 0.000361598
2 *3744:X 0.000361598
3 *3914:D *3744:A1 0.000272658
4 *3914:D *3744:A2 7.61932e-05
5 *3914:D *3914:RESET_B 1.91512e-05
6 *3914:D *603:13 0
7 *3914:D *1008:10 0
*RES
1 *3744:X *3914:D 35.1 
*END

*D_NET *324 0.000909798
*CONN
*I *3915:D I *D sky130_fd_sc_hd__dfrtp_2
*I *3392:X O *D sky130_fd_sc_hd__o21a_2
*CAP
1 *3915:D 0.000342599
2 *3392:X 0.000342599
3 *3915:D *3391:B1 0
4 *3915:D *4153:A 0
5 *3915:D *4234:A 0.000224599
6 *3915:D *911:10 0
*RES
1 *3392:X *3915:D 33.6357 
*END

*D_NET *325 0.000660075
*CONN
*I *3916:D I *D sky130_fd_sc_hd__dfrtp_2
*I *3390:X O *D sky130_fd_sc_hd__o21a_2
*CAP
1 *3916:D 0.000189371
2 *3390:X 0.000189371
3 *3916:D *3324:A 0
4 *3916:D *3390:A2 0.000149904
5 *3916:D *3390:B1 2.51343e-06
6 *3916:D *3846:A2 0.000120645
7 *3916:D *3849:A1 8.27184e-06
*RES
1 *3390:X *3916:D 31.4036 
*END

*D_NET *326 0.000572966
*CONN
*I *4220:A I *D sky130_fd_sc_hd__dlygate4sd3_1
*I *3388:Y O *D sky130_fd_sc_hd__a21oi_2
*CAP
1 *4220:A 0.000240443
2 *3388:Y 0.000240443
3 *4220:A *3388:A1 5.23142e-05
4 *4220:A *606:45 3.97657e-05
*RES
1 *3388:Y *4220:A 22.35 
*END

*D_NET *327 0.000849956
*CONN
*I *3918:D I *D sky130_fd_sc_hd__dfrtp_2
*I *3386:X O *D sky130_fd_sc_hd__and3b_2
*CAP
1 *3918:D 0.000255033
2 *3386:X 0.000255033
3 *3918:D *3365:D 7.83587e-05
4 *3918:D *3918:CLK 6.92626e-05
5 *3918:D *392:10 9.25014e-06
6 *3918:D *876:6 6.05161e-06
7 *3918:D *876:20 2.89016e-05
8 *3918:D *1042:25 7.6696e-05
9 *11:10 *3918:D 7.13706e-05
*RES
1 *3386:X *3918:D 32.4929 
*END

*D_NET *328 0.000333955
*CONN
*I *3919:D I *D sky130_fd_sc_hd__dfrtp_2
*I *3384:Y O *D sky130_fd_sc_hd__nor2_2
*CAP
1 *3919:D 8.27799e-05
2 *3384:Y 8.27799e-05
3 *3919:D *877:31 3.18676e-05
4 *3919:D *890:27 6.49214e-05
5 *11:10 *3919:D 7.16058e-05
*RES
1 *3384:Y *3919:D 29.7786 
*END

*D_NET *329 0.000608199
*CONN
*I *3920:D I *D sky130_fd_sc_hd__dfrtp_2
*I *3382:Y O *D sky130_fd_sc_hd__a21oi_2
*CAP
1 *3920:D 0.000105963
2 *3382:Y 0.000105963
3 *3920:D *3382:B1 0.00014576
4 *3920:D *4097:A 0.000139907
5 *3920:D *392:29 7.17932e-05
6 *3920:D *396:20 3.88139e-05
*RES
1 *3382:Y *3920:D 30.9036 
*END

*D_NET *330 0.00036005
*CONN
*I *3921:D I *D sky130_fd_sc_hd__dfrtp_2
*I *3380:X O *D sky130_fd_sc_hd__and3b_2
*CAP
1 *3921:D 0.000146505
2 *3380:X 0.000146505
3 *3921:D *3380:B 6.05161e-06
4 *3921:D *1045:16 6.09889e-05
*RES
1 *3380:X *3921:D 21.2071 
*END

*D_NET *331 0.000660613
*CONN
*I *3922:D I *D sky130_fd_sc_hd__dfrtp_2
*I *3378:Y O *D sky130_fd_sc_hd__nor2_2
*CAP
1 *3922:D 0.000258265
2 *3378:Y 0.000258265
3 *3922:D *3377:A1 3.79467e-05
4 *3922:D *3378:B 5.30637e-06
5 *3922:D *3770:A2 0
6 *3922:RESET_B *3922:D 0.000100831
*RES
1 *3378:Y *3922:D 32.6179 
*END

*D_NET *332 0.00109102
*CONN
*I *3923:D I *D sky130_fd_sc_hd__dfrtp_2
*I *3376:Y O *D sky130_fd_sc_hd__a21oi_2
*CAP
1 *3923:D 0.000194292
2 *3376:Y 0.000194292
3 *3923:D *3370:A 2.14378e-05
4 *3923:D *3371:A 0.000312729
5 *3923:D *3375:A2 0.000173076
6 *3923:D *3376:B1 9.91086e-05
7 *3923:D *394:58 9.60875e-05
*RES
1 *3376:Y *3923:D 32.6179 
*END

*D_NET *333 0.000391654
*CONN
*I *3924:D I *D sky130_fd_sc_hd__dfrtp_2
*I *3374:Y O *D sky130_fd_sc_hd__nor2_2
*CAP
1 *3924:D 9.45648e-05
2 *3374:Y 9.45648e-05
3 *3924:D *3374:A 0
4 *3924:D *626:64 0.000149223
5 *3924:D *644:77 0
6 *3924:D *1048:10 5.33005e-05
*RES
1 *3374:Y *3924:D 29.7786 
*END

*D_NET *334 0.00148704
*CONN
*I *3925:D I *D sky130_fd_sc_hd__dfrtp_2
*I *3371:X O *D sky130_fd_sc_hd__and3_2
*CAP
1 *3925:D 0.000488668
2 *3371:X 0.000488668
3 *3925:D *3375:A1 3.03042e-05
4 *3925:D *3375:B1 2.1527e-05
5 *3925:D *3922:CLK 0.000113083
6 *3925:D *3925:CLK 0.000260574
7 *3925:D *396:96 4.1331e-06
8 *3925:D *644:103 8.00806e-05
*RES
1 *3371:X *3925:D 34.4259 
*END

*D_NET *335 0.000529754
*CONN
*I *3926:D I *D sky130_fd_sc_hd__dfrtp_2
*I *3363:X O *D sky130_fd_sc_hd__a31o_2
*CAP
1 *3926:D 9.72667e-05
2 *3363:X 9.72667e-05
3 *3926:D *3363:A1 1.55885e-05
4 *3926:D *3363:A3 0.000174117
5 *3926:D *3434:B 9.60875e-05
6 *3926:D *626:21 4.52937e-05
7 *3926:D *626:23 4.1331e-06
*RES
1 *3363:X *3926:D 30.4929 
*END

*D_NET *336 0.000441203
*CONN
*I *3927:D I *D sky130_fd_sc_hd__dfrtp_2
*I *3362:X O *D sky130_fd_sc_hd__mux2_1
*CAP
1 *3927:D 0.000170654
2 *3362:X 0.000170654
3 *3927:D *3337:A 5.41494e-05
4 *3927:RESET_B *3927:D 4.57445e-05
5 *3998:RESET_B *3927:D 0
*RES
1 *3362:X *3927:D 31.0107 
*END

*D_NET *337 0.000867733
*CONN
*I *4286:A I *D sky130_fd_sc_hd__dlygate4sd3_1
*I *3745:X O *D sky130_fd_sc_hd__mux2_1
*CAP
1 *4286:A 0.000318827
2 *3745:X 0.000318827
3 *4286:A *3676:S 0
4 *4286:A *3750:A0 0
5 *4286:A *3750:A1 4.25622e-05
6 *4286:A *359:45 2.02508e-05
7 *4286:A *623:101 0
8 *4286:A *646:61 0.000167266
*RES
1 *3745:X *4286:A 33.4393 
*END

*D_NET *338 0.000477711
*CONN
*I *4050:D I *D sky130_fd_sc_hd__dfrtp_2
*I *3746:X O *D sky130_fd_sc_hd__mux2_1
*CAP
1 *4050:D 0.000132745
2 *3746:X 0.000132745
3 *4050:D *3667:A 6.42145e-05
4 *4050:D *3668:S 0.000125717
5 *4050:D *3917:CLK 2.22891e-05
*RES
1 *3746:X *4050:D 30.1893 
*END

*D_NET *339 0.00121983
*CONN
*I *4051:D I *D sky130_fd_sc_hd__dfrtp_2
*I *3747:X O *D sky130_fd_sc_hd__mux2_1
*CAP
1 *4051:D 0.00036128
2 *3747:X 0.00036128
3 *4051:D *3667:A 1.41029e-05
4 *4051:D *4056:RESET_B 0
5 *4051:D *889:105 0.000483172
*RES
1 *3747:X *4051:D 33.1714 
*END

*D_NET *340 0.00132427
*CONN
*I *4229:A I *D sky130_fd_sc_hd__dlygate4sd3_1
*I *3748:X O *D sky130_fd_sc_hd__mux2_1
*CAP
1 *4229:A 0.000312339
2 *3748:X 0.000312339
3 *4229:A *3748:A1 1.92789e-05
4 *4229:A *3883:CLK 0.000142856
5 *4229:A *3982:CLK 1.02504e-05
6 *4229:A *4052:D 0.000126439
7 *4229:A *354:20 1.02821e-05
8 *4229:A *354:24 7.43578e-06
9 *4229:A *622:80 8.98585e-05
10 *4229:A *622:82 0.00021262
11 *4229:A *939:16 1.32552e-05
12 *11:10 *4229:A 6.73141e-05
*RES
1 *3748:X *4229:A 34.8143 
*END

*D_NET *341 0.000300798
*CONN
*I *4053:D I *D sky130_fd_sc_hd__dfrtp_2
*I *3749:X O *D sky130_fd_sc_hd__mux2_1
*CAP
1 *4053:D 0.000122784
2 *3749:X 0.000122784
3 *4053:D *3664:S 0
4 *4053:D *4042:CLK 0
5 *4053:D *622:17 0
6 *4053:D *622:27 5.52302e-05
*RES
1 *3749:X *4053:D 29.475 
*END

*D_NET *342 0.00135531
*CONN
*I *4270:A I *D sky130_fd_sc_hd__dlygate4sd3_1
*I *3750:X O *D sky130_fd_sc_hd__mux2_1
*CAP
1 *4270:A 0.000359272
2 *3750:X 0.000359272
3 *4270:A *3750:S 0
4 *4270:A *4054:D 0
5 *4270:A *4390:A 0.000320024
6 *4270:A *646:61 0.000316738
*RES
1 *3750:X *4270:A 34.6714 
*END

*D_NET *343 0.000881512
*CONN
*I *4282:A I *D sky130_fd_sc_hd__dlygate4sd3_1
*I *3751:X O *D sky130_fd_sc_hd__mux2_1
*CAP
1 *4282:A 0.000245961
2 *3751:X 0.000245961
3 *4282:A *3752:S 2.51343e-06
4 *4282:A *641:37 6.5185e-05
5 *4282:A *889:91 0.000224234
6 *4282:A *907:102 9.7659e-05
*RES
1 *3751:X *4282:A 32.3679 
*END

*D_NET *344 0.000791737
*CONN
*I *4277:A I *D sky130_fd_sc_hd__dlygate4sd3_1
*I *3752:X O *D sky130_fd_sc_hd__mux2_1
*CAP
1 *4277:A 0.000267835
2 *3752:X 0.000267835
3 *4277:A *4056:D 7.83659e-05
4 *4277:A *4095:A 0.000126439
5 *4277:A *4395:A 0
6 *4277:A *624:44 5.12625e-05
*RES
1 *3752:X *4277:A 32.3679 
*END

*D_NET *345 0.000464683
*CONN
*I *4260:A I *D sky130_fd_sc_hd__dlygate4sd3_1
*I *3753:X O *D sky130_fd_sc_hd__mux2_1
*CAP
1 *4260:A 0.000223185
2 *3753:X 0.000223185
3 *4260:A *3753:S 0
4 *4260:A *4057:D 1.83136e-05
*RES
1 *3753:X *4260:A 22.3321 
*END

*D_NET *346 0.000760594
*CONN
*I *4272:A I *D sky130_fd_sc_hd__dlygate4sd3_1
*I *3754:X O *D sky130_fd_sc_hd__mux2_1
*CAP
1 *4272:A 0.000282474
2 *3754:X 0.000282474
3 *4272:A *4063:D 0.000128154
4 *4272:A *774:10 6.74911e-05
*RES
1 *3754:X *4272:A 31.8321 
*END

*D_NET *347 0.00212318
*CONN
*I *4059:D I *D sky130_fd_sc_hd__dfrtp_2
*I *3755:X O *D sky130_fd_sc_hd__mux2_1
*CAP
1 *4059:D 0.000540731
2 *3755:X 0.000540731
3 *4059:D *3755:A0 0
4 *4059:D *4057:RESET_B 0.000179656
5 *4059:D *4058:CLK 2.79421e-05
6 *4059:D *4059:CLK 0.00015689
7 *4059:D *4064:D 8.73652e-05
8 *4059:D *604:24 1.0562e-05
9 *4059:D *792:10 0.000579302
10 *4059:D *967:16 0
*RES
1 *3755:X *4059:D 39.7964 
*END

*D_NET *348 0.000447627
*CONN
*I *4060:D I *D sky130_fd_sc_hd__dfrtp_2
*I *3756:X O *D sky130_fd_sc_hd__mux2_1
*CAP
1 *4060:D 0.00021301
2 *3756:X 0.00021301
3 *4060:D *3757:A0 0
4 *4060:D *4060:RESET_B 0
5 *4060:D *4061:CLK 1.41706e-05
6 *4060:D *353:10 0
7 *4060:D *617:36 0
8 *4060:D *907:40 7.43578e-06
*RES
1 *3756:X *4060:D 30.7964 
*END

*D_NET *349 0.000529904
*CONN
*I *4061:D I *D sky130_fd_sc_hd__dfrtp_2
*I *3757:X O *D sky130_fd_sc_hd__mux2_1
*CAP
1 *4061:D 0.000117011
2 *3757:X 0.000117011
3 *4061:D *3621:A1 0.000128154
4 *4061:D *3623:B2 3.69697e-05
5 *4061:D *905:30 9.90431e-05
6 *4061:D *968:21 3.17163e-05
*RES
1 *3757:X *4061:D 30.1893 
*END

*D_NET *350 0.00182473
*CONN
*I *4062:D I *D sky130_fd_sc_hd__dfrtp_2
*I *3758:X O *D sky130_fd_sc_hd__mux2_1
*CAP
1 *4062:D 0.000681246
2 *3758:X 0.000681246
3 *4062:D *3698:B2 0.000186765
4 *4062:D *4062:RESET_B 4.96155e-05
5 *4062:D *608:27 0.00022586
*RES
1 *3758:X *4062:D 40.1357 
*END

*D_NET *351 0.00129454
*CONN
*I *4063:D I *D sky130_fd_sc_hd__dfrtp_2
*I *3759:X O *D sky130_fd_sc_hd__mux2_1
*CAP
1 *4063:D 0.00028432
2 *3759:X 0.00028432
3 *4063:D *3754:A1 0.000145584
4 *4063:D *3754:S 0.000347347
5 *4063:D *4063:CLK 5.52302e-05
6 *4063:D *774:10 4.51213e-05
7 *4063:D *875:58 0
8 *4063:D *962:10 4.46186e-06
9 *4272:A *4063:D 0.000128154
*RES
1 *3759:X *4063:D 35.8679 
*END

*D_NET *352 0.00118347
*CONN
*I *4274:A I *D sky130_fd_sc_hd__dlygate4sd3_1
*I *3760:X O *D sky130_fd_sc_hd__mux2_1
*CAP
1 *4274:A 0.000459252
2 *3760:X 0.000459252
3 *4274:A *3760:A1 9.60939e-05
4 *4274:A *4064:D 0
5 *4274:A *4064:RESET_B 0
6 *4274:A *4092:A 0.00011365
7 *4274:A *632:12 0
8 *4274:A *967:16 5.52238e-05
*RES
1 *3760:X *4274:A 35.4571 
*END

*D_NET *353 0.00442529
*CONN
*I *3982:D I *D sky130_fd_sc_hd__dfstp_2
*I *3624:X O *D sky130_fd_sc_hd__or3_2
*CAP
1 *3982:D 2.04425e-05
2 *3624:X 0.0018971
3 *353:10 0.00191754
4 *3982:D *3905:RESET_B 5.33005e-05
5 *3982:D *646:53 2.59355e-05
6 *353:10 *3623:A1 0
7 *353:10 *3905:RESET_B 0
8 *353:10 *3909:CLK 0
9 *353:10 *3981:D 5.33786e-05
10 *353:10 *4061:CLK 6.5185e-05
11 *353:10 *4182:A 0
12 *353:10 *4254:A 0
13 *353:10 *604:12 2.06112e-05
14 *353:10 *621:35 0
15 *353:10 *621:49 0
16 *353:10 *636:57 0
17 *353:10 *636:64 0
18 *353:10 *636:74 0
19 *353:10 *907:32 0.000218741
20 *353:10 *907:40 0
21 *353:10 *965:27 0
22 *3957:D *353:10 0.000153047
23 *4060:D *353:10 0
*RES
1 *3624:X *353:10 47.8536 
2 *353:10 *3982:D 14.3357 
*END

*D_NET *354 0.0111713
*CONN
*I *3438:A1 I *D sky130_fd_sc_hd__a22o_2
*I *3716:A I *D sky130_fd_sc_hd__nor2_2
*I *3717:B1 I *D sky130_fd_sc_hd__a21oi_2
*I *3319:Y O *D sky130_fd_sc_hd__inv_2
*CAP
1 *3438:A1 0.000280695
2 *3716:A 6.50391e-05
3 *3717:B1 0.000516198
4 *3319:Y 0
5 *354:24 0.000740313
6 *354:20 0.00202129
7 *354:4 0.00214291
8 *3438:A1 *3435:B1 1.17966e-05
9 *3438:A1 *3438:B1 2.89114e-05
10 *3438:A1 *3786:A2 0.000284179
11 *3438:A1 *4262:A 0.000224599
12 *3438:A1 *603:105 3.55552e-05
13 *3438:A1 *892:58 9.25014e-06
14 *3438:A1 *993:46 2.59093e-05
15 *3438:A1 *1065:10 1.17968e-05
16 *3716:A *3716:B 6.30023e-05
17 *3717:B1 *3678:A1 3.18676e-05
18 *3717:B1 *3716:B 0.000222082
19 *3717:B1 *3909:CLK 0
20 *3717:B1 *4210:A 9.92409e-05
21 *3717:B1 *4397:A 7.77652e-05
22 *354:20 *3363:A2 0.000183957
23 *354:20 *3396:A 0.000125724
24 *354:20 *3434:A 3.97543e-05
25 *354:20 *3661:A1 7.79781e-06
26 *354:20 *3824:B1 1.32056e-05
27 *354:20 *3883:CLK 0.000264154
28 *354:20 *3883:SET_B 0.000143147
29 *354:20 *3998:D 0.000531943
30 *354:20 *4038:D 7.79454e-05
31 *354:20 *4121:A 2.59355e-05
32 *354:20 *4138:A 0.00113937
33 *354:20 *4151:A 0.000814954
34 *354:20 *603:105 1.15281e-05
35 *354:20 *643:43 3.21895e-05
36 *354:20 *645:78 0.000100474
37 *354:20 *894:32 9.25014e-06
38 *354:20 *894:51 0.000381697
39 *354:20 *894:60 4.56437e-05
40 *354:20 *993:46 6.18969e-06
41 *354:24 *4052:D 5.71472e-05
42 *3883:D *354:20 2.89114e-05
43 *4229:A *354:20 1.02821e-05
44 *4229:A *354:24 7.43578e-06
45 *11:10 *3716:A 6.84681e-05
46 *11:10 *3717:B1 0.000151768
*RES
1 *3319:Y *354:4 9.3 
2 *354:4 *354:20 49.0357 
3 *354:20 *354:24 7.08929 
4 *354:24 *3717:B1 26.1571 
5 *354:24 *3716:A 16.05 
6 *354:4 *3438:A1 24.3714 
*END

*D_NET *355 0.00518087
*CONN
*I *3511:A1_N I *D sky130_fd_sc_hd__o2bb2a_2
*I *3512:B2 I *D sky130_fd_sc_hd__o221a_2
*I *3320:Y O *D sky130_fd_sc_hd__inv_2
*CAP
1 *3511:A1_N 0
2 *3512:B2 0.000421736
3 *3320:Y 0.00117014
4 *355:18 0.00159187
5 *3512:B2 *3505:B 5.62995e-05
6 *3512:B2 *3511:A2_N 0.000307179
7 *3512:B2 *3511:B2 0.00011956
8 *3512:B2 *3512:B1 0.000121573
9 *3512:B2 *387:14 0
10 *3512:B2 *1059:10 8.32242e-05
11 *355:18 *3323:A 0
12 *355:18 *3382:A1 1.02936e-05
13 *355:18 *3382:A2 0.000139907
14 *355:18 *3511:B2 1.65245e-05
15 *355:18 *3512:C1 0
16 *355:18 *3513:B2 0
17 *355:18 *3514:B 0
18 *355:18 *393:10 0
19 *355:18 *396:57 0
20 *355:18 *1044:45 0.000534229
21 *355:18 *1046:10 0
22 *355:18 *1048:35 0.000608333
*RES
1 *3320:Y *355:18 39.8714 
2 *355:18 *3512:B2 28.6571 
3 *355:18 *3511:A1_N 9.3 
*END

*D_NET *356 0.00164593
*CONN
*I *3511:B2 I *D sky130_fd_sc_hd__o2bb2a_2
*I *3513:B2 I *D sky130_fd_sc_hd__a221oi_2
*I *3321:Y O *D sky130_fd_sc_hd__inv_2
*CAP
1 *3511:B2 0.000268749
2 *3513:B2 0.000174201
3 *3321:Y 1.13798e-05
4 *356:8 0.00045433
5 *3511:B2 *3509:A1 1.00375e-05
6 *3511:B2 *3509:C1 0
7 *3511:B2 *3511:B1 0
8 *3511:B2 *3512:C1 0.000103267
9 *3511:B2 *393:10 0
10 *3513:B2 *3509:A1 7.50697e-05
11 *3513:B2 *3513:C1 1.33343e-05
12 *3513:B2 *3514:B 0.000100823
13 *3513:B2 *358:8 4.59075e-05
14 *3513:B2 *1048:35 0.000166686
15 *356:8 *3512:C1 2.89114e-05
16 *356:8 *357:12 5.71472e-05
17 *3512:B2 *3511:B2 0.00011956
18 *355:18 *3511:B2 1.65245e-05
19 *355:18 *3513:B2 0
*RES
1 *3321:Y *356:8 14.3357 
2 *356:8 *3513:B2 18.0679 
3 *356:8 *3511:B2 19.1393 
*END

*D_NET *357 0.00236485
*CONN
*I *3512:A1 I *D sky130_fd_sc_hd__o221a_2
*I *3513:A1 I *D sky130_fd_sc_hd__a221oi_2
*I *3322:Y O *D sky130_fd_sc_hd__inv_2
*CAP
1 *3512:A1 9.44055e-05
2 *3513:A1 4.47867e-05
3 *3322:Y 0.000384899
4 *357:12 0.000524092
5 *3512:A1 *3509:B1 0.000178847
6 *3512:A1 *3509:C1 9.25014e-06
7 *3512:A1 *3512:C1 0.000224583
8 *3512:A1 *3513:B1 3.25078e-05
9 *3512:A1 *3803:B1 6.81083e-05
10 *3513:A1 *3513:B1 8.15843e-05
11 *3513:A1 *3803:B1 0.000154762
12 *357:12 *3321:A 0.00010096
13 *357:12 *3512:C1 4.93017e-05
14 *357:12 *3514:B 9.60875e-05
15 *357:12 *3515:B 0.00026353
16 *356:8 *357:12 5.71472e-05
*RES
1 *3322:Y *357:12 20.2286 
2 *357:12 *3513:A1 15.7464 
3 *357:12 *3512:A1 17.0143 
*END

*D_NET *358 0.00238912
*CONN
*I *3509:A1 I *D sky130_fd_sc_hd__o221a_2
*I *3510:A1 I *D sky130_fd_sc_hd__a221o_2
*I *3323:Y O *D sky130_fd_sc_hd__inv_2
*CAP
1 *3509:A1 0.000121018
2 *3510:A1 0.000214677
3 *3323:Y 0.000183632
4 *358:8 0.000519328
5 *3509:A1 *3509:A2 1.31516e-05
6 *3509:A1 *3514:B 2.37761e-05
7 *3509:A1 *3515:B 0.000185297
8 *3510:A1 *3509:A2 6.16936e-05
9 *3510:A1 *3510:A2 5.95283e-05
10 *3510:A1 *3513:C1 0
11 *3510:A1 *3514:A 2.8266e-06
12 *3510:A1 *3514:B 5.16489e-05
13 *3510:A1 *3515:A_N 0.000149911
14 *3510:A1 *3515:B 0.000225314
15 *358:8 *3513:C1 9.60875e-05
16 *358:8 *3514:C 0.000180764
17 *358:8 *1048:35 0.000169451
18 *3511:B2 *3509:A1 1.00375e-05
19 *3513:B2 *3509:A1 7.50697e-05
20 *3513:B2 *358:8 4.59075e-05
*RES
1 *3323:Y *358:8 18.4429 
2 *358:8 *3510:A1 19.7286 
3 *358:8 *3509:A1 16.9607 
*END

*D_NET *359 0.0185309
*CONN
*I *3678:A0 I *D sky130_fd_sc_hd__mux2_1
*I *3676:A0 I *D sky130_fd_sc_hd__mux2_1
*I *3674:A0 I *D sky130_fd_sc_hd__mux2_1
*I *3670:A0 I *D sky130_fd_sc_hd__mux2_1
*I *3668:A0 I *D sky130_fd_sc_hd__mux2_1
*I *3672:A0 I *D sky130_fd_sc_hd__mux2_1
*I *3666:A0 I *D sky130_fd_sc_hd__mux2_1
*I *3664:A0 I *D sky130_fd_sc_hd__mux2_1
*I *3361:A I *D sky130_fd_sc_hd__nor2_2
*I *3324:Y O *D sky130_fd_sc_hd__inv_2
*CAP
1 *3678:A0 0.000219107
2 *3676:A0 0
3 *3674:A0 0
4 *3670:A0 0.000535765
5 *3668:A0 0
6 *3672:A0 0
7 *3666:A0 9.67359e-05
8 *3664:A0 0.00135374
9 *3361:A 0.0012284
10 *3324:Y 0.000139365
11 *359:87 0.00090252
12 *359:67 0.000665136
13 *359:61 0.00109794
14 *359:45 0.00181212
15 *359:43 0.00121942
16 *359:8 0.00263701
17 *3361:A *3396:B 0.000246049
18 *3361:A *3396:C 0
19 *3361:A *3661:A1 0
20 *3361:A *3661:A2 0
21 *3361:A *370:8 5.33005e-05
22 *3361:A *936:33 0
23 *3361:A *937:12 0
24 *3361:A *939:16 0
25 *3664:A0 *3745:A0 2.28499e-05
26 *3664:A0 *3745:A1 0.000134519
27 *3664:A0 *4016:CLK 1.97865e-05
28 *3664:A0 *4016:D 6.05161e-06
29 *3664:A0 *4378:A 1.92905e-05
30 *3664:A0 *640:8 0.000181803
31 *3664:A0 *939:16 0.00112802
32 *3666:A0 *3666:S 6.97409e-05
33 *3666:A0 *3672:A1 5.33005e-05
34 *3666:A0 *3672:S 2.28499e-05
35 *3670:A0 *3668:A1 8.0558e-05
36 *3670:A0 *3669:A 7.25104e-05
37 *3670:A0 *3670:S 5.17614e-05
38 *3670:A0 *4207:A 3.65069e-05
39 *3670:A0 *624:59 0
40 *3670:A0 *624:83 0
41 *3670:A0 *869:10 0
42 *3678:A0 *3712:B 3.34295e-05
43 *3678:A0 *3745:A0 0
44 *3678:A0 *641:10 0
45 *3678:A0 *907:26 2.34204e-05
46 *359:8 *3396:B 0.000260986
47 *359:8 *3398:A 0
48 *359:8 *3661:A1 0
49 *359:43 *3745:A0 0.000142856
50 *359:45 *3641:A0 0.000226998
51 *359:45 *3676:S 2.15245e-05
52 *359:45 *3745:A0 0.000268396
53 *359:45 *4300:A 2.89016e-05
54 *359:61 *3641:A0 9.77118e-05
55 *359:61 *3641:A1 9.25014e-06
56 *359:61 *3643:A0 0.000140933
57 *359:61 *3674:A1 4.37999e-05
58 *359:61 *3676:A1 0.000147718
59 *359:61 *3707:A 4.98872e-05
60 *359:61 *4095:A 0.000173812
61 *359:61 *4305:A 0.000685804
62 *359:61 *640:28 0
63 *359:67 *3672:A1 1.52978e-05
64 *359:67 *3674:A1 0
65 *359:67 *3674:S 5.26442e-05
66 *359:67 *623:60 0.000175036
67 *359:67 *623:77 0.00021532
68 *359:87 *3669:A 0.000198738
69 *359:87 *3672:A1 4.43256e-05
70 *359:87 *3672:S 5.1969e-05
71 *359:87 *869:10 0
72 *359:87 *889:109 9.90431e-05
73 o_receive_data[5] *3670:A0 0.000136605
74 *3884:D *3664:A0 2.89114e-05
75 *3885:D *3666:A0 0.000365256
76 *3885:D *359:87 2.06762e-05
77 *3888:D *359:87 0.000139907
78 *3905:D *3678:A0 6.30023e-05
79 *4075:A *3361:A 0
80 *4286:A *359:45 2.02508e-05
81 *11:14 *3361:A 0.000442379
*RES
1 *3324:Y *359:8 17.2643 
2 *359:8 *3361:A 36.0857 
3 *359:8 *3664:A0 32.4607 
4 *3664:A0 *359:43 10.6571 
5 *359:43 *359:45 11.625 
6 *359:45 *359:61 27.3929 
7 *359:61 *359:67 13.9821 
8 *359:67 *3666:A0 13.1214 
9 *359:67 *3672:A0 9.3 
10 *359:67 *359:87 13.0179 
11 *359:87 *3668:A0 13.8 
12 *359:87 *3670:A0 23.55 
13 *359:61 *3674:A0 9.3 
14 *359:45 *3676:A0 9.3 
15 *359:43 *3678:A0 22.675 
*END

*D_NET *360 0.0151417
*CONN
*I *4149:A I *D sky130_fd_sc_hd__clkdlybuf4s25_1
*I *3431:A I *D sky130_fd_sc_hd__and2_2
*I *3442:B1 I *D sky130_fd_sc_hd__o21a_2
*I *3435:B1 I *D sky130_fd_sc_hd__a2bb2o_2
*I *3428:A1 I *D sky130_fd_sc_hd__a21o_2
*I *3325:Y O *D sky130_fd_sc_hd__inv_2
*CAP
1 *4149:A 0.000423602
2 *3431:A 0.000660213
3 *3442:B1 0.000357078
4 *3435:B1 0.000241367
5 *3428:A1 0.00021507
6 *3325:Y 0.000207888
7 *360:61 0.00144561
8 *360:33 0.00126922
9 *360:14 0.00234372
10 *360:12 0.00202756
11 *3428:A1 *3846:B1 0.000126639
12 *3428:A1 *4151:A 4.89264e-05
13 *3428:A1 *645:42 0
14 *3431:A *3423:A 0
15 *3431:A *3423:B 7.83587e-05
16 *3431:A *3431:B 7.50713e-05
17 *3431:A *3432:B1 6.54263e-05
18 *3431:A *3783:A1 1.97695e-05
19 *3431:A *3783:B1 0
20 *3431:A *423:38 0.00012802
21 *3431:A *611:102 0
22 *3431:A *611:113 0
23 *3431:A *611:132 0
24 *3431:A *658:56 5.58941e-05
25 *3431:A *658:114 2.24646e-05
26 *3431:A *708:10 2.49484e-05
27 *3431:A *997:10 0
28 *3435:B1 *3435:A1_N 9.66977e-05
29 *3435:B1 *3435:B2 5.49544e-05
30 *3435:B1 *3438:B1 6.08004e-05
31 *3435:B1 *3438:B2 6.55261e-05
32 *3442:B1 *3438:A2 0.000135943
33 *3442:B1 *3438:B1 7.66462e-05
34 *4149:A *3423:A 0
35 *4149:A *3423:B 0.00044629
36 *4149:A *3930:CLK 1.31516e-05
37 *4149:A *658:114 0.00105021
38 *4149:A *1096:8 0
39 *4149:A *1115:8 0.00010209
40 *360:12 *3779:A1 5.52014e-05
41 *360:12 *911:24 6.31653e-05
42 *360:12 *1089:22 0
43 *360:14 *3428:B1 1.84421e-05
44 *360:14 *3625:B 0.000222263
45 *360:14 *3846:B1 0.000119193
46 *360:14 *4099:A 0.00032685
47 *360:14 *627:8 5.33334e-05
48 *360:14 *645:59 0.000114587
49 *360:14 *658:64 0.00044468
50 *360:33 *3440:A1 0.000388146
51 *360:33 *3440:A2 0
52 *360:33 *3441:B 6.97972e-05
53 *360:33 *3786:A1 0.000165262
54 *360:33 *3786:A2 9.77024e-05
55 *360:33 *4038:D 0
56 *360:33 *4151:A 0
57 *360:33 *627:55 9.13669e-05
58 *360:33 *627:59 7.58664e-05
59 *360:33 *763:10 0
60 *360:33 *878:53 0.000145602
61 *360:33 *892:58 6.35224e-05
62 *360:61 *658:60 0.000307343
63 *360:61 *658:64 0.000216121
64 *3438:A1 *3435:B1 1.17966e-05
65 *3932:D *3431:A 0
66 *3975:D *3431:A 0.000143052
67 *4236:A *3428:A1 9.25014e-06
68 *91:10 *360:33 0
*RES
1 *3325:Y *360:12 21.8 
2 *360:12 *360:14 20.25 
3 *360:14 *3428:A1 21.8179 
4 *360:14 *360:33 24.6071 
5 *360:33 *3435:B1 13.5679 
6 *360:33 *3442:B1 15.3357 
7 *360:12 *360:61 9.55357 
8 *360:61 *3431:A 27.7107 
9 *360:61 *4149:A 27.5857 
*END

*D_NET *361 0.00186973
*CONN
*I *3524:A2 I *D sky130_fd_sc_hd__a31o_2
*I *3328:Y O *D sky130_fd_sc_hd__inv_2
*CAP
1 *3524:A2 0.000395782
2 *3328:Y 0.000395782
3 *3524:A2 *3445:A 5.66943e-05
4 *3524:A2 *3459:A1 9.95558e-05
5 *3524:A2 *3466:B 0.000101908
6 *3524:A2 *3952:RESET_B 3.41939e-05
7 *3524:A2 *3972:CLK 6.54116e-05
8 *3524:A2 *618:134 0.000111164
9 *3524:A2 *634:42 5.66971e-05
10 *3524:A2 *948:14 9.22948e-05
11 *3524:A2 *948:20 0.000259629
12 *3524:A2 *1002:20 5.50052e-05
13 *3524:A2 *1002:45 0.00012415
14 *113:8 *3524:A2 2.14658e-05
*RES
1 *3328:Y *3524:A2 37.5643 
*END

*D_NET *362 0.00335263
*CONN
*I *3451:A1 I *D sky130_fd_sc_hd__a22o_2
*I *3468:A1 I *D sky130_fd_sc_hd__a22o_2
*I *3470:A1 I *D sky130_fd_sc_hd__a22o_2
*I *3329:Y O *D sky130_fd_sc_hd__inv_2
*CAP
1 *3451:A1 0.000339495
2 *3468:A1 0
3 *3470:A1 0.000351773
4 *3329:Y 0
5 *362:25 0.000620725
6 *362:4 0.000633004
7 *3451:A1 *3451:A2 0.000120009
8 *3451:A1 *3468:B2 0.00026546
9 *3451:A1 *4116:A 5.33005e-05
10 *3451:A1 *637:6 0.000136898
11 *3451:A1 *978:18 1.49769e-05
12 *3470:A1 *3470:A2 7.13226e-06
13 *362:25 *3329:A 8.61351e-05
14 *362:25 *3468:A2 7.10673e-05
15 *362:25 *3469:A1 3.29037e-05
16 *362:25 *3469:A2 0.000151333
17 *362:25 *4301:A 6.58013e-05
18 *362:25 *637:6 6.22969e-05
19 *362:25 *646:41 0
20 *362:25 *880:12 9.25014e-06
21 *362:25 *905:16 7.83366e-05
22 *4241:A *3470:A1 3.06476e-05
23 *4241:A *362:25 1.58213e-06
24 *4256:A *3451:A1 2.72899e-05
25 *4302:A *3451:A1 5.4333e-05
26 *4302:A *362:25 0.000138881
*RES
1 *3329:Y *362:4 9.3 
2 *362:4 *3470:A1 13.55 
3 *362:4 *362:25 16.625 
4 *362:25 *3468:A1 9.3 
5 *362:25 *3451:A1 16.55 
*END

*D_NET *363 0.00723315
*CONN
*I *3684:B2 I *D sky130_fd_sc_hd__a22o_2
*I *3457:A1 I *D sky130_fd_sc_hd__a31o_2
*I *3403:B I *D sky130_fd_sc_hd__and2_2
*I *3330:Y O *D sky130_fd_sc_hd__inv_2
*CAP
1 *3684:B2 0.000604379
2 *3457:A1 0.00187497
3 *3403:B 0.000161272
4 *3330:Y 0.000161272
5 *363:18 0.00247935
6 *3403:B *3403:A 0.000115509
7 *3403:B *615:121 3.09985e-05
8 *3457:A1 *3449:A2 4.1331e-06
9 *3457:A1 *3949:CLK 0
10 *3457:A1 *3978:D 1.90936e-05
11 *3457:A1 *426:26 0.000194518
12 *3457:A1 *428:30 0.000113068
13 *3457:A1 *615:86 2.89016e-05
14 *3457:A1 *618:68 0
15 *3457:A1 *949:38 2.06112e-05
16 *3684:B2 *3683:A_N 5.33005e-05
17 *3684:B2 *3685:B1 0.000222878
18 *3684:B2 *3685:B2 8.21706e-05
19 *3684:B2 *4087:A 0.000527799
20 *3684:B2 *560:10 5.33005e-05
21 *3684:B2 *615:86 2.28598e-05
22 *3684:B2 *615:121 0.000311435
23 *3684:B2 *802:12 0.000151333
24 *109:28 *3457:A1 0
*RES
1 *3330:Y *3403:B 21.1 
2 *3330:Y *363:18 9.3 
3 *363:18 *3457:A1 32.0567 
4 *363:18 *3684:B2 31.5143 
*END

*D_NET *364 0.00546585
*CONN
*I *3679:A2 I *D sky130_fd_sc_hd__a22o_2
*I *3462:A2 I *D sky130_fd_sc_hd__a22o_2
*I *3453:A2 I *D sky130_fd_sc_hd__a22o_2
*I *3459:A2 I *D sky130_fd_sc_hd__a21o_2
*I *3331:Y O *D sky130_fd_sc_hd__inv_2
*CAP
1 *3679:A2 7.41349e-05
2 *3462:A2 0.000248725
3 *3453:A2 0.000142903
4 *3459:A2 0.000415817
5 *3331:Y 0.000621824
6 *364:45 0.000640363
7 *364:12 0.000863041
8 *3453:A2 *3453:A1 3.046e-05
9 *3453:A2 *3458:C 3.23834e-05
10 *3453:A2 *3524:A3 0.00010326
11 *3453:A2 *3524:B1 0
12 *3453:A2 *3972:CLK 5.84438e-05
13 *3453:A2 *426:26 4.64488e-06
14 *3453:A2 *431:10 0
15 *3453:A2 *618:134 3.47641e-06
16 *3453:A2 *1004:12 3.57844e-05
17 *3459:A2 *3459:A1 5.52238e-05
18 *3459:A2 *1004:18 0.000178847
19 *3462:A2 *3462:B2 0.000475378
20 *3462:A2 *3525:A0 0
21 *3462:A2 *3679:A1 7.90803e-05
22 *3679:A2 *3462:B2 0.000148047
23 *3679:A2 *3679:A1 0.000140511
24 *364:12 *3458:B 4.46186e-06
25 *364:12 *3525:A0 0.000233556
26 *364:12 *948:12 0.000270243
27 *364:45 *3972:RESET_B 2.65105e-05
28 *364:45 *936:47 0.000187872
29 *3459:B1 *3459:A2 0.000240537
30 *3947:D *3462:A2 1.41706e-05
31 *3972:D *3453:A2 5.66157e-05
32 *113:8 *3459:A2 2.59355e-05
33 *113:8 *3462:A2 0
34 *113:8 *364:12 5.36e-05
*RES
1 *3331:Y *364:12 24.3536 
2 *364:12 *3459:A2 16.2286 
3 *364:12 *3453:A2 21.7643 
4 *3331:Y *364:45 18.0321 
5 *364:45 *3462:A2 20.3759 
6 *364:45 *3679:A2 16.0768 
*END

*D_NET *365 0.017971
*CONN
*I *3455:A1 I *D sky130_fd_sc_hd__a21o_2
*I *3686:A1 I *D sky130_fd_sc_hd__a21o_2
*I *3363:A2 I *D sky130_fd_sc_hd__a31o_2
*I *3332:Y O *D sky130_fd_sc_hd__inv_2
*CAP
1 *3455:A1 0
2 *3686:A1 3.77875e-05
3 *3363:A2 0.00602645
4 *3332:Y 0.000109479
5 *365:16 0.00767752
6 *365:6 0.00172276
7 *3363:A2 *3363:A1 2.13202e-05
8 *3363:A2 *3363:A3 2.39923e-05
9 *3363:A2 *3434:B 8.31513e-06
10 *3363:A2 *3958:RESET_B 0.000104534
11 *3363:A2 *3998:D 0.000138531
12 *3363:A2 *4138:A 0.000208324
13 *3363:A2 *4151:A 0.000108872
14 *3363:A2 *621:103 0.000101444
15 *3363:A2 *626:21 2.11362e-05
16 *3363:A2 *646:43 0.000236112
17 *3686:A1 *3679:B1 4.11173e-05
18 *3686:A1 *3686:B1 4.28249e-05
19 *3686:A1 *4164:A 5.33005e-05
20 *365:6 *3455:A2 0.000144773
21 *365:6 *651:34 1.74352e-05
22 *365:16 *3468:B2 2.92126e-05
23 *365:16 *4019:CLK 5.91452e-05
24 *365:16 *651:34 0.000183047
25 *365:16 *902:66 9.71163e-05
26 *365:16 *958:18 6.39808e-05
27 *4017:RESET_B *365:16 3.4879e-05
28 *4019:D *365:16 0.00044468
29 *4202:A *3686:A1 2.89016e-05
30 *354:20 *3363:A2 0.000183957
*RES
1 *3332:Y *365:6 11.0679 
2 *365:6 *365:16 26.7204 
3 *365:16 *3363:A2 35.4968 
4 *365:16 *3686:A1 18.3261 
5 *365:6 *3455:A1 9.3 
*END

*D_NET *366 0.000214814
*CONN
*I *3436:B2 I *D sky130_fd_sc_hd__a22o_2
*I *3333:Y O *D sky130_fd_sc_hd__inv_2
*CAP
1 *3436:B2 2.77575e-05
2 *3333:Y 2.77575e-05
3 *3436:B2 *3436:A1 9.80173e-05
4 *3436:B2 *3436:A2 5.52302e-05
5 *3436:B2 *3437:B2 6.05161e-06
*RES
1 *3333:Y *3436:B2 19.5464 
*END

*D_NET *367 0.00372496
*CONN
*I *3526:A2 I *D sky130_fd_sc_hd__o21ai_2
*I *3363:A3 I *D sky130_fd_sc_hd__a31o_2
*I *3527:C1 I *D sky130_fd_sc_hd__o211a_2
*I *3334:Y O *D sky130_fd_sc_hd__inv_2
*CAP
1 *3526:A2 5.47766e-05
2 *3363:A3 0.000136056
3 *3527:C1 8.17931e-05
4 *3334:Y 0.000129325
5 *367:20 0.00076778
6 *367:12 0.000734033
7 *3363:A3 *3363:A1 5.52302e-05
8 *3363:A3 *3434:B 0
9 *3363:A3 *3527:B1 0.000122754
10 *3363:A3 *3774:A1 4.1331e-06
11 *3363:A3 *626:23 0
12 *3363:A3 *644:55 0
13 *3363:A3 *645:101 1.76135e-05
14 *3526:A2 *3527:B1 4.58194e-05
15 *3527:C1 *3527:A1 1.56e-05
16 *3527:C1 *3527:A2 1.00477e-05
17 *3527:C1 *3527:B1 0.000102545
18 *3527:C1 *3528:B1 5.52302e-05
19 *3527:C1 *645:101 4.78056e-05
20 *367:12 *3437:A2 2.89016e-05
21 *367:12 *753:12 0.000318316
22 *367:12 *763:10 0.000320031
23 *367:20 *3527:B1 0.000109537
24 *367:20 *3786:A1 9.71197e-05
25 *367:20 *3786:A2 1.21258e-05
26 *367:20 *3786:B1 2.86259e-05
27 *367:20 *645:101 0.000231651
28 *3363:A2 *3363:A3 2.39923e-05
29 *3926:D *3363:A3 0.000174117
*RES
1 *3334:Y *367:12 22.9071 
2 *367:12 *367:20 12.4643 
3 *367:20 *3527:C1 16.1036 
4 *367:20 *3363:A3 17.8 
5 *367:12 *3526:A2 10.2464 
*END

*D_NET *368 0.00210809
*CONN
*I *3432:A2 I *D sky130_fd_sc_hd__a21o_2
*I *3335:Y O *D sky130_fd_sc_hd__inv_2
*CAP
1 *3432:A2 0.000527882
2 *3335:Y 0.000527882
3 *3432:A2 *3335:A 0.000141012
4 *3432:A2 *3399:A 2.44318e-05
5 *3432:A2 *3400:A 0.000230475
6 *3432:A2 *3427:A1 0.000174805
7 *3432:A2 *708:10 1.02504e-05
8 *3432:A2 *711:6 5.52302e-05
9 *3432:A2 *898:91 0.00014183
10 *3932:D *3432:A2 0.000274294
*RES
1 *3335:Y *3432:A2 39.4214 
*END

*D_NET *369 0.00120177
*CONN
*I *3433:A2 I *D sky130_fd_sc_hd__a22o_2
*I *3336:Y O *D sky130_fd_sc_hd__inv_2
*CAP
1 *3433:A2 0.000247111
2 *3336:Y 0.000247111
3 *3433:A2 *3433:A1 0.000156007
4 *3433:A2 *3520:B 0.000157936
5 *3433:A2 *911:42 0.000227539
6 *3433:A2 *996:12 4.03318e-05
7 *4265:A *3433:A2 0.000125731
*RES
1 *3336:Y *3433:A2 32.9571 
*END

*D_NET *370 0.00361743
*CONN
*I *3430:B2 I *D sky130_fd_sc_hd__a22o_2
*I *3469:A1 I *D sky130_fd_sc_hd__a21o_2
*I *3337:Y O *D sky130_fd_sc_hd__inv_2
*CAP
1 *3430:B2 0.00038537
2 *3469:A1 0.000680581
3 *3337:Y 4.36033e-05
4 *370:8 0.00110955
5 *3430:B2 *3361:B 0
6 *3430:B2 *3430:B1 2.34204e-05
7 *3430:B2 *3883:SET_B 1.97695e-05
8 *3430:B2 *643:6 8.14134e-05
9 *3430:B2 *686:10 2.34204e-05
10 *3430:B2 *880:38 0
11 *3430:B2 *911:48 9.90367e-05
12 *3469:A1 *3469:A2 0.000129595
13 *3469:A1 *3470:A2 0
14 *3469:A1 *3958:D 0
15 *3469:A1 *621:97 0
16 *3469:A1 *646:41 0
17 *3469:A1 *646:43 0
18 *3469:A1 *880:12 5.1062e-05
19 *3469:A1 *880:38 0
20 *3361:A *370:8 5.33005e-05
21 *3998:RESET_B *3430:B2 0.000295144
22 *3998:RESET_B *3469:A1 0.000465243
23 *4241:A *3469:A1 0.00012401
24 *362:25 *3469:A1 3.29037e-05
*RES
1 *3337:Y *370:8 14.3357 
2 *370:8 *3469:A1 27.1393 
3 *370:8 *3430:B2 21.8179 
*END

*D_NET *371 0.000563374
*CONN
*I *3435:A1_N I *D sky130_fd_sc_hd__a2bb2o_2
*I *3338:Y O *D sky130_fd_sc_hd__inv_2
*CAP
1 *3435:A1_N 0.000195537
2 *3338:Y 0.000195537
3 *3435:A1_N *3435:B2 2.28499e-05
4 *3435:A1_N *3438:B2 5.27514e-05
5 *3435:B1 *3435:A1_N 9.66977e-05
*RES
1 *3338:Y *3435:A1_N 22.2429 
*END

*D_NET *372 0.000378885
*CONN
*I *3450:A2 I *D sky130_fd_sc_hd__a21o_2
*I *3339:Y O *D sky130_fd_sc_hd__inv_2
*CAP
1 *3450:A2 0.000129407
2 *3339:Y 0.000129407
3 *3450:A2 *3444:B 7.80929e-05
4 *3450:A2 *3450:A1 2.89016e-05
5 *3450:A2 *3955:CLK 2.8266e-06
6 *3450:A2 *936:33 0
7 *3450:B1 *3450:A2 1.02504e-05
*RES
1 *3339:Y *3450:A2 30.4929 
*END

*D_NET *373 0.00155714
*CONN
*I *3461:A2 I *D sky130_fd_sc_hd__a221o_2
*I *3340:Y O *D sky130_fd_sc_hd__inv_2
*CAP
1 *3461:A2 0.000261761
2 *3340:Y 0.000261761
3 *3461:A2 *3451:B2 0.000281897
4 *3461:A2 *3454:A1 6.09476e-05
5 *3461:A2 *3461:A1 3.33174e-05
6 *3461:A2 *3461:B1 5.90443e-06
7 *3461:A2 *3950:RESET_B 0.000213074
8 *3461:A2 *4251:A 0.000125731
9 *3461:A2 *1003:42 3.17148e-05
10 *3461:A2 *1003:53 0.000281028
*RES
1 *3340:Y *3461:A2 35.3768 
*END

*D_NET *374 0.00298961
*CONN
*I *3467:B2 I *D sky130_fd_sc_hd__a22o_2
*I *3454:A1 I *D sky130_fd_sc_hd__o21a_2
*I *3341:Y O *D sky130_fd_sc_hd__inv_2
*CAP
1 *3467:B2 0.000220627
2 *3454:A1 0.000609
3 *3341:Y 0.000829627
4 *3454:A1 *3341:A 5.52302e-05
5 *3454:A1 *3460:A_N 0
6 *3454:A1 *3461:B1 0.000102545
7 *3454:A1 *3461:B2 1.18064e-05
8 *3454:A1 *3743:B 0
9 *3454:A1 *3945:CLK 1.38323e-05
10 *3454:A1 *433:10 0
11 *3454:A1 *616:23 0.000116507
12 *3454:A1 *616:58 9.31893e-05
13 *3454:A1 *990:18 0.000272672
14 *3454:A1 *1001:43 4.1331e-06
15 *3454:A1 *1001:54 5.26091e-05
16 *3454:A1 *1003:18 1.78241e-05
17 *3454:A1 *1003:42 3.09983e-05
18 *3467:B2 *3456:A1 0
19 *3467:B2 *3467:B1 0
20 *3467:B2 *3680:B2 0
21 *3467:B2 *4126:A 0.000142856
22 *3467:B2 *838:12 0.000174797
23 *3461:A2 *3454:A1 6.09476e-05
24 *111:10 *3467:B2 0.000180408
*RES
1 *3341:Y *3454:A1 40.2875 
2 *3341:Y *3467:B2 33.3321 
*END

*D_NET *375 0.00126169
*CONN
*I *3456:B2 I *D sky130_fd_sc_hd__a22o_2
*I *3523:A1 I *D sky130_fd_sc_hd__mux2_1
*I *3342:Y O *D sky130_fd_sc_hd__inv_2
*CAP
1 *3456:B2 0.000368972
2 *3523:A1 0
3 *3342:Y 0.000137734
4 *375:6 0.000506706
5 *3456:B2 *3456:B1 3.76337e-05
6 *3456:B2 *3523:S 5.5671e-05
7 *3456:B2 *752:6 0.000132228
8 *375:6 *3523:S 2.27416e-05
*RES
1 *3342:Y *375:6 11.4786 
2 *375:6 *3523:A1 9.3 
3 *375:6 *3456:B2 15.6036 
*END

*D_NET *376 0.000715306
*CONN
*I *3471:A2 I *D sky130_fd_sc_hd__a21o_2
*I *3343:Y O *D sky130_fd_sc_hd__inv_2
*CAP
1 *3471:A2 0.000229848
2 *3343:Y 0.000229848
3 *3471:A2 *621:10 0.000112754
4 *3957:D *3471:A2 0.000142856
*RES
1 *3343:Y *3471:A2 22.5643 
*END

*D_NET *377 0.00160181
*CONN
*I *3535:A1 I *D sky130_fd_sc_hd__a21oi_2
*I *3344:Y O *D sky130_fd_sc_hd__inv_2
*CAP
1 *3535:A1 0.000495395
2 *3344:Y 0.000495395
3 *3535:A1 *3531:A 5.52238e-05
4 *3535:A1 *3535:A2 3.3283e-05
5 *3535:A1 *3626:A1 0.000128161
6 *3535:A1 *1071:53 6.87673e-05
7 *3535:A1 *1071:64 0.000117553
8 *3535:A1 *1079:10 6.5185e-05
9 *4001:D *3535:A1 0.00014285
*RES
1 *3344:Y *3535:A1 37.6 
*END

*D_NET *378 0.00138283
*CONN
*I *3543:A1 I *D sky130_fd_sc_hd__a211oi_2
*I *3345:Y O *D sky130_fd_sc_hd__inv_2
*CAP
1 *3543:A1 0.000480605
2 *3345:Y 0.000480605
3 *3543:A1 *3547:B 7.43578e-06
4 *3543:A1 *902:48 1.94048e-05
5 *3543:A1 *1082:14 2.34204e-05
6 *3543:A1 *1082:16 3.18676e-05
7 *4004:D *3543:A1 0.000339497
*RES
1 *3345:Y *3543:A1 34.5464 
*END

*D_NET *379 0.00028351
*CONN
*I *3487:A2 I *D sky130_fd_sc_hd__a21o_2
*I *3346:Y O *D sky130_fd_sc_hd__inv_2
*CAP
1 *3487:A2 5.46682e-05
2 *3346:Y 5.46682e-05
3 *3487:A2 *3540:B 9.60939e-05
4 *3487:A2 *3541:A 5.52302e-05
5 *3487:A2 *656:109 2.28499e-05
*RES
1 *3346:Y *3487:A2 19.9571 
*END

*D_NET *380 0.000897428
*CONN
*I *3549:A1 I *D sky130_fd_sc_hd__a21oi_2
*I *3347:Y O *D sky130_fd_sc_hd__inv_2
*CAP
1 *3549:A1 0.000293879
2 *3347:Y 0.000293879
3 *3549:A1 *3549:A2 0.00017378
4 *3549:A1 *3626:A2 0
5 *3549:A1 *612:68 7.02611e-05
6 *3549:A1 *612:94 1.98839e-05
7 *4293:A *3549:A1 4.57445e-05
*RES
1 *3347:Y *3549:A1 33.4393 
*END

*D_NET *381 0.0023162
*CONN
*I *3567:A1 I *D sky130_fd_sc_hd__a211oi_2
*I *3348:Y O *D sky130_fd_sc_hd__inv_2
*CAP
1 *3567:A1 0.000602654
2 *3348:Y 0.000602654
3 *3567:A1 *3348:A 5.52302e-05
4 *3567:A1 *3564:C 9.90431e-05
5 *3567:A1 *3567:C1 6.37237e-05
6 *3567:A1 *3820:A1 0.000182659
7 *3567:A1 *4326:A 0.000277755
8 *3567:A1 *881:103 1.39726e-05
9 *3567:A1 *1074:14 5.52238e-05
10 *3567:A1 *1075:12 0.000250208
11 *4011:D *3567:A1 0.000113073
*RES
1 *3348:Y *3567:A1 40.8679 
*END

*D_NET *382 0.0017803
*CONN
*I *3579:A1 I *D sky130_fd_sc_hd__a21oi_2
*I *3349:Y O *D sky130_fd_sc_hd__inv_2
*CAP
1 *3579:A1 0.000662185
2 *3349:Y 0.000662185
3 *3579:A1 *3349:A 3.14078e-05
4 *3579:A1 *3579:B1 4.46186e-06
5 *3579:A1 *4023:CLK 0.000151061
6 *3579:A1 *4024:CLK 0
7 *3579:A1 *4158:A 3.85284e-05
8 *3579:A1 *662:33 5.33334e-05
9 *3579:A1 *662:80 2.00751e-05
10 *3579:A1 *1105:6 5.33005e-05
11 *4023:D *3579:A1 0.000103765
*RES
1 *3349:Y *3579:A1 37.6 
*END

*D_NET *383 0.000851674
*CONN
*I *3497:A2 I *D sky130_fd_sc_hd__a211o_2
*I *3350:Y O *D sky130_fd_sc_hd__inv_2
*CAP
1 *3497:A2 0.000282387
2 *3350:Y 0.000282387
3 *3497:A2 *3499:A_N 5.33334e-05
4 *3497:A2 *3499:B 2.27304e-05
5 *3497:A2 *1107:10 5.85042e-05
6 *4025:RESET_B *3497:A2 0.000152333
*RES
1 *3350:Y *3497:A2 33.0286 
*END

*D_NET *384 0.00110473
*CONN
*I *3587:A1 I *D sky130_fd_sc_hd__a211oi_2
*I *3351:Y O *D sky130_fd_sc_hd__inv_2
*CAP
1 *3587:A1 0.000311243
2 *3351:Y 0.000311243
3 *3587:A1 *3586:A 0
4 *3587:A1 *3587:A2 0
5 *3587:A1 *511:50 0.000113151
6 *3587:A1 *901:32 0.000185643
7 *3587:A1 *1107:34 0.000148189
8 *3587:A1 *1109:46 3.52655e-05
*RES
1 *3351:Y *3587:A1 33.7429 
*END

*D_NET *385 0.000350717
*CONN
*I *3593:A1 I *D sky130_fd_sc_hd__a21oi_2
*I *3352:Y O *D sky130_fd_sc_hd__inv_2
*CAP
1 *3593:A1 0.000107451
2 *3352:Y 0.000107451
3 *3593:A1 *3352:A 0.000135815
*RES
1 *3352:Y *3593:A1 20.7964 
*END

*D_NET *386 0.000278923
*CONN
*I *3611:A1 I *D sky130_fd_sc_hd__a211oi_2
*I *3353:Y O *D sky130_fd_sc_hd__inv_2
*CAP
1 *3611:A1 0.000139461
2 *3353:Y 0.000139461
*RES
1 *3353:Y *3611:A1 20.7786 
*END

*D_NET *387 0.00387749
*CONN
*I *3510:B1 I *D sky130_fd_sc_hd__a221o_2
*I *3509:B1 I *D sky130_fd_sc_hd__o221a_2
*I *3354:Y O *D sky130_fd_sc_hd__inv_2
*CAP
1 *3510:B1 0.000473923
2 *3509:B1 0.000111237
3 *3354:Y 0.000399291
4 *387:14 0.000984451
5 *3509:B1 *3512:C1 8.44559e-05
6 *3509:B1 *3515:B 0.000238444
7 *3510:B1 *3510:B2 3.04785e-05
8 *3510:B1 *3510:C1 0.0002142
9 *3510:B1 *3512:A2 7.08001e-05
10 *3510:B1 *3803:B1 0.000120261
11 *3510:B1 *876:70 0.000173797
12 *3510:B1 *876:87 0
13 *3510:B1 *890:79 0
14 *3510:B1 *1056:6 5.62995e-05
15 *3510:B1 *1057:12 0.000198698
16 *387:14 *3512:A2 4.46186e-06
17 *387:14 *3803:A1 5.83818e-05
18 *387:14 *3803:A2 0.00014183
19 *387:14 *3803:B1 0.000162116
20 *387:14 *876:87 0
21 *387:14 *1059:10 0
22 *3512:A1 *3509:B1 0.000178847
23 *3512:B2 *387:14 0
24 *3995:RESET_B *387:14 0.000175512
*RES
1 *3354:Y *387:14 22.6393 
2 *387:14 *3509:B1 17.2687 
3 *387:14 *3510:B1 25.05 
*END

*D_NET *388 0.000994896
*CONN
*I *4148:A I *D sky130_fd_sc_hd__clkdlybuf4s25_1
*I *3356:Y O *D sky130_fd_sc_hd__inv_2
*CAP
1 *4148:A 0.000128151
2 *3356:Y 0.000128151
3 *4148:A *4184:A 0.000348865
4 *4148:A *881:23 0.000389728
*RES
1 *3356:Y *4148:A 22.8321 
*END

*D_NET *389 0.00222844
*CONN
*I *3564:A I *D sky130_fd_sc_hd__and3_2
*I *3530:B1 I *D sky130_fd_sc_hd__o31a_2
*I *3529:B1 I *D sky130_fd_sc_hd__o21ai_2
*I *3357:Y O *D sky130_fd_sc_hd__inv_2
*CAP
1 *3564:A 0.00044885
2 *3530:B1 0
3 *3529:B1 0.000285102
4 *3357:Y 0
5 *389:21 0.000637148
6 *389:4 0.000473399
7 *3529:B1 *3357:A 2.27416e-05
8 *3529:B1 *3530:A2 0
9 *3529:B1 *4289:A 0
10 *3529:B1 *479:10 0
11 *3529:B1 *612:21 0
12 *3529:B1 *904:57 0
13 *3564:A *3530:A1 0.00014285
14 *3564:A *3530:A2 0
15 *3564:A *3564:C 5.80706e-06
16 *3564:A *3820:A1 0
17 *3564:A *4326:A 0
18 *3564:A *457:12 0
19 *3564:A *904:57 0
20 *3564:A *1074:14 5.33786e-05
21 *389:21 *3357:A 1.92789e-05
22 *389:21 *3530:A1 7.72917e-05
23 *389:21 *904:44 6.25993e-05
24 *3529:A2 *3529:B1 0
25 *4011:D *3564:A 0
*RES
1 *3357:Y *389:4 9.3 
2 *389:4 *3529:B1 23.2286 
3 *389:4 *389:21 3.83929 
4 *389:21 *3530:B1 9.3 
5 *389:21 *3564:A 26.4607 
*END

*D_NET *390 0.0018706
*CONN
*I *3574:B1 I *D sky130_fd_sc_hd__o31a_2
*I *3573:B1 I *D sky130_fd_sc_hd__o21ai_2
*I *3608:A I *D sky130_fd_sc_hd__and3_2
*I *3358:Y O *D sky130_fd_sc_hd__inv_2
*CAP
1 *3574:B1 0
2 *3573:B1 0.000164891
3 *3608:A 0
4 *3358:Y 2.33224e-05
5 *390:19 0.000416919
6 *390:6 0.000275351
7 *390:6 *887:67 5.17614e-05
8 *390:6 *901:59 9.80173e-05
9 *390:19 *3578:B1 0.000315887
10 *390:19 *3608:C 4.46186e-06
11 *390:19 *3829:B1 0
12 *390:19 *4283:A 0.000171368
13 *390:19 *887:67 2.89016e-05
14 *390:19 *901:59 4.18895e-05
15 *390:19 *903:12 7.91281e-05
16 *390:19 *1097:10 0.000198698
*RES
1 *3358:Y *390:6 10.2464 
2 *390:6 *3608:A 9.3 
3 *390:6 *390:19 16.3393 
4 *390:19 *3573:B1 11.8893 
5 *390:19 *3574:B1 9.3 
*END

*D_NET *391 0.0026811
*CONN
*I *3383:A2 I *D sky130_fd_sc_hd__o21ai_2
*I *3386:A_N I *D sky130_fd_sc_hd__and3b_2
*I *3364:X O *D sky130_fd_sc_hd__and3_2
*CAP
1 *3383:A2 0.00033465
2 *3386:A_N 1.69531e-05
3 *3364:X 0.000414022
4 *391:10 0.000765625
5 *3383:A2 *3383:A1 4.8476e-05
6 *3383:A2 *3387:B1 9.0573e-05
7 *3383:A2 *3506:A 9.90431e-05
8 *3383:A2 *3508:A 0
9 *3383:A2 *3513:C1 0
10 *3383:A2 *3514:A 0
11 *3386:A_N *3386:C 5.33005e-05
12 *3386:A_N *1050:16 5.33005e-05
13 *391:10 *3364:A 0.00018372
14 *391:10 *3364:C 4.59075e-05
15 *391:10 *3365:D 1.33343e-05
16 *391:10 *3387:B1 0.000100831
17 *391:10 *3667:B 2.89016e-05
18 *391:10 *641:54 5.74499e-06
19 *391:10 *1041:23 8.71377e-05
20 *3919:RESET_B *3383:A2 0.000240477
21 *3919:RESET_B *391:10 9.91086e-05
*RES
1 *3364:X *391:10 20.1929 
2 *391:10 *3386:A_N 14.3357 
3 *391:10 *3383:A2 20.9786 
*END

*D_NET *392 0.00486434
*CONN
*I *3381:A2 I *D sky130_fd_sc_hd__o21ai_2
*I *3367:D I *D sky130_fd_sc_hd__and4_2
*I *3379:A2 I *D sky130_fd_sc_hd__a21o_2
*I *3366:C I *D sky130_fd_sc_hd__and3_2
*I *3382:A2 I *D sky130_fd_sc_hd__a21oi_2
*I *3384:A I *D sky130_fd_sc_hd__nor2_2
*I *3365:X O *D sky130_fd_sc_hd__and4_2
*CAP
1 *3381:A2 3.41062e-05
2 *3367:D 5.78839e-05
3 *3379:A2 4.19379e-06
4 *3366:C 0.000319844
5 *3382:A2 3.74888e-05
6 *3384:A 0
7 *3365:X 0.000178743
8 *392:50 0.000427314
9 *392:44 0.000274116
10 *392:29 0.000343245
11 *392:25 0.000449505
12 *392:10 0.000401342
13 *3366:C *3366:A 0
14 *3366:C *3367:A 7.48301e-06
15 *3366:C *3379:A1 2.90993e-05
16 *3366:C *3380:C 5.52302e-05
17 *3366:C *1045:16 2.59355e-05
18 *3366:C *1045:18 0.000204171
19 *3367:D *1044:49 1.98839e-05
20 *3381:A2 *3997:CLK 9.90431e-05
21 *3382:A2 *3382:A1 3.76575e-05
22 *3382:A2 *1048:35 2.84355e-05
23 *392:10 *3918:CLK 2.1527e-05
24 *392:10 *396:24 4.46186e-06
25 *392:10 *625:92 8.45386e-05
26 *392:10 *1042:25 3.18676e-05
27 *392:25 *3997:CLK 0.000170385
28 *392:25 *396:24 0.000194276
29 *392:25 *625:92 1.33343e-05
30 *392:29 *3381:B1 0
31 *392:29 *3382:B1 6.66846e-05
32 *392:29 *1044:45 9.25014e-06
33 *392:44 *3379:A1 1.1041e-05
34 *392:44 *1044:45 0.000197991
35 *392:44 *1044:49 1.04232e-05
36 *392:50 *3379:A1 5.08517e-05
37 *392:50 *1044:49 2.14658e-05
38 *3918:D *392:10 9.25014e-06
39 *3920:D *392:29 7.17932e-05
40 *3920:RESET_B *392:29 0
41 *11:10 *392:10 0.000176618
42 *11:10 *392:25 0.000214957
43 *11:10 *392:29 0.000228017
44 *11:10 *392:44 0.000100983
45 *355:18 *3382:A2 0.000139907
*RES
1 *3365:X *392:10 18.4071 
2 *392:10 *3384:A 13.8 
3 *392:10 *392:25 11.375 
4 *392:25 *392:29 9.78571 
5 *392:29 *3382:A2 15.1571 
6 *392:29 *392:44 7.48214 
7 *392:44 *392:50 1.91071 
8 *392:50 *3366:C 14.0857 
9 *392:50 *3379:A2 9.72857 
10 *392:44 *3367:D 10.2464 
11 *392:25 *3381:A2 10.2464 
*END

*D_NET *393 0.00215022
*CONN
*I *3377:A2 I *D sky130_fd_sc_hd__o21ai_2
*I *3380:A_N I *D sky130_fd_sc_hd__and3b_2
*I *3366:X O *D sky130_fd_sc_hd__and3_2
*CAP
1 *3377:A2 0.000478709
2 *3380:A_N 6.17285e-05
3 *3366:X 6.79815e-05
4 *393:10 0.000608419
5 *3377:A2 *3377:B1 0.000365753
6 *3377:A2 *3380:B 3.69047e-06
7 *3377:A2 *3380:C 6.05161e-06
8 *3377:A2 *4322:A 0.000128154
9 *3377:A2 *396:57 2.97756e-05
10 *3377:A2 *1046:10 0.000271809
11 *393:10 *1046:10 0.000128154
12 *3511:B2 *393:10 0
13 *355:18 *393:10 0
*RES
1 *3366:X *393:10 19.9429 
2 *393:10 *3380:A_N 10.2464 
3 *393:10 *3377:A2 29.9607 
*END

*D_NET *394 0.00970578
*CONN
*I *3373:A3 I *D sky130_fd_sc_hd__a311o_2
*I *3370:D I *D sky130_fd_sc_hd__nand4_2
*I *3368:A3 I *D sky130_fd_sc_hd__a31o_2
*I *3376:A2 I *D sky130_fd_sc_hd__a21oi_2
*I *3378:A I *D sky130_fd_sc_hd__nor2_2
*I *3375:A2 I *D sky130_fd_sc_hd__o21ai_2
*I *3372:A2 I *D sky130_fd_sc_hd__a21oi_2
*I *3367:X O *D sky130_fd_sc_hd__and4_2
*CAP
1 *3373:A3 0.000252864
2 *3370:D 0
3 *3368:A3 0
4 *3376:A2 0
5 *3378:A 0.000492373
6 *3375:A2 0.000179121
7 *3372:A2 4.24256e-05
8 *3367:X 0.000541393
9 *394:85 0.000318437
10 *394:58 0.00070767
11 *394:52 0.00051916
12 *394:44 0.00040531
13 *394:27 0.000297999
14 *394:12 0.000666823
15 *3372:A2 *396:96 0.000125717
16 *3372:A2 *877:48 0.000125717
17 *3373:A3 *3373:A1 7.83587e-05
18 *3373:A3 *3768:A1 0.000112534
19 *3373:A3 *3768:A2 0.000157457
20 *3373:A3 *3771:A2 1.37292e-05
21 *3373:A3 *3773:B1 0.000410973
22 *3373:A3 *893:80 6.26559e-05
23 *3373:A3 *1047:14 0.000232399
24 *3373:A3 *1047:68 1.17968e-05
25 *3375:A2 *3370:A 0.000360102
26 *3375:A2 *3371:A 2.59093e-05
27 *3375:A2 *3371:C 2.83916e-05
28 *3375:A2 *3375:A1 5.7661e-06
29 *3375:A2 *3376:B1 6.05161e-06
30 *3375:A2 *3925:CLK 6.12927e-05
31 *3375:A2 *626:70 1.18064e-05
32 *3375:A2 *1048:69 5.59013e-05
33 *3375:A2 *1049:8 1.21258e-05
34 *3378:A *3376:B1 0
35 *3378:A *3771:B1 0.000206919
36 *394:12 *3768:A2 0.000440705
37 *394:12 *3768:B1 7.41433e-05
38 *394:27 *3370:A 5.52238e-05
39 *394:27 *3768:A1 5.56825e-05
40 *394:27 *3768:A2 0.00022459
41 *394:27 *396:96 5.41794e-05
42 *394:27 *877:48 4.66511e-05
43 *394:44 *3370:A 9.60939e-05
44 *394:44 *3768:A2 0.000172309
45 *394:44 *1048:69 5.22828e-05
46 *394:52 *3368:A1 0.000502177
47 *394:52 *3368:A2 1.24368e-05
48 *394:52 *3368:B1 7.79781e-06
49 *394:52 *3371:A 0.000192204
50 *394:52 *3371:C 0.000123288
51 *394:52 *3376:A1 5.52238e-05
52 *394:52 *3376:B1 0
53 *394:52 *1048:69 6.8646e-06
54 *394:58 *3368:A2 1.04232e-05
55 *394:58 *3376:A1 0.000172251
56 *394:58 *4320:A 9.7049e-06
57 *394:85 *3370:C 5.7661e-06
58 *394:85 *3768:A1 4.69993e-05
59 *394:85 *3768:A2 0.00030669
60 *394:85 *1047:14 4.14279e-05
61 *394:85 *1047:20 3.18676e-05
62 *394:85 *1048:69 5.52302e-05
63 *3920:RESET_B *394:12 5.52238e-05
64 *3923:D *3375:A2 0.000173076
65 *3923:D *394:58 9.60875e-05
*RES
1 *3367:X *394:12 22.2821 
2 *394:12 *3372:A2 15.4429 
3 *394:12 *394:27 7.41071 
4 *394:27 *3375:A2 24.2464 
5 *394:27 *394:44 1.76786 
6 *394:44 *394:52 16.9464 
7 *394:52 *394:58 4.67857 
8 *394:58 *3378:A 27.4429 
9 *394:58 *3376:A2 9.3 
10 *394:52 *3368:A3 9.3 
11 *394:44 *394:85 3.42857 
12 *394:85 *3370:D 9.3 
13 *394:85 *3373:A3 26.6929 
*END

*D_NET *395 0.00121233
*CONN
*I *3371:A I *D sky130_fd_sc_hd__and3_2
*I *3368:X O *D sky130_fd_sc_hd__a31o_2
*CAP
1 *3371:A 0.000228966
2 *3368:X 0.000228966
3 *3371:A *3371:C 0.000223558
4 *3375:A2 *3371:A 2.59093e-05
5 *3923:D *3371:A 0.000312729
6 *394:52 *3371:A 0.000192204
*RES
1 *3368:X *3371:A 34.4571 
*END

*D_NET *396 0.0124991
*CONN
*I *3375:B1 I *D sky130_fd_sc_hd__o21ai_2
*I *3371:B I *D sky130_fd_sc_hd__and3_2
*I *3381:B1 I *D sky130_fd_sc_hd__o21ai_2
*I *3377:B1 I *D sky130_fd_sc_hd__o21ai_2
*I *3380:B I *D sky130_fd_sc_hd__and3b_2
*I *3383:B1 I *D sky130_fd_sc_hd__o21ai_2
*I *3386:B I *D sky130_fd_sc_hd__and3b_2
*I *3387:B1 I *D sky130_fd_sc_hd__o21ai_2
*I *3369:Y O *D sky130_fd_sc_hd__nor2_2
*CAP
1 *3375:B1 9.95595e-05
2 *3371:B 4.80778e-05
3 *3381:B1 0.000132031
4 *3377:B1 0.00045235
5 *3380:B 0.00012198
6 *3383:B1 0
7 *3386:B 0
8 *3387:B1 0.000365472
9 *3369:Y 0.000507288
10 *396:96 0.000444761
11 *396:57 0.000980823
12 *396:32 0.000589637
13 *396:24 0.000427577
14 *396:20 0.00103454
15 *396:16 0.00120127
16 *396:14 0.00144902
17 *3371:B *3371:C 5.39166e-06
18 *3375:B1 *3370:A 6.8646e-06
19 *3375:B1 *3505:A 2.89114e-05
20 *3375:B1 *3922:CLK 5.52302e-05
21 *3375:B1 *626:81 6.19181e-05
22 *3375:B1 *644:103 0
23 *3377:B1 *3377:A1 0.00010096
24 *3377:B1 *3378:B 5.71472e-05
25 *3380:B *3380:C 3.00207e-07
26 *3381:B1 *3381:A1 0
27 *3381:B1 *3382:B1 3.25247e-05
28 *3387:B1 *3387:A1 2.8266e-06
29 *3387:B1 *3508:A 0
30 *3387:B1 *876:20 0.000262504
31 *3387:B1 *877:31 0
32 *3387:B1 *1050:27 4.03318e-05
33 *396:14 *3996:CLK 0.000144773
34 *396:14 *4098:A 0.000163877
35 *396:14 *626:8 0.000186669
36 *396:14 *644:77 0.000101545
37 *396:14 *877:48 0
38 *396:14 *1047:76 5.39166e-06
39 *396:14 *1051:10 0.000291626
40 *396:16 *4097:A 3.94624e-05
41 *396:16 *1044:8 2.59355e-05
42 *396:20 *4097:A 2.84318e-05
43 *396:20 *625:80 5.03772e-05
44 *396:24 *625:86 6.19181e-05
45 *396:24 *625:92 0.000417891
46 *396:32 *3383:A1 9.65171e-05
47 *396:32 *3384:B 5.33005e-05
48 *396:32 *3918:CLK 3.92854e-05
49 *396:32 *625:92 0.000125674
50 *396:32 *877:31 0.000126439
51 *396:57 *3323:A 0
52 *396:57 *3380:C 3.0285e-05
53 *396:57 *3921:CLK 0.000230862
54 *396:57 *625:86 2.94103e-05
55 *396:57 *1045:16 0.000125731
56 *396:57 *1046:10 0
57 *396:96 *626:70 0.000202079
58 *396:96 *626:81 2.58997e-05
59 *396:96 *644:77 5.01112e-05
60 *396:96 *644:103 0
61 *396:96 *877:48 0.000151583
62 *396:96 *1047:76 0.000125724
63 *3372:A2 *396:96 0.000125717
64 *3377:A2 *3377:B1 0.000365753
65 *3377:A2 *3380:B 3.69047e-06
66 *3377:A2 *396:57 2.97756e-05
67 *3383:A2 *3387:B1 9.0573e-05
68 *3920:D *396:20 3.88139e-05
69 *3921:D *3380:B 6.05161e-06
70 *3925:D *3375:B1 2.1527e-05
71 *3925:D *396:96 4.1331e-06
72 *3997:D *396:24 0
73 *11:10 *3377:B1 1.14406e-05
74 *11:10 *3381:B1 0
75 *11:10 *396:24 2.97443e-06
76 *11:10 *396:57 4.83561e-06
77 *355:18 *396:57 0
78 *391:10 *3387:B1 0.000100831
79 *392:10 *396:24 4.46186e-06
80 *392:25 *396:24 0.000194276
81 *392:29 *3381:B1 0
82 *394:27 *396:96 5.41794e-05
*RES
1 *3369:Y *396:14 28.5143 
2 *396:14 *396:16 7.51786 
3 *396:16 *396:20 9.55357 
4 *396:20 *396:24 11.3036 
5 *396:24 *396:32 14.4286 
6 *396:32 *3387:B1 23.7464 
7 *396:32 *3386:B 9.3 
8 *396:24 *3383:B1 9.3 
9 *396:20 *396:57 8.92857 
10 *396:57 *3380:B 15.1571 
11 *396:57 *3377:B1 24.2643 
12 *396:16 *3381:B1 20.55 
13 *396:14 *396:96 13.4286 
14 *396:96 *3371:B 14.3357 
15 *396:96 *3375:B1 16.2821 
*END

*D_NET *397 0.00107398
*CONN
*I *3371:C I *D sky130_fd_sc_hd__and3_2
*I *3370:Y O *D sky130_fd_sc_hd__nand4_2
*CAP
1 *3371:C 0.000339026
2 *3370:Y 0.000339026
3 *3371:C *1048:69 1.52978e-05
4 *3371:A *3371:C 0.000223558
5 *3371:B *3371:C 5.39166e-06
6 *3375:A2 *3371:C 2.83916e-05
7 *394:52 *3371:C 0.000123288
*RES
1 *3370:Y *3371:C 32.6536 
*END

*D_NET *398 0.000269636
*CONN
*I *3374:A I *D sky130_fd_sc_hd__nor2_2
*I *3372:Y O *D sky130_fd_sc_hd__a21oi_2
*CAP
1 *3374:A 7.10984e-05
2 *3372:Y 7.10984e-05
3 *3374:A *626:56 0
4 *3374:A *644:77 0.000127439
5 *3924:D *3374:A 0
*RES
1 *3372:Y *3374:A 29.2429 
*END

*D_NET *399 0.000883773
*CONN
*I *3374:B I *D sky130_fd_sc_hd__nor2_2
*I *3373:X O *D sky130_fd_sc_hd__a311o_2
*CAP
1 *3374:B 0.000217491
2 *3373:X 0.000217491
3 *3374:B *626:56 0.000230475
4 *3374:B *1047:76 0.000218315
*RES
1 *3373:X *3374:B 24.475 
*END

*D_NET *400 0.000530986
*CONN
*I *3376:B1 I *D sky130_fd_sc_hd__a21oi_2
*I *3375:Y O *D sky130_fd_sc_hd__o21ai_2
*CAP
1 *3376:B1 0.000135705
2 *3375:Y 0.000135705
3 *3376:B1 *3370:A 3.17148e-05
4 *3376:B1 *3505:A 5.52238e-05
5 *3376:B1 *3771:B1 0
6 *3376:B1 *3922:CLK 6.05161e-06
7 *3376:B1 *3925:CLK 2.05612e-05
8 *3376:B1 *644:103 0
9 *3376:B1 *1049:8 4.08637e-05
10 *3375:A2 *3376:B1 6.05161e-06
11 *3378:A *3376:B1 0
12 *3923:D *3376:B1 9.91086e-05
13 *394:52 *3376:B1 0
*RES
1 *3375:Y *3376:B1 30.4929 
*END

*D_NET *401 0.000274073
*CONN
*I *3378:B I *D sky130_fd_sc_hd__nor2_2
*I *3377:Y O *D sky130_fd_sc_hd__o21ai_2
*CAP
1 *3378:B 9.50771e-05
2 *3377:Y 9.50771e-05
3 *3378:B *3377:A1 2.14658e-05
4 *3377:B1 *3378:B 5.71472e-05
5 *3922:D *3378:B 5.30637e-06
*RES
1 *3377:Y *3378:B 20.3857 
*END

*D_NET *402 0.000402652
*CONN
*I *3380:C I *D sky130_fd_sc_hd__and3b_2
*I *3379:X O *D sky130_fd_sc_hd__a21o_2
*CAP
1 *3380:C 7.64036e-05
2 *3379:X 7.64036e-05
3 *3380:C *1045:18 5.71472e-05
4 *3380:C *1046:10 0.000100831
5 *3366:C *3380:C 5.52302e-05
6 *3377:A2 *3380:C 6.05161e-06
7 *3380:B *3380:C 3.00207e-07
8 *396:57 *3380:C 3.0285e-05
*RES
1 *3379:X *3380:C 29.6402 
*END

*D_NET *403 0.000632277
*CONN
*I *3382:B1 I *D sky130_fd_sc_hd__a21oi_2
*I *3381:Y O *D sky130_fd_sc_hd__o21ai_2
*CAP
1 *3382:B1 0.000193654
2 *3381:Y 0.000193654
3 *3381:B1 *3382:B1 3.25247e-05
4 *3920:D *3382:B1 0.00014576
5 *3920:RESET_B *3382:B1 0
6 *392:29 *3382:B1 6.66846e-05
*RES
1 *3381:Y *3382:B1 31.975 
*END

*D_NET *404 0.000384471
*CONN
*I *3384:B I *D sky130_fd_sc_hd__nor2_2
*I *3383:Y O *D sky130_fd_sc_hd__o21ai_2
*CAP
1 *3384:B 0.000165585
2 *3383:Y 0.000165585
3 *396:32 *3384:B 5.33005e-05
*RES
1 *3383:Y *3384:B 21.2071 
*END

*D_NET *405 0.000666936
*CONN
*I *3386:C I *D sky130_fd_sc_hd__and3b_2
*I *3385:X O *D sky130_fd_sc_hd__a21o_2
*CAP
1 *3386:C 0.000220585
2 *3385:X 0.000220585
3 *3386:C *3365:B 0.000102303
4 *3386:C *1050:16 7.01629e-05
5 *3386:A_N *3386:C 5.33005e-05
*RES
1 *3385:X *3386:C 21.658 
*END

*D_NET *406 0.000352254
*CONN
*I *3388:B1 I *D sky130_fd_sc_hd__a21oi_2
*I *3387:Y O *D sky130_fd_sc_hd__o21ai_2
*CAP
1 *3388:B1 0.00013378
2 *3387:Y 0.00013378
3 *3388:B1 *3364:C 6.05161e-06
4 *3388:B1 *641:54 5.5782e-05
5 *3388:B1 *1041:10 0
6 *3388:B1 *1041:21 0
7 *3388:B1 *1041:25 2.28598e-05
*RES
1 *3387:Y *3388:B1 30.0821 
*END

*D_NET *407 0.00242034
*CONN
*I *3390:B1 I *D sky130_fd_sc_hd__o21a_2
*I *3389:X O *D sky130_fd_sc_hd__a21o_2
*CAP
1 *3390:B1 0.000589628
2 *3389:X 0.000589628
3 *3390:B1 *3324:A 0.000100831
4 *3390:B1 *3390:A1 0.000188586
5 *3390:B1 *3390:A2 5.52302e-05
6 *3390:B1 *3849:A1 0.000313235
7 *3390:B1 *878:92 0.000103983
8 *3390:B1 *934:26 0.000476709
9 *3916:D *3390:B1 2.51343e-06
*RES
1 *3389:X *3390:B1 39.4393 
*END

*D_NET *408 0.000374509
*CONN
*I *3392:B1 I *D sky130_fd_sc_hd__o21a_2
*I *3391:X O *D sky130_fd_sc_hd__a21o_2
*CAP
1 *3392:B1 0.000108731
2 *3391:X 0.000108731
3 *3392:B1 *3391:B1 0.000128146
4 *3392:B1 *3804:B1 2.89016e-05
*RES
1 *3391:X *3392:B1 29.7786 
*END

*D_NET *409 0.00429344
*CONN
*I *3394:A3 I *D sky130_fd_sc_hd__o32a_2
*I *3393:X O *D sky130_fd_sc_hd__o21ba_2
*CAP
1 *3394:A3 0.000526501
2 *3393:X 0.00107718
3 *409:22 0.00160368
4 *3394:A3 *3394:A1 5.7661e-06
5 *3394:A3 *3394:B1 0.000312466
6 *3394:A3 *3881:CLK 3.65178e-05
7 *409:22 *3394:B1 4.88631e-05
8 *409:22 *3863:D 0
9 *409:22 *3964:RESET_B 0.000131653
10 *409:22 *4124:A 6.62983e-05
11 *409:22 *4385:A 6.08886e-05
12 *409:22 *613:22 0
13 *409:22 *647:28 3.27359e-05
14 *409:22 *655:111 3.79467e-05
15 *409:22 *1012:14 0.000266957
16 *409:22 *1013:10 6.96405e-05
17 *409:22 *1026:6 1.63504e-05
18 *55:18 *409:22 0
*RES
1 *3393:X *409:22 44.2464 
2 *409:22 *3394:A3 16.7286 
*END

*D_NET *410 0.00439517
*CONN
*I *3395:C I *D sky130_fd_sc_hd__or3_2
*I *3394:X O *D sky130_fd_sc_hd__o32a_2
*CAP
1 *3395:C 0
2 *3394:X 0.00105138
3 *410:12 0.00105138
4 *410:12 *3394:A1 4.59075e-05
5 *410:12 *3394:B1 0.000106153
6 *410:12 *3881:CLK 0.00030926
7 *410:12 *4068:A 0.000227426
8 *410:12 *4257:A 6.05161e-06
9 *410:12 *4379:A 0.000191767
10 *410:12 *647:28 2.86908e-05
11 *410:12 *648:16 6.99312e-05
12 *410:12 *1015:8 0.000298084
13 *55:18 *410:12 0.00100915
*RES
1 *3394:X *410:12 41.2107 
2 *410:12 *3395:C 9.3 
*END

*D_NET *411 0.000538083
*CONN
*I *3427:B1 I *D sky130_fd_sc_hd__a22o_2
*I *3399:Y O *D sky130_fd_sc_hd__inv_2
*CAP
1 *3427:B1 9.95361e-05
2 *3399:Y 9.95361e-05
3 *3427:B1 *3427:A1 0.000183726
4 *3427:B1 *3427:B2 5.01213e-05
5 *3427:B1 *4315:A 0.000105163
6 *3975:D *3427:B1 0
*RES
1 *3399:Y *3427:B1 30.7071 
*END

*D_NET *412 0.00249169
*CONN
*I *3411:A2 I *D sky130_fd_sc_hd__o21ai_2
*I *3409:B I *D sky130_fd_sc_hd__xnor2_2
*I *3408:B1 I *D sky130_fd_sc_hd__o21ai_2
*I *3406:X O *D sky130_fd_sc_hd__a21o_2
*CAP
1 *3411:A2 0
2 *3409:B 0
3 *3408:B1 0.000295076
4 *3406:X 0.000219375
5 *412:22 0.000425804
6 *412:12 0.000350103
7 *3408:B1 *3406:A1 0
8 *3408:B1 *631:12 0.000245349
9 *3408:B1 *906:12 4.70078e-05
10 *412:12 *3406:A1 0.000338351
11 *412:12 *3406:A2 0
12 *412:12 *3412:A 4.38128e-05
13 *412:12 *3412:B 5.52238e-05
14 *412:12 *625:21 0
15 *412:12 *631:12 0
16 *412:22 *3406:A1 1.50832e-05
17 *412:22 *3412:A 5.52302e-05
18 *412:22 *3412:B 1.33343e-05
19 *412:22 *631:12 0.000145518
20 *3989:D *3408:B1 0.000242422
*RES
1 *3406:X *412:12 23.5143 
2 *412:12 *412:22 7.94643 
3 *412:22 *3408:B1 20.3714 
4 *412:22 *3409:B 13.8 
5 *412:12 *3411:A2 9.3 
*END

*D_NET *413 0.00239348
*CONN
*I *3408:A2 I *D sky130_fd_sc_hd__o21ai_2
*I *3407:Y O *D sky130_fd_sc_hd__nand2_2
*CAP
1 *3408:A2 0
2 *3407:Y 0.000985005
3 *413:22 0.000985005
4 *413:22 *3406:A1 0
5 *413:22 *3407:A 1.00073e-05
6 *413:22 *3407:B 5.17614e-05
7 *413:22 *3409:A 2.89016e-05
8 *413:22 *4391:A 9.82592e-05
9 *413:22 *4394:A 0.000125909
10 *3408:A1 *413:22 1.83136e-05
11 *3990:D *413:22 9.03141e-05
*RES
1 *3407:Y *413:22 42.3536 
2 *413:22 *3408:A2 9.3 
*END

*D_NET *414 0.00626303
*CONN
*I *3415:A2 I *D sky130_fd_sc_hd__o21ai_2
*I *3413:B I *D sky130_fd_sc_hd__xnor2_2
*I *3414:C I *D sky130_fd_sc_hd__or3_2
*I *3412:A I *D sky130_fd_sc_hd__nand2_2
*I *3410:X O *D sky130_fd_sc_hd__a2111o_2
*CAP
1 *3415:A2 0.000390219
2 *3413:B 0
3 *3414:C 0.00024851
4 *3412:A 0.000448506
5 *3410:X 0.00022604
6 *414:36 0.000480785
7 *414:23 0.000601224
8 *414:10 0.000936694
9 *3412:A *3411:A1 6.86792e-05
10 *3412:A *3412:B 0.000123387
11 *3414:C *3406:B1 5.1863e-05
12 *3414:C *3414:A 0.000540833
13 *3414:C *3414:B 0.00104754
14 *3414:C *416:24 0.000122494
15 *3415:A2 *3414:B 0
16 *3415:A2 *3415:A1 0
17 *3415:A2 *3415:B1 0
18 *3415:A2 *3416:B 7.89183e-05
19 *3415:A2 *3417:A 0
20 *3415:A2 *3419:B 5.52302e-05
21 *3415:A2 *3420:B 0
22 *3415:A2 *416:24 0.000198738
23 *3415:A2 *762:10 0
24 *414:10 *3410:C1 0.00010096
25 *414:10 *642:14 0.000158736
26 *414:10 *653:8 0
27 *414:23 *3406:A2 0
28 *414:23 *416:24 1.05524e-05
29 *414:23 *642:14 0.000192922
30 *414:23 *653:8 0
31 *414:23 *664:10 0
32 *414:23 *673:8 0
33 *414:36 *3414:B 0
34 *414:36 *416:24 7.8327e-05
35 *3408:A1 *414:10 2.8266e-06
36 *4335:A *414:23 0
37 *412:12 *3412:A 4.38128e-05
38 *412:22 *3412:A 5.52302e-05
*RES
1 *3410:X *414:10 18.5143 
2 *414:10 *3412:A 21.3357 
3 *414:10 *414:23 5.89286 
4 *414:23 *3414:C 24.5143 
5 *414:23 *414:36 1.94643 
6 *414:36 *3413:B 13.8 
7 *414:36 *3415:A2 21.7464 
*END

*D_NET *415 0.000508732
*CONN
*I *3412:B I *D sky130_fd_sc_hd__nand2_2
*I *3411:Y O *D sky130_fd_sc_hd__o21ai_2
*CAP
1 *3412:B 0.000158393
2 *3411:Y 0.000158393
3 *3412:A *3412:B 0.000123387
4 *412:12 *3412:B 5.52238e-05
5 *412:22 *3412:B 1.33343e-05
*RES
1 *3411:Y *3412:B 22.0464 
*END

*D_NET *416 0.0049072
*CONN
*I *3416:A I *D sky130_fd_sc_hd__nand2_2
*I *3417:B I *D sky130_fd_sc_hd__or2_2
*I *3418:B I *D sky130_fd_sc_hd__nand2_2
*I *3414:X O *D sky130_fd_sc_hd__or3_2
*CAP
1 *3416:A 2.13449e-05
2 *3417:B 0.000141333
3 *3418:B 0
4 *3414:X 0.00135612
5 *416:30 0.000424688
6 *416:24 0.00166082
7 *3416:A *3993:CLK 5.04841e-06
8 *3417:B *3417:A 0.000217478
9 *3417:B *762:10 1.02504e-05
10 *416:24 *3414:B 0.000132088
11 *416:24 *3415:A1 0.000181134
12 *416:24 *641:124 1.01912e-05
13 *416:24 *673:8 9.32027e-05
14 *416:30 *3415:B1 2.15759e-05
15 *416:30 *762:10 0.000166582
16 *3414:C *416:24 0.000122494
17 *3415:A2 *416:24 0.000198738
18 *3993:D *416:24 5.52238e-05
19 *4347:A *416:30 0
20 *414:23 *416:24 1.05524e-05
21 *414:36 *416:24 7.8327e-05
*RES
1 *3414:X *416:24 35.808 
2 *416:24 *416:30 10.0536 
3 *416:30 *3418:B 13.8 
4 *416:30 *3417:B 17.1929 
5 *416:24 *3416:A 9.72857 
*END

*D_NET *417 0.00028211
*CONN
*I *3416:B I *D sky130_fd_sc_hd__nand2_2
*I *3415:Y O *D sky130_fd_sc_hd__o21ai_2
*CAP
1 *3416:B 6.49232e-05
2 *3415:Y 6.49232e-05
3 *3416:B *3415:B1 7.33453e-05
4 *3415:A2 *3416:B 7.89183e-05
*RES
1 *3415:Y *3416:B 29.5464 
*END

*D_NET *418 0.0015191
*CONN
*I *3419:A I *D sky130_fd_sc_hd__nand2_2
*I *3420:B I *D sky130_fd_sc_hd__xnor2_2
*I *3417:X O *D sky130_fd_sc_hd__or2_2
*CAP
1 *3419:A 0
2 *3420:B 0.000200386
3 *3417:X 0.000430609
4 *418:10 0.000630995
5 *3420:B *3415:A1 3.2231e-05
6 *3420:B *3993:CLK 0.000224879
7 *3415:A2 *3420:B 0
*RES
1 *3417:X *418:10 20.6929 
2 *418:10 *3420:B 18.4786 
3 *418:10 *3419:A 13.8 
*END

*D_NET *419 0.00053138
*CONN
*I *3419:B I *D sky130_fd_sc_hd__nand2_2
*I *3418:Y O *D sky130_fd_sc_hd__nand2_2
*CAP
1 *3419:B 0.000202474
2 *3418:Y 0.000202474
3 *3419:B *3415:A1 4.22908e-05
4 *3419:B *3415:B1 2.89114e-05
5 *3415:A2 *3419:B 5.52302e-05
*RES
1 *3418:Y *3419:B 22.4393 
*END

*D_NET *420 0.00126992
*CONN
*I *3422:B2 I *D sky130_fd_sc_hd__o2bb2a_2
*I *3421:X O *D sky130_fd_sc_hd__and2b_2
*CAP
1 *3422:B2 0.000487288
2 *3421:X 0.000487288
3 *3422:B2 *3778:B1 6.97409e-05
4 *3422:B2 *509:10 0
5 *3422:B2 *662:41 0
6 *3422:B2 *885:28 1.21258e-05
7 *3422:B2 *885:39 8.55195e-05
8 *3422:B2 *899:47 9.60875e-05
9 *3422:B1 *3422:B2 3.18676e-05
*RES
1 *3421:X *3422:B2 36.1357 
*END

*D_NET *421 0.00125404
*CONN
*I *3424:A3 I *D sky130_fd_sc_hd__a32o_2
*I *3423:Y O *D sky130_fd_sc_hd__nand2_2
*CAP
1 *3424:A3 0.00020409
2 *3423:Y 0.00020409
3 *3424:A3 *3423:A 0.000576865
4 *3424:A3 *3423:B 7.44824e-05
5 *3424:A3 *4328:A 0.000105582
6 *3424:A3 *1115:8 8.89289e-05
*RES
1 *3423:Y *3424:A3 35.0107 
*END

*D_NET *422 0.0016293
*CONN
*I *3426:C1 I *D sky130_fd_sc_hd__a211oi_2
*I *3425:Y O *D sky130_fd_sc_hd__a21oi_2
*CAP
1 *3426:C1 0.000376509
2 *3425:Y 0.000376509
3 *3426:C1 *3425:B1 5.52302e-05
4 *3426:C1 *3776:A2 0.000147474
5 *3426:C1 *611:132 3.34295e-05
6 *3426:C1 *885:28 0
7 *3426:C1 *1096:29 2.44318e-05
8 *3426:C1 *1114:36 1.41029e-05
9 *3426:C1 *1116:12 0.00039299
10 *3426:C1 *1116:38 9.90431e-05
11 *3928:SET_B *3426:C1 0.000109576
*RES
1 *3425:Y *3426:C1 38.0821 
*END

*D_NET *423 0.00388007
*CONN
*I *3521:B I *D sky130_fd_sc_hd__or2_2
*I *3432:B1 I *D sky130_fd_sc_hd__a21o_2
*I *3431:X O *D sky130_fd_sc_hd__and2_2
*CAP
1 *3521:B 0
2 *3432:B1 0.000121527
3 *3431:X 0.00102265
4 *423:38 0.000901124
5 *3432:B1 *611:10 0.000127446
6 *423:38 *3780:A1 1.37292e-05
7 *423:38 *3780:A2 0.000207287
8 *423:38 *4083:A 0
9 *423:38 *4212:A 0.000487467
10 *423:38 *611:8 0.000183412
11 *423:38 *658:50 3.75052e-05
12 *423:38 *708:10 0.000129944
13 *423:38 *1089:22 0.000170654
14 *3431:A *3432:B1 6.54263e-05
15 *3431:A *423:38 0.00012802
16 *3932:RESET_B *423:38 5.08577e-05
17 *3975:D *3432:B1 0.000125724
18 *3975:D *423:38 1.41029e-05
19 *4018:D *423:38 0
20 *4216:A *423:38 9.31893e-05
*RES
1 *3431:X *3432:B1 30.1893 
2 *3431:X *423:38 46.1571 
3 *423:38 *3521:B 9.3 
*END

*D_NET *424 0.00211377
*CONN
*I *3438:B2 I *D sky130_fd_sc_hd__a22o_2
*I *3435:A2_N I *D sky130_fd_sc_hd__a2bb2o_2
*I *3434:X O *D sky130_fd_sc_hd__or2_2
*CAP
1 *3438:B2 0.000249522
2 *3435:A2_N 0
3 *3434:X 0.000447265
4 *424:12 0.000696787
5 *3438:B2 *3435:B2 9.60875e-05
6 *3438:B2 *3438:B1 4.1896e-06
7 *424:12 *3434:A 0.000442658
8 *424:12 *3527:A1 5.54218e-05
9 *424:12 *3528:B1 3.55979e-06
10 *424:12 *644:55 0
11 *3435:A1_N *3438:B2 5.27514e-05
12 *3435:B1 *3438:B2 6.55261e-05
*RES
1 *3434:X *424:12 25.7821 
2 *424:12 *3435:A2_N 9.3 
3 *424:12 *3438:B2 13.5679 
*END

*D_NET *425 0.000480442
*CONN
*I *3441:B I *D sky130_fd_sc_hd__nor2_2
*I *3440:Y O *D sky130_fd_sc_hd__a21oi_2
*CAP
1 *3441:B 0.000121661
2 *3440:Y 0.000121661
3 *3441:B *3440:A2 3.65695e-05
4 *3441:B *627:55 0.000128154
5 *3441:B *934:26 2.59921e-06
6 *360:33 *3441:B 6.97972e-05
*RES
1 *3440:Y *3441:B 30.1893 
*END

*D_NET *426 0.00629194
*CONN
*I *3466:A I *D sky130_fd_sc_hd__nor2_2
*I *3458:B I *D sky130_fd_sc_hd__and3_2
*I *3453:B1 I *D sky130_fd_sc_hd__a22o_2
*I *3449:B1 I *D sky130_fd_sc_hd__o21a_2
*I *3443:Y O *D sky130_fd_sc_hd__nor3_2
*CAP
1 *3466:A 0.000130671
2 *3458:B 0.000177739
3 *3453:B1 0
4 *3449:B1 0.000335457
5 *3443:Y 0.000599157
6 *426:26 0.000706234
7 *426:16 0.000877185
8 *426:10 0.0010585
9 *3449:B1 *3448:B 0.000222666
10 *3449:B1 *3448:C 1.4487e-05
11 *3449:B1 *3457:A3 2.37575e-05
12 *3449:B1 *3458:C 0.00011823
13 *3449:B1 *4090:A 0.000148903
14 *3449:B1 *1004:18 9.04846e-05
15 *3458:B *3458:C 0.000105821
16 *3458:B *3525:A0 8.69386e-05
17 *3458:B *948:12 3.2871e-05
18 *3458:B *948:14 1.00375e-05
19 *3466:A *638:37 0.000101336
20 *3466:A *1002:16 0.000310233
21 *426:10 *3443:B 2.44318e-05
22 *426:10 *3443:C 0.00010096
23 *426:10 *3947:RESET_B 0.000101445
24 *426:10 *989:20 0.000312215
25 *426:10 *1002:8 7.86705e-05
26 *426:16 *3458:C 4.15183e-05
27 *426:16 *3947:CLK 4.88515e-05
28 *426:16 *4306:A 5.83304e-05
29 *426:16 *948:20 1.91418e-05
30 *426:16 *1002:8 9.33978e-07
31 *426:16 *1002:16 0
32 *426:26 *3524:B1 1.05524e-05
33 *3449:A1 *3449:B1 5.52238e-05
34 *3453:A2 *426:26 4.64488e-06
35 *3457:A1 *426:26 0.000194518
36 *3947:D *3458:B 0
37 *3947:D *426:16 1.72894e-05
38 *109:14 *3449:B1 3.17148e-05
39 *109:28 *3449:B1 3.63298e-05
40 *364:12 *3458:B 4.46186e-06
*RES
1 *3443:Y *426:10 20.1393 
2 *426:10 *426:16 9.09821 
3 *426:16 *426:26 12.4365 
4 *426:26 *3449:B1 25.9786 
5 *426:26 *3453:B1 9.3 
6 *426:16 *3458:B 17.3446 
7 *426:10 *3466:A 22.3714 
*END

*D_NET *427 0.0102332
*CONN
*I *3687:B2 I *D sky130_fd_sc_hd__a221o_2
*I *3701:S I *D sky130_fd_sc_hd__mux2_1
*I *3695:S I *D sky130_fd_sc_hd__mux2_1
*I *3699:S I *D sky130_fd_sc_hd__mux2_1
*I *3693:S I *D sky130_fd_sc_hd__mux2_1
*I *3697:S I *D sky130_fd_sc_hd__mux2_1
*I *3691:S I *D sky130_fd_sc_hd__mux2_1
*I *3703:S I *D sky130_fd_sc_hd__mux2_1
*I *3445:Y O *D sky130_fd_sc_hd__nor2_2
*CAP
1 *3687:B2 8.19321e-06
2 *3701:S 1.91209e-05
3 *3695:S 0
4 *3699:S 0
5 *3693:S 0
6 *3697:S 0.000139457
7 *3691:S 0.000232022
8 *3703:S 0
9 *3445:Y 0.000150207
10 *427:67 0.000618291
11 *427:61 0.000526516
12 *427:55 0.00100013
13 *427:43 0.00101696
14 *427:29 0.000499672
15 *427:20 0.000613069
16 *427:12 0.000587452
17 *3687:B2 *3687:C1 6.26774e-06
18 *3691:S *3691:A0 9.71197e-05
19 *3691:S *564:14 7.19508e-05
20 *3697:S *3484:A2 0
21 *3697:S *3694:B2 0
22 *3697:S *4108:A 7.10921e-05
23 *427:12 *3445:A 5.46383e-06
24 *427:12 *3687:C1 9.32314e-05
25 *427:12 *434:12 3.29297e-05
26 *427:12 *618:12 1.16543e-05
27 *427:12 *618:57 7.80059e-05
28 *427:12 *1002:51 1.05521e-05
29 *427:20 *3474:A 0.000166983
30 *427:20 *3474:B 5.33882e-05
31 *427:20 *3475:B 9.71197e-05
32 *427:20 *3483:A2 3.34725e-05
33 *427:20 *3483:B1 2.89016e-05
34 *427:20 *3483:B2 3.18676e-05
35 *427:20 *3485:C 0.000402784
36 *427:20 *3687:B1 0
37 *427:20 *3689:A1 5.30002e-05
38 *427:20 *3703:A0 5.99385e-05
39 *427:20 *618:18 0.00011448
40 *427:20 *618:20 0.000105903
41 *427:20 *618:57 4.73355e-05
42 *427:20 *846:23 5.41794e-05
43 *427:20 *988:12 1.52978e-05
44 *427:20 *988:29 4.02462e-05
45 *427:20 *1002:51 3.67279e-06
46 *427:29 *3485:C 2.77289e-05
47 *427:29 *3703:A0 7.32272e-05
48 *427:29 *3703:A1 0.000310292
49 *427:29 *3704:B2 1.54142e-05
50 *427:43 *3485:B 0.00021478
51 *427:43 *3704:B2 2.44318e-05
52 *427:43 *842:10 5.97299e-05
53 *427:43 *854:26 0.000484374
54 *427:55 *3482:B 4.38128e-05
55 *427:55 *3485:B 0.000102474
56 *427:55 *3700:B2 4.35336e-05
57 *427:55 *4317:A 5.52238e-05
58 *427:55 *4381:A 0.000118595
59 *427:55 *564:14 8.6229e-06
60 *427:55 *842:10 0.00035013
61 *427:55 *844:14 0
62 *427:55 *850:26 0.000140088
63 *427:55 *854:26 0
64 *427:55 *908:49 0
65 *427:55 *986:27 0.00010096
66 *427:61 *3693:A1 8.43535e-06
67 *427:61 *986:27 0.000303494
68 *427:67 *3693:A0 1.21258e-05
69 *427:67 *3693:A1 6.33113e-05
70 *427:67 *3694:B2 0
71 *427:67 *3860:RESET_B 0
72 *427:67 *4400:A 0.00034657
73 *427:67 *986:10 4.43046e-05
74 *3858:D *427:55 6.58289e-05
75 *4356:A *427:67 0
76 *4357:A *427:43 1.77668e-05
*RES
1 *3445:Y *427:12 16.6214 
2 *427:12 *427:20 17.2857 
3 *427:20 *3703:S 9.3 
4 *427:20 *427:29 4.66071 
5 *427:29 *427:43 8.35714 
6 *427:43 *427:55 24.625 
7 *427:55 *427:61 5.5 
8 *427:61 *427:67 10.3214 
9 *427:67 *3691:S 18.05 
10 *427:67 *3697:S 16.3536 
11 *427:61 *3693:S 9.3 
12 *427:55 *3699:S 9.3 
13 *427:43 *3695:S 9.3 
14 *427:29 *3701:S 9.72857 
15 *427:12 *3687:B2 13.9295 
*END

*D_NET *428 0.0022184
*CONN
*I *3448:C I *D sky130_fd_sc_hd__and4_2
*I *3457:A2 I *D sky130_fd_sc_hd__a31o_2
*I *3464:B I *D sky130_fd_sc_hd__or2_2
*I *3463:B I *D sky130_fd_sc_hd__nor2_2
*I *3446:X O *D sky130_fd_sc_hd__or2_2
*CAP
1 *3448:C 8.23515e-05
2 *3457:A2 4.46977e-05
3 *3464:B 0.000105748
4 *3463:B 0
5 *3446:X 0
6 *428:30 0.000246814
7 *428:12 0.000248587
8 *428:6 0.000262604
9 *3448:C *3457:A3 4.57311e-05
10 *3448:C *3457:B1 0.0001399
11 *3448:C *3458:C 0.00026929
12 *3457:A2 *3457:A3 7.61109e-05
13 *3457:A2 *3458:C 3.05179e-05
14 *3464:B *3464:A 9.41642e-05
15 *3464:B *3687:A2 9.86486e-06
16 *428:12 *3687:A2 4.51148e-05
17 *428:12 *434:12 9.75679e-05
18 *428:12 *618:57 0.00014852
19 *428:12 *1002:51 4.07423e-05
20 *428:30 *618:57 5.533e-05
21 *428:30 *618:68 0
22 *428:30 *1004:26 0
23 *3449:B1 *3448:C 1.4487e-05
24 *3457:A1 *428:30 0.000113068
25 *109:28 *428:30 4.71848e-05
*RES
1 *3446:X *428:6 13.8 
2 *428:6 *428:12 8.21429 
3 *428:12 *3463:B 9.3 
4 *428:12 *3464:B 11.0857 
5 *428:6 *428:30 7.35714 
6 *428:30 *3457:A2 10.4696 
7 *428:30 *3448:C 12.3179 
*END

*D_NET *429 0.00129149
*CONN
*I *3457:A3 I *D sky130_fd_sc_hd__a31o_2
*I *3448:D I *D sky130_fd_sc_hd__and4_2
*I *3447:Y O *D sky130_fd_sc_hd__nand2b_2
*CAP
1 *3457:A3 0.000180244
2 *3448:D 0
3 *3447:Y 0.000104316
4 *429:12 0.00028456
5 *3457:A3 *3449:A2 5.52238e-05
6 *3457:A3 *3457:B1 0.0001399
7 *3457:A3 *3458:C 2.61528e-05
8 *429:12 *4090:A 0.000145609
9 *429:12 *1004:18 9.25014e-06
10 *429:12 *1004:26 0.000145405
11 *3448:C *3457:A3 4.57311e-05
12 *3449:B1 *3457:A3 2.37575e-05
13 *3457:A2 *3457:A3 7.61109e-05
14 *109:28 *429:12 5.52238e-05
*RES
1 *3447:Y *429:12 20.7821 
2 *429:12 *3448:D 9.3 
3 *429:12 *3457:A3 13.1393 
*END

*D_NET *430 0.00039246
*CONN
*I *3449:A2 I *D sky130_fd_sc_hd__o21a_2
*I *3448:X O *D sky130_fd_sc_hd__and4_2
*CAP
1 *3449:A2 0.000105172
2 *3448:X 0.000105172
3 *3457:A1 *3449:A2 4.1331e-06
4 *3457:A3 *3449:A2 5.52238e-05
5 *109:28 *3449:A2 0.000122758
*RES
1 *3448:X *3449:A2 29.7786 
*END

*D_NET *431 0.00183952
*CONN
*I *3524:B1 I *D sky130_fd_sc_hd__a31o_2
*I *3453:B2 I *D sky130_fd_sc_hd__a22o_2
*I *3452:X O *D sky130_fd_sc_hd__and3_2
*CAP
1 *3524:B1 0.00016315
2 *3453:B2 0
3 *3452:X 0.000314276
4 *431:10 0.000477426
5 *3524:B1 *3459:A1 5.71472e-05
6 *3524:B1 *3949:RESET_B 6.59765e-05
7 *3524:B1 *1004:12 9.69119e-06
8 *3524:B1 *1004:18 5.71472e-05
9 *431:10 *3447:B 4.36555e-05
10 *431:10 *3448:A 0.000281337
11 *431:10 *3452:C 1.32293e-05
12 *431:10 *3465:A2 9.41642e-05
13 *431:10 *3949:RESET_B 0.000105286
14 *431:10 *618:134 0
15 *431:10 *634:42 0.000146485
16 *3453:A2 *3524:B1 0
17 *3453:A2 *431:10 0
18 *426:26 *3524:B1 1.05524e-05
*RES
1 *3452:X *431:10 19.9429 
2 *431:10 *3453:B2 13.8 
3 *431:10 *3524:B1 16.8179 
*END

*D_NET *432 0.00244695
*CONN
*I *3458:C I *D sky130_fd_sc_hd__and3_2
*I *3457:X O *D sky130_fd_sc_hd__a31o_2
*CAP
1 *3458:C 0.000669933
2 *3457:X 0.000669933
3 *3458:C *3448:A 9.60875e-05
4 *3458:C *3448:B 1.21289e-05
5 *3458:C *3453:A1 7.80871e-05
6 *3458:C *3947:CLK 0.000222666
7 *3458:C *948:14 3.92854e-05
8 *3458:C *948:20 3.49114e-05
9 *3448:C *3458:C 0.00026929
10 *3449:B1 *3458:C 0.00011823
11 *3453:A2 *3458:C 3.23834e-05
12 *3457:A2 *3458:C 3.05179e-05
13 *3457:A3 *3458:C 2.61528e-05
14 *3458:B *3458:C 0.000105821
15 *426:16 *3458:C 4.15183e-05
*RES
1 *3457:X *3458:C 41.3143 
*END

*D_NET *433 0.00334322
*CONN
*I *3518:B1 I *D sky130_fd_sc_hd__a21o_2
*I *3523:A0 I *D sky130_fd_sc_hd__mux2_1
*I *3461:C1 I *D sky130_fd_sc_hd__a221o_2
*I *3460:X O *D sky130_fd_sc_hd__and3b_2
*CAP
1 *3518:B1 0.000521094
2 *3523:A0 0.000214714
3 *3461:C1 0
4 *3460:X 0
5 *433:10 0.000458483
6 *433:4 0.000764863
7 *3518:B1 *3341:A 5.74633e-05
8 *3518:B1 *3518:A1 0.00036496
9 *3518:B1 *616:10 0.000125057
10 *3518:B1 *616:72 0.000114655
11 *3523:A0 *3461:B2 0.000205356
12 *3523:A0 *3953:D 0
13 *433:10 *3341:A 1.56e-05
14 *433:10 *3460:B 3.14048e-05
15 *433:10 *3460:C 5.57334e-05
16 *433:10 *3461:B2 5.80706e-06
17 *433:10 *3743:B 0.000117036
18 *3454:A1 *433:10 0
19 *3976:D *3518:B1 0.000290993
*RES
1 *3460:X *433:4 9.3 
2 *433:4 *433:10 9.94643 
3 *433:10 *3461:C1 13.8 
4 *433:10 *3523:A0 18.7821 
5 *433:4 *3518:B1 30.2286 
*END

*D_NET *434 0.00787326
*CONN
*I *3687:C1 I *D sky130_fd_sc_hd__a221o_2
*I *3690:B1 I *D sky130_fd_sc_hd__a21o_2
*I *3689:B1 I *D sky130_fd_sc_hd__a21oi_2
*I *3692:A2 I *D sky130_fd_sc_hd__a22o_2
*I *3694:A2 I *D sky130_fd_sc_hd__a22o_2
*I *3696:A2 I *D sky130_fd_sc_hd__a22o_2
*I *3463:Y O *D sky130_fd_sc_hd__nor2_2
*CAP
1 *3687:C1 9.90545e-05
2 *3690:B1 0
3 *3689:B1 0.000147308
4 *3692:A2 0.000210508
5 *3694:A2 0
6 *3696:A2 4.45101e-05
7 *3463:Y 0.000112854
8 *434:43 0.000423655
9 *434:22 0.00166787
10 *434:18 0.00159213
11 *434:16 0.000296465
12 *434:12 0.000473767
13 *3687:C1 *3445:A 1.53076e-05
14 *3687:C1 *618:12 4.45153e-05
15 *3689:B1 *3483:B2 9.84673e-05
16 *3689:B1 *3485:C 4.27842e-06
17 *3689:B1 *3690:A2 4.22794e-05
18 *3689:B1 *562:14 6.89735e-05
19 *3692:A2 *3692:A1 3.94418e-05
20 *3692:A2 *3694:B1 0.000100675
21 *3692:A2 *564:14 0.000141941
22 *3696:A2 *3898:CLK 1.55917e-05
23 *3696:A2 *632:12 0.000127939
24 *434:12 *3687:A2 0.000139344
25 *434:12 *618:57 5.28196e-05
26 *434:12 *1002:51 7.17807e-05
27 *434:16 *3687:B1 1.0484e-05
28 *434:16 *3690:A1 0.000288467
29 *434:18 *3690:A1 5.46383e-06
30 *434:22 *4244:A 1.84865e-05
31 *434:22 *563:6 0.000128198
32 *434:22 *563:22 0.000439676
33 *434:43 *3694:A1 1.00887e-05
34 *434:43 *3694:B1 1.46576e-05
35 *434:43 *564:14 0.000139933
36 *434:43 *632:12 0.000383868
37 *3687:B2 *3687:C1 6.26774e-06
38 *3900:D *3696:A2 0.000124749
39 *3900:D *434:43 3.29297e-05
40 *106:18 *3689:B1 1.4796e-05
41 *427:12 *3687:C1 9.32314e-05
42 *427:12 *434:12 3.29297e-05
43 *428:12 *434:12 9.75679e-05
*RES
1 *3463:Y *434:12 21.6036 
2 *434:12 *434:16 4.96429 
3 *434:16 *434:18 0.732143 
4 *434:18 *434:22 23.1071 
5 *434:22 *3696:A2 15.5902 
6 *434:22 *434:43 10.8973 
7 *434:43 *3694:A2 9.3 
8 *434:43 *3692:A2 14.2286 
9 *434:18 *3689:B1 21.7286 
10 *434:16 *3690:B1 9.3 
11 *434:12 *3687:C1 12.175 
*END

*D_NET *435 0.0119754
*CONN
*I *3465:A2 I *D sky130_fd_sc_hd__a21oi_2
*I *3688:A2 I *D sky130_fd_sc_hd__o21a_2
*I *3704:A2 I *D sky130_fd_sc_hd__o22a_2
*I *3700:A2 I *D sky130_fd_sc_hd__o22a_2
*I *3698:A2 I *D sky130_fd_sc_hd__o22a_2
*I *3702:A2 I *D sky130_fd_sc_hd__o22a_2
*I *3464:X O *D sky130_fd_sc_hd__or2_2
*CAP
1 *3465:A2 0.000116857
2 *3688:A2 0
3 *3704:A2 0.000112653
4 *3700:A2 0
5 *3698:A2 0.000266143
6 *3702:A2 0.000593856
7 *3464:X 0.00102539
8 *435:22 0.00144764
9 *435:14 0.00161185
10 *435:12 0.00135367
11 *435:8 0.00112534
12 *3465:A2 *3447:B 9.58689e-05
13 *3465:A2 *3452:B 4.21415e-05
14 *3465:A2 *1002:45 7.6739e-05
15 *3465:A2 *1007:10 7.6739e-05
16 *3698:A2 *3698:A1 0.000138738
17 *3698:A2 *3698:B2 1.02911e-05
18 *3698:A2 *3902:CLK 4.73355e-05
19 *3698:A2 *608:77 0.000121165
20 *3698:A2 *608:79 0.000170647
21 *3702:A2 *3473:B 1.38323e-05
22 *3702:A2 *3484:A2 0.000385683
23 *3702:A2 *3902:CLK 0.000175883
24 *3702:A2 *909:29 4.39422e-05
25 *3702:A2 *982:48 0
26 *3702:A2 *983:31 6.05161e-06
27 *3704:A2 *3621:A2 3.75868e-05
28 *3704:A2 *3704:A1 7.58841e-05
29 *3704:A2 *563:22 9.75679e-05
30 *435:8 *3687:A2 0.000534146
31 *435:8 *3688:B1 0.000267025
32 *435:8 *634:42 5.66971e-05
33 *435:12 *3704:A1 0.000228876
34 *435:14 *3700:A1 2.59355e-05
35 *435:14 *3899:CLK 7.14668e-05
36 *435:14 *4223:A 6.56786e-05
37 *435:22 *3698:B1 0.000103832
38 *435:22 *3700:A1 2.59355e-05
39 *435:22 *3700:B1 0.000444374
40 *435:22 *3700:B2 7.20336e-05
41 *435:22 *3901:RESET_B 2.48941e-05
42 *435:22 *954:10 2.13481e-06
43 *3903:D *3698:A2 0.000266968
44 *3903:D *3702:A2 0.000265396
45 *3977:D *3465:A2 0.000146261
46 *109:28 *3465:A2 1.00887e-05
47 *431:10 *3465:A2 9.41642e-05
*RES
1 *3464:X *435:8 21.7643 
2 *435:8 *435:12 4.66071 
3 *435:12 *435:14 12.0357 
4 *435:14 *435:22 15.3393 
5 *435:22 *3702:A2 24.2821 
6 *435:22 *3698:A2 19.9429 
7 *435:14 *3700:A2 9.3 
8 *435:12 *3704:A2 20.2821 
9 *435:8 *3688:A2 9.3 
10 *3464:X *3465:A2 31.2339 
*END

*D_NET *436 0.00177657
*CONN
*I *3466:B I *D sky130_fd_sc_hd__nor2_2
*I *3465:Y O *D sky130_fd_sc_hd__a21oi_2
*CAP
1 *3466:B 0.000492217
2 *3465:Y 0.000492217
3 *3466:B *3952:RESET_B 0.000100248
4 *3466:B *948:20 3.97677e-05
5 *3466:B *1002:16 0.00040105
6 *3466:B *1002:20 5.49995e-05
7 *3466:B *1002:45 9.41642e-05
8 *3524:A2 *3466:B 0.000101908
*RES
1 *3465:Y *3466:B 36.6 
*END

*D_NET *437 0.00278676
*CONN
*I *3484:A1 I *D sky130_fd_sc_hd__a221o_2
*I *3472:Y O *D sky130_fd_sc_hd__nand2_2
*CAP
1 *3484:A1 0.000612655
2 *3472:Y 0.000612655
3 *3484:A1 *3472:A 0.000226803
4 *3484:A1 *3472:B 3.69047e-06
5 *3484:A1 *3477:B 0.00014829
6 *3484:A1 *3484:B1 6.10696e-05
7 *3484:A1 *3484:B2 1.28809e-05
8 *3484:A1 *3484:C1 9.58181e-05
9 *3484:A1 *3627:A0 0.00014324
10 *3484:A1 *3856:RESET_B 2.51837e-05
11 *3484:A1 *3902:RESET_B 0.000347267
12 *3484:A1 *913:27 5.44778e-05
13 *3484:A1 *913:44 0.000328029
14 *3484:A1 *982:10 0.000114704
*RES
1 *3472:Y *3484:A1 44.1536 
*END

*D_NET *438 0.00329822
*CONN
*I *3484:A2 I *D sky130_fd_sc_hd__a221o_2
*I *3473:X O *D sky130_fd_sc_hd__or2_2
*CAP
1 *3484:A2 0.000788164
2 *3473:X 0.000788164
3 *3484:A2 *3473:A 1.10868e-05
4 *3484:A2 *3473:B 0.000182598
5 *3484:A2 *3485:D 5.47251e-05
6 *3484:A2 *3691:A1 2.11419e-05
7 *3484:A2 *3702:A1 5.66971e-05
8 *3484:A2 *3702:B1 0.000140907
9 *3484:A2 *569:24 0.000479153
10 *3484:A2 *909:29 0.000124427
11 *3484:A2 *913:27 9.6428e-05
12 *3484:A2 *983:14 0
13 *3697:S *3484:A2 0
14 *3702:A2 *3484:A2 0.000385683
15 *4356:A *3484:A2 0.000169049
*RES
1 *3473:X *3484:A2 45.8411 
*END

*D_NET *439 0.000376211
*CONN
*I *3483:A1 I *D sky130_fd_sc_hd__a22o_2
*I *3474:X O *D sky130_fd_sc_hd__or2_2
*CAP
1 *3483:A1 9.09898e-05
2 *3474:X 9.09898e-05
3 *3483:A1 *3474:B 3.06406e-05
4 *3483:A1 *3687:B1 0.000125724
5 *3483:A1 *4113:A 2.59355e-05
6 *3483:A1 *988:29 1.19309e-05
*RES
1 *3474:X *3483:A1 29.7786 
*END

*D_NET *440 0.000284814
*CONN
*I *3483:A2 I *D sky130_fd_sc_hd__a22o_2
*I *3475:Y O *D sky130_fd_sc_hd__nand2_2
*CAP
1 *3483:A2 5.73489e-05
2 *3475:Y 5.73489e-05
3 *3483:A2 *3475:B 9.71197e-05
4 *3483:A2 *3703:A0 3.95241e-05
5 *427:20 *3483:A2 3.34725e-05
*RES
1 *3475:Y *3483:A2 20.1357 
*END

*D_NET *441 0.00231095
*CONN
*I *3485:A I *D sky130_fd_sc_hd__or4_2
*I *3476:X O *D sky130_fd_sc_hd__xor2_2
*CAP
1 *3485:A 0.000577279
2 *3476:X 0.000577279
3 *3485:A *3485:B 0.000148992
4 *3485:A *3485:C 2.85234e-05
5 *3485:A *3485:D 0.000509764
6 *3485:A *4170:A 8.10997e-05
7 *3485:A *562:14 0.000183711
8 *3485:A *569:24 4.58194e-05
9 *3485:A *854:26 0
10 *3861:D *3485:A 0.000158484
11 *4357:A *3485:A 0
*RES
1 *3476:X *3485:A 41.8143 
*END

*D_NET *442 0.00301569
*CONN
*I *3484:B1 I *D sky130_fd_sc_hd__a221o_2
*I *3477:X O *D sky130_fd_sc_hd__or2_2
*CAP
1 *3484:B1 0.00056566
2 *3477:X 0.00056566
3 *3484:B1 *3472:B 0.000399987
4 *3484:B1 *3473:A 0.000157223
5 *3484:B1 *3479:B 1.69115e-05
6 *3484:B1 *3484:B2 0.000143892
7 *3484:B1 *3484:C1 0.000246196
8 *3484:B1 *3627:S 1.00375e-05
9 *3484:B1 *3628:A0 0.000262123
10 *3484:B1 *3628:A1 0.000193683
11 *3484:B1 *4318:A 1.13495e-05
12 *3484:B1 *913:27 0.000185118
13 *3484:B1 *913:44 0
14 *3484:B1 *982:48 5.0919e-05
15 *3484:A1 *3484:B1 6.10696e-05
16 *3901:D *3484:B1 9.14132e-05
17 *4368:A *3484:B1 5.44476e-05
*RES
1 *3477:X *3484:B1 44.6 
*END

*D_NET *443 0.00319773
*CONN
*I *3484:B2 I *D sky130_fd_sc_hd__a221o_2
*I *3478:Y O *D sky130_fd_sc_hd__nand2_2
*CAP
1 *3484:B2 0.000738662
2 *3478:Y 0.000738662
3 *3484:B2 *3472:B 0.000136727
4 *3484:B2 *3473:A 9.8126e-05
5 *3484:B2 *3478:A 1.62025e-05
6 *3484:B2 *3478:B 0.000214024
7 *3484:B2 *3628:A0 0.000135028
8 *3484:B2 *3628:A1 0.000193683
9 *3484:B2 *3630:A0 7.01807e-05
10 *3484:B2 *908:73 0.000139338
11 *3484:B2 *982:10 0.000172226
12 *3484:B2 *982:21 0.000299008
13 *3484:B2 *983:14 3.57844e-05
14 *3484:A1 *3484:B2 1.28809e-05
15 *3484:B1 *3484:B2 0.000143892
16 *3859:D *3484:B2 5.33005e-05
*RES
1 *3478:Y *3484:B2 44.408 
*END

*D_NET *444 0.00119312
*CONN
*I *3484:C1 I *D sky130_fd_sc_hd__a221o_2
*I *3479:X O *D sky130_fd_sc_hd__xor2_2
*CAP
1 *3484:C1 0.000170602
2 *3479:X 0.000170602
3 *3484:C1 *3479:B 0.000138881
4 *3484:C1 *3627:S 9.07502e-05
5 *3484:C1 *852:22 1.74352e-05
6 *3484:C1 *908:63 9.71197e-05
7 *3484:C1 *908:73 0.000136951
8 *3484:C1 *913:27 2.41649e-05
9 *3484:C1 *913:44 4.60232e-06
10 *3484:A1 *3484:C1 9.58181e-05
11 *3484:B1 *3484:C1 0.000246196
*RES
1 *3479:X *3484:C1 33.2786 
*END

*D_NET *445 0.00112535
*CONN
*I *3483:B1 I *D sky130_fd_sc_hd__a22o_2
*I *3480:X O *D sky130_fd_sc_hd__or2_2
*CAP
1 *3483:B1 0.000254983
2 *3480:X 0.000254983
3 *3483:B1 *3483:B2 7.60306e-05
4 *3483:B1 *3687:B1 0.000148911
5 *3483:B1 *3703:A0 2.59355e-05
6 *3483:B1 *4113:A 2.14658e-05
7 *3483:B1 *4295:A 0.000314139
8 *427:20 *3483:B1 2.89016e-05
*RES
1 *3480:X *3483:B1 33.4929 
*END

*D_NET *446 0.00120308
*CONN
*I *3483:B2 I *D sky130_fd_sc_hd__a22o_2
*I *3481:Y O *D sky130_fd_sc_hd__nand2_2
*CAP
1 *3483:B2 0.000318706
2 *3481:Y 0.000318706
3 *3483:B2 *3485:C 5.49995e-05
4 *3483:B2 *3687:B1 6.31709e-05
5 *3483:B2 *3703:A0 2.89114e-05
6 *3483:B2 *562:14 2.60673e-05
7 *3483:B1 *3483:B2 7.60306e-05
8 *3689:B1 *3483:B2 9.84673e-05
9 *106:18 *3483:B2 0.00018615
10 *427:20 *3483:B2 3.18676e-05
*RES
1 *3481:Y *3483:B2 34.9929 
*END

*D_NET *447 0.00195453
*CONN
*I *3485:B I *D sky130_fd_sc_hd__or4_2
*I *3482:X O *D sky130_fd_sc_hd__xor2_2
*CAP
1 *3485:B 0.000554854
2 *3482:X 0.000554854
3 *3485:B *3695:A0 5.49489e-05
4 *3485:B *4381:A 9.60875e-05
5 *3485:B *569:24 6.96806e-05
6 *3485:B *850:26 0.000140088
7 *3485:A *3485:B 0.000148992
8 *4357:A *3485:B 1.77668e-05
9 *427:43 *3485:B 0.00021478
10 *427:55 *3485:B 0.000102474
*RES
1 *3482:X *3485:B 39.1536 
*END

*D_NET *448 0.00303791
*CONN
*I *3485:C I *D sky130_fd_sc_hd__or4_2
*I *3483:X O *D sky130_fd_sc_hd__a22o_2
*CAP
1 *3485:C 0.000853739
2 *3483:X 0.000853739
3 *3485:C *3481:A 5.50052e-05
4 *3485:C *3632:A0 0.000197269
5 *3485:C *3687:B1 0
6 *3485:C *3703:A1 6.05161e-06
7 *3485:C *562:14 0.000181435
8 *3485:C *845:10 0
9 *3483:B2 *3485:C 5.49995e-05
10 *3485:A *3485:C 2.85234e-05
11 *3689:B1 *3485:C 4.27842e-06
12 *106:18 *3485:C 0.000372362
13 *427:20 *3485:C 0.000402784
14 *427:29 *3485:C 2.77289e-05
*RES
1 *3483:X *3485:C 44.1536 
*END

*D_NET *449 0.00553731
*CONN
*I *3485:D I *D sky130_fd_sc_hd__or4_2
*I *3484:X O *D sky130_fd_sc_hd__a221o_2
*CAP
1 *3485:D 0.00177874
2 *3484:X 0.00177874
3 *3485:D *3691:A1 1.46617e-05
4 *3485:D *3704:B2 8.08608e-06
5 *3485:D *4170:A 8.64443e-05
6 *3485:D *4400:A 0.000881963
7 *3485:D *569:24 0.000313352
8 *3485:D *908:32 0
9 *3485:D *908:59 7.84811e-05
10 *3485:D *913:27 1.32552e-05
11 o_transmit_data_request *3485:D 0
12 *3484:A2 *3485:D 5.47251e-05
13 *3485:A *3485:D 0.000509764
14 *4356:A *3485:D 1.90936e-05
15 *4367:A *3485:D 0
*RES
1 *3484:X *3485:D 46.6443 
*END

*D_NET *450 0.000741787
*CONN
*I *3487:B1 I *D sky130_fd_sc_hd__a21o_2
*I *3486:X O *D sky130_fd_sc_hd__xor2_2
*CAP
1 *3487:B1 0.000243606
2 *3486:X 0.000243606
3 *3487:B1 *3626:A2 0.000158925
4 *3487:B1 *451:10 7.43578e-06
5 *3487:B1 *656:109 5.33433e-05
6 *3487:B1 *902:48 3.48705e-05
7 *3487:B1 *1069:18 0
*RES
1 *3486:X *3487:B1 33.8321 
*END

*D_NET *451 0.0046033
*CONN
*I *3494:A I *D sky130_fd_sc_hd__nor3_2
*I *3530:A1 I *D sky130_fd_sc_hd__o31a_2
*I *3487:X O *D sky130_fd_sc_hd__a21o_2
*CAP
1 *3494:A 0.000183924
2 *3530:A1 0.000397395
3 *3487:X 0.000295854
4 *451:10 0.000877172
5 *3494:A *3488:D_N 9.86969e-05
6 *3530:A1 *3357:A 0
7 *3530:A1 *3490:A 2.49484e-05
8 *3530:A1 *3494:C 0.000531958
9 *3530:A1 *3530:A3 0.000361914
10 *3530:A1 *3810:A2 0.000101545
11 *3530:A1 *457:12 6.8646e-06
12 *3530:A1 *897:60 5.66157e-05
13 *3530:A1 *904:44 7.06479e-05
14 *451:10 *3490:C 1.27784e-05
15 *451:10 *3494:B 1.41029e-05
16 *451:10 *3494:C 1.02504e-05
17 *451:10 *3534:A3 5.33005e-05
18 *451:10 *483:27 3.92757e-05
19 *451:10 *656:109 0.000111822
20 *451:10 *897:60 0.000342715
21 *451:10 *902:48 0.000566258
22 *451:10 *904:25 2.95726e-05
23 *451:10 *1079:12 0.000135006
24 *451:10 *1079:16 5.31113e-05
25 *3487:B1 *451:10 7.43578e-06
26 *3564:A *3530:A1 0.00014285
27 *389:21 *3530:A1 7.72917e-05
*RES
1 *3487:X *451:10 23.9429 
2 *451:10 *3530:A1 25.5679 
3 *451:10 *3494:A 17.3893 
*END

*D_NET *452 0.00109297
*CONN
*I *3490:B I *D sky130_fd_sc_hd__or4b_2
*I *3488:X O *D sky130_fd_sc_hd__or4b_2
*CAP
1 *3490:B 0.000392166
2 *3488:X 0.000392166
3 *3490:B *3494:B 4.00276e-06
4 *3490:B *3548:B1 0.000104227
5 *3490:B *3626:A2 0.000200413
*RES
1 *3488:X *3490:B 33.5643 
*END

*D_NET *453 0.0015127
*CONN
*I *3490:C I *D sky130_fd_sc_hd__or4b_2
*I *3489:X O *D sky130_fd_sc_hd__and2b_2
*CAP
1 *3490:C 0.000297539
2 *3489:X 0.000297539
3 *3490:C *3488:A 0.000268403
4 *3490:C *3494:B 0.000222163
5 *3490:C *3626:A1 0.00033763
6 *3490:C *483:27 7.6644e-05
7 *451:10 *3490:C 1.27784e-05
*RES
1 *3489:X *3490:C 34.5643 
*END

*D_NET *454 0.00216662
*CONN
*I *3494:B I *D sky130_fd_sc_hd__nor3_2
*I *3530:A2 I *D sky130_fd_sc_hd__o31a_2
*I *3490:X O *D sky130_fd_sc_hd__or4b_2
*CAP
1 *3494:B 0.000228973
2 *3530:A2 0.000520862
3 *3490:X 0
4 *454:4 0.000749836
5 *3494:B *3490:A 5.33334e-05
6 *3494:B *3494:C 0.000247778
7 *3494:B *3626:A1 2.59093e-05
8 *3530:A2 *3490:A 7.43578e-06
9 *3530:A2 *3490:D_N 6.97494e-05
10 *3530:A2 *3810:A2 2.24763e-05
11 *3530:A2 *479:10 0
12 *3530:A2 *904:44 0
13 *3530:A2 *904:57 0
14 *3490:B *3494:B 4.00276e-06
15 *3490:C *3494:B 0.000222163
16 *3529:B1 *3530:A2 0
17 *3564:A *3530:A2 0
18 *451:10 *3494:B 1.41029e-05
*RES
1 *3490:X *454:4 9.3 
2 *454:4 *3530:A2 25.675 
3 *454:4 *3494:B 23.5321 
*END

*D_NET *455 0.00093239
*CONN
*I *3493:A I *D sky130_fd_sc_hd__or2_2
*I *3491:X O *D sky130_fd_sc_hd__or4_2
*CAP
1 *3493:A 0.000327676
2 *3491:X 0.000327676
3 *3493:A *3491:A 0
4 *3493:A *3491:C 0
5 *3493:A *4084:A 0.000101545
6 *3493:A *904:86 0.000175493
*RES
1 *3491:X *3493:A 33.6893 
*END

*D_NET *456 0.00230952
*CONN
*I *3493:B I *D sky130_fd_sc_hd__or2_2
*I *3492:X O *D sky130_fd_sc_hd__or4_2
*CAP
1 *3493:B 0.000724624
2 *3492:X 0.000724624
3 *3493:B *3492:C 0.000232399
4 *3493:B *3551:C 9.25014e-06
5 *3493:B *3556:B 0.000185643
6 *3493:B *4007:CLK 5.33334e-05
7 *3493:B *493:10 0.000131251
8 *3493:B *493:12 8.15939e-05
9 *3493:B *497:12 0.000148701
10 *3493:B *498:12 0
11 *3493:B *904:105 7.80714e-06
12 *3493:B *1072:24 1.02936e-05
*RES
1 *3492:X *3493:B 42.1893 
*END

*D_NET *457 0.00359876
*CONN
*I *3494:C I *D sky130_fd_sc_hd__nor3_2
*I *3530:A3 I *D sky130_fd_sc_hd__o31a_2
*I *3493:X O *D sky130_fd_sc_hd__or2_2
*CAP
1 *3494:C 0.000168907
2 *3530:A3 0.000141378
3 *3493:X 0.000427847
4 *457:12 0.000738132
5 *3494:C *3626:A1 9.86141e-05
6 *3530:A3 *904:44 0.000144773
7 *457:12 *3564:C 0
8 *457:12 *3566:D 7.8327e-05
9 *457:12 *3626:A1 0.000216771
10 *457:12 *4084:A 0.000199549
11 *457:12 *881:103 0.000173083
12 *3494:B *3494:C 0.000247778
13 *3530:A1 *3494:C 0.000531958
14 *3530:A1 *3530:A3 0.000361914
15 *3530:A1 *457:12 6.8646e-06
16 *3564:A *457:12 0
17 *4011:D *457:12 5.26184e-05
18 *451:10 *3494:C 1.02504e-05
*RES
1 *3493:X *457:12 29.0857 
2 *457:12 *3530:A3 13.1214 
3 *457:12 *3494:C 25.1036 
*END

*D_NET *458 0.00104169
*CONN
*I *3497:B1 I *D sky130_fd_sc_hd__a211o_2
*I *3495:X O *D sky130_fd_sc_hd__and2b_2
*CAP
1 *3497:B1 0.000225531
2 *3495:X 0.000225531
3 *3497:B1 *3497:A1 5.45515e-05
4 *3497:B1 *3497:C1 0.000315887
5 *3497:B1 *886:16 5.52302e-05
6 *3497:B1 *1109:46 0.000164959
*RES
1 *3495:X *3497:B1 33.5821 
*END

*D_NET *459 0.00150453
*CONN
*I *3497:C1 I *D sky130_fd_sc_hd__a211o_2
*I *3496:X O *D sky130_fd_sc_hd__and2b_2
*CAP
1 *3497:C1 0.000283269
2 *3496:X 0.000283269
3 *3497:C1 *3496:B 0.000130264
4 *3497:C1 *610:19 0.000360823
5 *3497:C1 *660:31 0
6 *3497:C1 *1109:46 1.31516e-05
7 *3497:B1 *3497:C1 0.000315887
8 *3854:SET_B *3497:C1 3.79467e-05
9 *4025:RESET_B *3497:C1 7.99137e-05
*RES
1 *3496:X *3497:C1 36.8321 
*END

*D_NET *460 0.00399874
*CONN
*I *3504:A I *D sky130_fd_sc_hd__nor3_2
*I *3574:A1 I *D sky130_fd_sc_hd__o31a_2
*I *3497:X O *D sky130_fd_sc_hd__a211o_2
*CAP
1 *3504:A 9.05067e-05
2 *3574:A1 0.000141747
3 *3497:X 0.00106297
4 *460:10 0.00129522
5 *3504:A *901:51 9.12446e-05
6 *3574:A1 *3574:A2 0.000230475
7 *3574:A1 *3574:A3 0.000144773
8 *460:10 *3498:D_N 8.28014e-05
9 *460:10 *4158:A 0.000120655
10 *460:10 *662:33 0.000200413
11 *460:10 *901:51 0.000430804
12 *460:10 *1106:8 5.41797e-05
13 *4024:RESET_B *460:10 5.29461e-05
*RES
1 *3497:X *460:10 36.7286 
2 *460:10 *3574:A1 17.2107 
3 *460:10 *3504:A 16.05 
*END

*D_NET *461 0.000372625
*CONN
*I *3500:B I *D sky130_fd_sc_hd__or4b_2
*I *3498:X O *D sky130_fd_sc_hd__or4b_2
*CAP
1 *3500:B 0.000151668
2 *3498:X 0.000151668
3 *3500:B *3500:C 6.92886e-05
*RES
1 *3498:X *3500:B 21.3946 
*END

*D_NET *462 0.00188224
*CONN
*I *3500:C I *D sky130_fd_sc_hd__or4b_2
*I *3499:X O *D sky130_fd_sc_hd__and2b_2
*CAP
1 *3500:C 0.000588676
2 *3499:X 0.000588676
3 *3500:C *3498:A 0
4 *3500:C *3498:B 2.65105e-05
5 *3500:C *3498:C 0.000318101
6 *3500:C *3586:C 0.000290993
7 *3500:C *1097:51 0
8 *3500:C *1107:34 0
9 *3500:B *3500:C 6.92886e-05
*RES
1 *3499:X *3500:C 38.9929 
*END

*D_NET *463 0.00162938
*CONN
*I *3504:B I *D sky130_fd_sc_hd__nor3_2
*I *3574:A2 I *D sky130_fd_sc_hd__o31a_2
*I *3500:X O *D sky130_fd_sc_hd__or4b_2
*CAP
1 *3504:B 6.6366e-05
2 *3574:A2 0.000115753
3 *3500:X 0.000111045
4 *463:8 0.000293163
5 *3504:B *3574:A3 8.16036e-05
6 *3504:B *3578:B1 0
7 *3504:B *901:51 0.000200413
8 *3574:A2 *3574:A3 3.4855e-05
9 *3574:A2 *507:10 2.89016e-05
10 *463:8 *3578:B1 0
11 *463:8 *507:10 9.33907e-05
12 *463:8 *507:16 5.33882e-05
13 *463:8 *901:51 0.000320031
14 *3574:A1 *3574:A2 0.000230475
*RES
1 *3500:X *463:8 17.8714 
2 *463:8 *3574:A2 16.8179 
3 *463:8 *3504:B 16.3536 
*END

*D_NET *464 0.00229097
*CONN
*I *3503:A I *D sky130_fd_sc_hd__or2_2
*I *3501:X O *D sky130_fd_sc_hd__or4_2
*CAP
1 *3503:A 0.000667793
2 *3501:X 0.000667793
3 *3503:A *3605:B1 0
4 *3503:A *3609:B 0.000148189
5 *3503:A *3610:B 0.000268403
6 *3503:A *466:12 0.000149886
7 *3503:A *529:8 8.25996e-05
8 *3503:A *531:14 0.000306311
*RES
1 *3501:X *3503:A 38.475 
*END

*D_NET *465 0.00229678
*CONN
*I *3503:B I *D sky130_fd_sc_hd__or2_2
*I *3502:X O *D sky130_fd_sc_hd__or4_2
*CAP
1 *3503:B 0.000780509
2 *3502:X 0.000780509
3 *3503:B *3601:A 0
4 *3503:B *3601:C 0.000281775
5 *3503:B *3602:C 0.000185643
6 *3503:B *3605:A1 4.8843e-05
7 *3503:B *3605:B1 0.000142856
8 *3503:B *609:95 7.6644e-05
*RES
1 *3502:X *3503:B 39.7071 
*END

*D_NET *466 0.0030577
*CONN
*I *3504:C I *D sky130_fd_sc_hd__nor3_2
*I *3574:A3 I *D sky130_fd_sc_hd__o31a_2
*I *3503:X O *D sky130_fd_sc_hd__or2_2
*CAP
1 *3504:C 0
2 *3574:A3 0.000235476
3 *3503:X 0.00102553
4 *466:12 0.00126101
5 *3574:A3 *3578:B1 0
6 *3574:A3 *901:51 7.79781e-06
7 *466:12 *3501:A 0
8 *466:12 *3604:A 0
9 *466:12 *3609:B 2.92543e-05
10 *466:12 *3610:A 9.59532e-06
11 *466:12 *3610:B 0
12 *466:12 *3829:B1 0
13 *466:12 *525:12 5.08788e-05
14 *466:12 *526:27 9.87983e-06
15 *466:12 *901:51 0
16 *466:12 *901:96 0
17 *466:12 *901:107 0
18 *466:12 *1100:34 1.71615e-05
19 *466:12 *1101:10 0
20 *3503:A *466:12 0.000149886
21 *3504:B *3574:A3 8.16036e-05
22 *3574:A1 *3574:A3 0.000144773
23 *3574:A2 *3574:A3 3.4855e-05
24 *4033:RESET_B *466:12 0
*RES
1 *3503:X *466:12 36.2107 
2 *466:12 *3574:A3 23.1571 
3 *466:12 *3504:C 9.3 
*END

*D_NET *467 0.000735902
*CONN
*I *3509:C1 I *D sky130_fd_sc_hd__o221a_2
*I *3505:Y O *D sky130_fd_sc_hd__xnor2_2
*CAP
1 *3509:C1 0.000220172
2 *3505:Y 0.000220172
3 *3509:C1 *3505:B 8.49861e-06
4 *3509:C1 *3511:B1 3.9745e-05
5 *3509:C1 *3513:B1 5.58941e-05
6 *3509:C1 *3803:B1 0.000182169
7 *3511:B2 *3509:C1 0
8 *3512:A1 *3509:C1 9.25014e-06
*RES
1 *3505:Y *3509:C1 32.8143 
*END

*D_NET *468 0.00353478
*CONN
*I *3513:C1 I *D sky130_fd_sc_hd__a221oi_2
*I *3506:X O *D sky130_fd_sc_hd__xor2_2
*CAP
1 *3513:C1 0.00100176
2 *3506:X 0.00100176
3 *3513:C1 *3383:A1 0
4 *3513:C1 *3506:A 0.00024424
5 *3513:C1 *3506:B 2.81497e-05
6 *3513:C1 *3514:A 0.000419613
7 *3513:C1 *3514:B 0.000306163
8 *3513:C1 *3514:C 0.000360094
9 *3513:C1 *1048:35 6.35826e-05
10 *3383:A2 *3513:C1 0
11 *3510:A1 *3513:C1 0
12 *3513:B2 *3513:C1 1.33343e-05
13 *358:8 *3513:C1 9.60875e-05
*RES
1 *3506:X *3513:C1 46.9393 
*END

*D_NET *469 0.00181986
*CONN
*I *3510:C1 I *D sky130_fd_sc_hd__a221o_2
*I *3507:X O *D sky130_fd_sc_hd__xor2_2
*CAP
1 *3510:C1 0.000528433
2 *3507:X 0.000528433
3 *3510:C1 *3797:A2 0
4 *3510:C1 *876:26 4.58096e-05
5 *3510:C1 *876:55 0.000291745
6 *3510:C1 *876:70 7.13346e-05
7 *3510:C1 *890:29 0
8 *3510:C1 *890:60 0
9 *3510:C1 *890:79 0
10 *3510:C1 *1056:6 0.000139907
11 *3510:B1 *3510:C1 0.0002142
12 *3988:RESET_B *3510:C1 0
13 *3990:RESET_B *3510:C1 0
*RES
1 *3507:X *3510:C1 39.9214 
*END

*D_NET *470 0.00104266
*CONN
*I *3514:A I *D sky130_fd_sc_hd__and3_2
*I *3508:Y O *D sky130_fd_sc_hd__xnor2_2
*CAP
1 *3514:A 0.000304143
2 *3508:Y 0.000304143
3 *3514:A *3508:A 1.19309e-05
4 *3383:A2 *3514:A 0
5 *3510:A1 *3514:A 2.8266e-06
6 *3513:C1 *3514:A 0.000419613
*RES
1 *3508:Y *3514:A 34.7071 
*END

*D_NET *471 0.00150563
*CONN
*I *3514:B I *D sky130_fd_sc_hd__and3_2
*I *3509:X O *D sky130_fd_sc_hd__o221a_2
*CAP
1 *3514:B 0.000426037
2 *3509:X 0.000426037
3 *3514:B *3323:A 0
4 *3514:B *3515:A_N 7.50601e-05
5 *3509:A1 *3514:B 2.37761e-05
6 *3510:A1 *3514:B 5.16489e-05
7 *3513:B2 *3514:B 0.000100823
8 *3513:C1 *3514:B 0.000306163
9 *355:18 *3514:B 0
10 *357:12 *3514:B 9.60875e-05
*RES
1 *3509:X *3514:B 35.3857 
*END

*D_NET *472 0.000625053
*CONN
*I *3515:A_N I *D sky130_fd_sc_hd__and3b_2
*I *3510:X O *D sky130_fd_sc_hd__a221o_2
*CAP
1 *3515:A_N 0.000118081
2 *3510:X 0.000118081
3 *3515:A_N *4097:A 2.59355e-05
4 *3515:A_N *625:80 0.000137983
5 *3510:A1 *3515:A_N 0.000149911
6 *3514:B *3515:A_N 7.50601e-05
*RES
1 *3510:X *3515:A_N 30.9036 
*END

*D_NET *473 0.00207619
*CONN
*I *3512:C1 I *D sky130_fd_sc_hd__o221a_2
*I *3511:X O *D sky130_fd_sc_hd__o2bb2a_2
*CAP
1 *3512:C1 0.000423413
2 *3511:X 0.000423413
3 *3512:C1 *3511:B1 8.66063e-05
4 *3512:C1 *3512:A2 2.89016e-05
5 *3512:C1 *3512:B1 1.28809e-05
6 *3512:C1 *3515:B 4.42026e-05
7 *3512:C1 *1058:6 0.000566251
8 *3509:B1 *3512:C1 8.44559e-05
9 *3511:B2 *3512:C1 0.000103267
10 *3512:A1 *3512:C1 0.000224583
11 *355:18 *3512:C1 0
12 *356:8 *3512:C1 2.89114e-05
13 *357:12 *3512:C1 4.93017e-05
*RES
1 *3511:X *3512:C1 38.5286 
*END

*D_NET *474 0.00272093
*CONN
*I *3515:B I *D sky130_fd_sc_hd__and3b_2
*I *3512:X O *D sky130_fd_sc_hd__o221a_2
*CAP
1 *3515:B 0.000576148
2 *3512:X 0.000576148
3 *3515:B *3509:A2 0.000414748
4 *3515:B *625:80 0.000197098
5 *3509:A1 *3515:B 0.000185297
6 *3509:B1 *3515:B 0.000238444
7 *3510:A1 *3515:B 0.000225314
8 *3512:C1 *3515:B 4.42026e-05
9 *357:12 *3515:B 0.00026353
*RES
1 *3512:X *3515:B 40.5286 
*END

*D_NET *475 0.00123098
*CONN
*I *3514:C I *D sky130_fd_sc_hd__and3_2
*I *3513:Y O *D sky130_fd_sc_hd__a221oi_2
*CAP
1 *3514:C 0.000300477
2 *3513:Y 0.000300477
3 *3514:C *3515:C 8.91726e-05
4 *3513:C1 *3514:C 0.000360094
5 *358:8 *3514:C 0.000180764
*RES
1 *3513:Y *3514:C 34.0464 
*END

*D_NET *476 0.00042704
*CONN
*I *3515:C I *D sky130_fd_sc_hd__and3b_2
*I *3514:X O *D sky130_fd_sc_hd__and3_2
*CAP
1 *3515:C 0.000110695
2 *3514:X 0.000110695
3 *3515:C *4097:A 5.95163e-05
4 *3515:C *625:80 3.13015e-05
5 *3514:C *3515:C 8.91726e-05
6 *3997:D *3515:C 2.56601e-05
*RES
1 *3514:X *3515:C 30.4259 
*END

*D_NET *477 0.00178275
*CONN
*I *3525:A0 I *D sky130_fd_sc_hd__mux2_1
*I *3524:X O *D sky130_fd_sc_hd__a31o_2
*CAP
1 *3525:A0 0.000519282
2 *3524:X 0.000519282
3 *3525:A0 *3462:B2 0
4 *3525:A0 *3679:A1 0
5 *3525:A0 *3679:B1 3.38674e-05
6 *3525:A0 *936:47 0.000121418
7 *3525:A0 *948:10 0
8 *3525:A0 *948:12 0
9 *3458:B *3525:A0 8.69386e-05
10 *3462:A2 *3525:A0 0
11 *113:8 *3525:A0 0.000268409
12 *364:12 *3525:A0 0.000233556
*RES
1 *3524:X *3525:A0 38.8143 
*END

*D_NET *478 0.00201503
*CONN
*I *3528:B1 I *D sky130_fd_sc_hd__a21o_2
*I *3527:X O *D sky130_fd_sc_hd__o211a_2
*CAP
1 *3528:B1 0.000744566
2 *3527:X 0.000744566
3 *3528:B1 *3434:A 1.39726e-05
4 *3528:B1 *3434:B 2.89016e-05
5 *3528:B1 *3527:A1 2.98202e-05
6 *3528:B1 *3527:A2 2.77143e-05
7 *3528:B1 *3786:A1 4.78056e-05
8 *3528:B1 *3786:A2 0.000148903
9 *3528:B1 *3938:CLK 3.17684e-05
10 *3528:B1 *645:114 8.59056e-05
11 *3528:B1 *763:10 0
12 *3528:B1 *993:58 0
13 *3527:C1 *3528:B1 5.52302e-05
14 *3938:D *3528:B1 5.23142e-05
15 *424:12 *3528:B1 3.55979e-06
*RES
1 *3527:X *3528:B1 38.6893 
*END

*D_NET *479 0.00848769
*CONN
*I *3541:A I *D sky130_fd_sc_hd__and3_2
*I *3546:A I *D sky130_fd_sc_hd__and3_2
*I *3533:A I *D sky130_fd_sc_hd__and3_2
*I *3538:C I *D sky130_fd_sc_hd__and3b_2
*I *3530:X O *D sky130_fd_sc_hd__o31a_2
*CAP
1 *3541:A 0.000176157
2 *3546:A 0.000213285
3 *3533:A 0.000347946
4 *3538:C 5.2272e-06
5 *3530:X 0.000395578
6 *479:42 0.00144746
7 *479:21 0.00148436
8 *479:10 0.000479201
9 *3533:A *3532:B 2.90068e-05
10 *3533:A *3533:B 7.12866e-05
11 *3533:A *3533:C 0.000318101
12 *3533:A *3535:A2 0.000173797
13 *3533:A *3535:B1 0.000154762
14 *3533:A *4001:CLK 3.18676e-05
15 *3533:A *1071:38 7.34761e-05
16 *3538:C *3537:A1 1.64343e-05
17 *3538:C *3537:B1 1.64343e-05
18 *3541:A *3346:A 3.25078e-05
19 *3541:A *3539:B 5.59013e-05
20 *3541:A *3540:B 9.21137e-05
21 *3541:A *483:86 0.000112323
22 *3541:A *902:48 7.6644e-05
23 *3546:A *3346:A 5.68684e-06
24 *3546:A *3544:A 2.59355e-05
25 *3546:A *3545:B 5.52238e-05
26 *3546:A *3549:A2 8.00806e-05
27 *3546:A *483:39 0.00027292
28 *3546:A *483:86 0.000218128
29 *3546:A *487:12 6.9019e-05
30 *3546:A *902:48 9.25014e-06
31 *3546:A *1083:36 4.12023e-05
32 *3546:A *1083:38 7.61614e-05
33 *479:10 *3810:A1 0
34 *479:10 *3810:B1 0
35 *479:10 *4289:A 0.000250201
36 *479:10 *904:44 5.71472e-05
37 *479:10 *1071:21 0.000289564
38 *479:21 *3807:A1 0
39 *479:21 *656:109 0
40 *479:21 *1071:21 6.55169e-05
41 *479:21 *1071:38 9.16325e-06
42 *479:42 *3488:A 2.07491e-05
43 *479:42 *3489:B 0.000399835
44 *479:42 *3536:A 0.000180777
45 *479:42 *3537:A3 0.000165279
46 *479:42 *3543:C1 0.000120126
47 *479:42 *1071:38 7.57063e-05
48 *3487:A2 *3541:A 5.52302e-05
49 *3529:B1 *479:10 0
50 *3530:A2 *479:10 0
51 *4001:D *3533:A 4.94362e-05
52 *4002:RESET_B *479:10 9.14786e-05
*RES
1 *3530:X *479:10 22.9607 
2 *479:10 *3538:C 13.9652 
3 *479:10 *479:21 1.49107 
4 *479:21 *3533:A 23.7554 
5 *479:21 *479:42 23.0804 
6 *479:42 *3546:A 20.5321 
7 *479:42 *3541:A 17.8179 
*END

*D_NET *480 0.00115831
*CONN
*I *3533:B I *D sky130_fd_sc_hd__and3_2
*I *3531:X O *D sky130_fd_sc_hd__or2_2
*CAP
1 *3533:B 0.000442795
2 *3531:X 0.000442795
3 *3533:B *3532:B 7.83587e-05
4 *3533:B *3533:C 3.06878e-06
5 *3533:B *4001:CLK 8.07313e-05
6 *3533:B *1078:10 3.92757e-05
7 *3533:A *3533:B 7.12866e-05
*RES
1 *3531:X *3533:B 33.6893 
*END

*D_NET *481 0.00263582
*CONN
*I *3533:C I *D sky130_fd_sc_hd__and3_2
*I *3535:A2 I *D sky130_fd_sc_hd__a21oi_2
*I *3532:Y O *D sky130_fd_sc_hd__nand2_2
*CAP
1 *3533:C 0.000301126
2 *3535:A2 0.000292498
3 *3532:Y 0.000138305
4 *481:8 0.000731929
5 *3533:C *4001:CLK 3.14193e-05
6 *3535:A2 *3532:B 0.000198691
7 *3535:A2 *4001:CLK 0
8 *481:8 *3532:B 0.000272665
9 *481:8 *4001:CLK 0
10 *481:8 *610:25 0
11 *3533:A *3533:C 0.000318101
12 *3533:A *3535:A2 0.000173797
13 *3533:B *3533:C 3.06878e-06
14 *3535:A1 *3535:A2 3.3283e-05
15 *4001:D *3535:A2 0.000140933
*RES
1 *3532:Y *481:8 17.2643 
2 *481:8 *3535:A2 19.8 
3 *481:8 *3533:C 18.0321 
*END

*D_NET *482 0.000380746
*CONN
*I *3535:B1 I *D sky130_fd_sc_hd__a21oi_2
*I *3534:X O *D sky130_fd_sc_hd__a31o_2
*CAP
1 *3535:B1 3.56108e-05
2 *3534:X 3.56108e-05
3 *3535:B1 *3532:B 2.48938e-05
4 *3535:B1 *1071:38 3.51442e-05
5 *3535:B1 *1071:49 9.4724e-05
6 *3533:A *3535:B1 0.000154762
*RES
1 *3534:X *3535:B1 29.5464 
*END

*D_NET *483 0.010866
*CONN
*I *3542:C I *D sky130_fd_sc_hd__and3_2
*I *3539:B I *D sky130_fd_sc_hd__nand2_2
*I *3540:B I *D sky130_fd_sc_hd__or2_2
*I *3548:A1 I *D sky130_fd_sc_hd__a21o_2
*I *3550:A1 I *D sky130_fd_sc_hd__a21oi_2
*I *3559:A I *D sky130_fd_sc_hd__and3_2
*I *3566:A I *D sky130_fd_sc_hd__and4_2
*I *3551:B I *D sky130_fd_sc_hd__and3_2
*I *3538:A_N I *D sky130_fd_sc_hd__and3b_2
*I *3536:X O *D sky130_fd_sc_hd__and4_2
*CAP
1 *3542:C 3.14324e-05
2 *3539:B 0.000359143
3 *3540:B 0.000148685
4 *3548:A1 0
5 *3550:A1 0.000113991
6 *3559:A 0
7 *3566:A 4.72319e-05
8 *3551:B 0.0001568
9 *3538:A_N 0.000321671
10 *3536:X 0
11 *483:86 0.000676219
12 *483:56 9.99541e-05
13 *483:54 0.000166713
14 *483:41 0.000232913
15 *483:39 0.000603024
16 *483:29 0.000695302
17 *483:27 0.000554878
18 *483:4 0.000845117
19 *3538:A_N *3488:A 4.18895e-05
20 *3538:A_N *3536:C 9.60939e-05
21 *3538:A_N *3536:D 3.37161e-05
22 *3538:A_N *3537:A1 5.33005e-05
23 *3538:A_N *3537:B1 0.00026353
24 *3539:B *3486:A 0.000103275
25 *3539:B *3489:A_N 1.41029e-05
26 *3539:B *4003:CLK 0
27 *3539:B *897:54 7.3237e-05
28 *3539:B *1069:18 0.000318179
29 *3539:B *1081:53 0
30 *3540:B *3540:A 0.000227532
31 *3540:B *3541:C 0.000186669
32 *3540:B *656:109 0.000216075
33 *3542:C *3488:C 4.08637e-05
34 *3550:A1 *490:14 5.33005e-05
35 *3550:A1 *490:20 5.33005e-05
36 *3550:A1 *490:33 2.95726e-05
37 *3550:A1 *497:12 6.87574e-05
38 *3551:B *3551:C 3.69697e-05
39 *3551:B *4007:CLK 0.000228845
40 *3551:B *490:20 2.72545e-05
41 *3551:B *497:12 1.46624e-05
42 *3566:A *3566:B 6.63682e-05
43 *3566:A *3566:C 0.000188586
44 *3566:A *490:33 1.15281e-05
45 *3566:A *497:12 8.76257e-05
46 *3566:A *498:12 5.41494e-05
47 *483:27 *3488:B 2.65105e-05
48 *483:27 *3488:C 0.000227526
49 *483:27 *3488:D_N 0.000235006
50 *483:39 *3488:B 2.89016e-05
51 *483:39 *3488:C 9.41642e-05
52 *483:39 *3549:A2 8.21706e-05
53 *483:39 *4007:CLK 0.000378903
54 *483:39 *487:12 5.58941e-05
55 *483:39 *490:8 0
56 *483:39 *490:14 0
57 *483:39 *612:72 0.000200406
58 *483:39 *612:98 6.66846e-05
59 *483:39 *1082:31 2.59355e-05
60 *483:39 *1083:36 0.000171375
61 *483:41 *4007:CLK 0.000141368
62 *483:41 *490:14 0
63 *483:41 *497:12 9.69119e-06
64 *483:56 *490:33 5.55071e-05
65 *483:56 *497:12 0.000227526
66 *483:86 *3489:A_N 7.85632e-05
67 *483:86 *3543:B1 0.000129868
68 *483:86 *3626:A2 0
69 *483:86 *487:12 2.41865e-05
70 *3487:A2 *3540:B 9.60939e-05
71 *3490:C *483:27 7.6644e-05
72 *3541:A *3539:B 5.59013e-05
73 *3541:A *3540:B 9.21137e-05
74 *3541:A *483:86 0.000112323
75 *3546:A *483:39 0.00027292
76 *3546:A *483:86 0.000218128
77 *451:10 *483:27 3.92757e-05
*RES
1 *3536:X *483:4 9.3 
2 *483:4 *3538:A_N 14.4964 
3 *483:4 *483:27 17.6964 
4 *483:27 *483:29 4.5 
5 *483:29 *483:39 22.9464 
6 *483:39 *483:41 1.94643 
7 *483:41 *3551:B 16.9964 
8 *483:41 *483:54 4.5 
9 *483:54 *483:56 2.17857 
10 *483:56 *3566:A 11.8893 
11 *483:56 *3559:A 9.3 
12 *483:54 *3550:A1 11.9071 
13 *483:39 *3548:A1 13.8 
14 *483:29 *483:86 4.375 
15 *483:86 *3540:B 18.9964 
16 *483:86 *3539:B 23.3 
17 *483:27 *3542:C 9.83571 
*END

*D_NET *484 0.00107384
*CONN
*I *3538:B I *D sky130_fd_sc_hd__and3b_2
*I *3537:X O *D sky130_fd_sc_hd__a31o_2
*CAP
1 *3538:B 0.00032398
2 *3537:X 0.00032398
3 *3538:B *3537:A2 0.00037007
4 *3538:B *1071:38 5.33005e-05
5 *4015:D *3538:B 2.51343e-06
*RES
1 *3537:X *3538:B 23.2607 
*END

*D_NET *485 0.00209642
*CONN
*I *3541:B I *D sky130_fd_sc_hd__and3_2
*I *3543:A2 I *D sky130_fd_sc_hd__a211oi_2
*I *3539:Y O *D sky130_fd_sc_hd__nand2_2
*CAP
1 *3541:B 0
2 *3543:A2 0.000169322
3 *3539:Y 0.000367534
4 *485:10 0.000536856
5 *3543:A2 *3346:A 9.97669e-05
6 *3543:A2 *4003:CLK 9.00763e-05
7 *3543:A2 *612:98 5.7128e-05
8 *3543:A2 *656:109 0.000135028
9 *3543:A2 *1083:38 5.32956e-05
10 *485:10 *3486:A 0
11 *485:10 *3539:A 7.50697e-05
12 *485:10 *3762:B1 0
13 *485:10 *897:54 0
14 *485:10 *1081:10 0.000148903
15 *485:10 *1081:12 5.41794e-05
16 *485:10 *1081:53 0.000206715
17 *3855:SET_B *485:10 0
18 *4003:D *485:10 0.000102545
*RES
1 *3539:Y *485:10 26.6214 
2 *485:10 *3543:A2 21.6036 
3 *485:10 *3541:B 9.3 
*END

*D_NET *486 0.000614749
*CONN
*I *3541:C I *D sky130_fd_sc_hd__and3_2
*I *3540:X O *D sky130_fd_sc_hd__or2_2
*CAP
1 *3541:C 0.0001436
2 *3540:X 0.0001436
3 *3541:C *3540:A 4.88637e-05
4 *3541:C *656:109 3.48705e-05
5 *3540:B *3541:C 0.000186669
6 *4003:D *3541:C 5.71472e-05
*RES
1 *3540:X *3541:C 22.0107 
*END

*D_NET *487 0.00173901
*CONN
*I *3543:B1 I *D sky130_fd_sc_hd__a211oi_2
*I *3544:B I *D sky130_fd_sc_hd__nand2_2
*I *3545:B I *D sky130_fd_sc_hd__or2_2
*I *3542:X O *D sky130_fd_sc_hd__and3_2
*CAP
1 *3543:B1 6.50465e-05
2 *3544:B 0
3 *3545:B 0.000265882
4 *3542:X 0
5 *487:12 0.000447627
6 *487:6 0.000246791
7 *3543:B1 *3488:A 0
8 *3545:B *3544:A 3.16598e-05
9 *3545:B *3546:C 0.00017318
10 *3545:B *1083:23 1.21289e-05
11 *487:12 *3488:A 0
12 *487:12 *3544:A 5.33005e-05
13 *487:12 *3549:A2 5.59013e-05
14 *487:12 *3626:A2 0
15 *3546:A *3545:B 5.52238e-05
16 *3546:A *487:12 6.9019e-05
17 *4005:D *3545:B 5.33005e-05
18 *483:39 *487:12 5.58941e-05
19 *483:86 *3543:B1 0.000129868
20 *483:86 *487:12 2.41865e-05
*RES
1 *3542:X *487:6 13.8 
2 *487:6 *487:12 8.5 
3 *487:12 *3545:B 13.9964 
4 *487:12 *3544:B 9.3 
5 *487:6 *3543:B1 15.4429 
*END

*D_NET *488 0.00173733
*CONN
*I *3546:B I *D sky130_fd_sc_hd__and3_2
*I *3549:A2 I *D sky130_fd_sc_hd__a21oi_2
*I *3544:Y O *D sky130_fd_sc_hd__nand2_2
*CAP
1 *3546:B 0.000173439
2 *3549:A2 0.000268258
3 *3544:Y 0
4 *488:4 0.000441697
5 *3546:B *3544:A 6.57032e-05
6 *3546:B *1083:23 2.89114e-05
7 *3549:A2 *3626:A2 0
8 *3549:A2 *4007:CLK 0.000177234
9 *3549:A2 *612:72 0.000190155
10 *3546:A *3549:A2 8.00806e-05
11 *3549:A1 *3549:A2 0.00017378
12 *483:39 *3549:A2 8.21706e-05
13 *487:12 *3549:A2 5.59013e-05
*RES
1 *3544:Y *488:4 9.3 
2 *488:4 *3549:A2 26.0143 
3 *488:4 *3546:B 11.4964 
*END

*D_NET *489 0.000745109
*CONN
*I *3546:C I *D sky130_fd_sc_hd__and3_2
*I *3545:X O *D sky130_fd_sc_hd__or2_2
*CAP
1 *3546:C 0.000151766
2 *3545:X 0.000151766
3 *3546:C *1083:23 0.000268396
4 *3545:B *3546:C 0.00017318
*RES
1 *3545:X *3546:C 22.4393 
*END

*D_NET *490 0.00435861
*CONN
*I *3548:A2 I *D sky130_fd_sc_hd__a21o_2
*I *3550:A2 I *D sky130_fd_sc_hd__a21oi_2
*I *3559:B I *D sky130_fd_sc_hd__and3_2
*I *3566:B I *D sky130_fd_sc_hd__and4_2
*I *3551:C I *D sky130_fd_sc_hd__and3_2
*I *3547:X O *D sky130_fd_sc_hd__and4_2
*CAP
1 *3548:A2 5.5939e-05
2 *3550:A2 0
3 *3559:B 0
4 *3566:B 0.00018926
5 *3551:C 7.41577e-05
6 *3547:X 0.000628863
7 *490:33 0.00047928
8 *490:20 0.000405758
9 *490:14 0.000202178
10 *490:8 0.0008454
11 *3548:A2 *896:133 0.00014285
12 *3551:C *4007:CLK 1.78447e-05
13 *3551:C *497:12 0.000173083
14 *3551:C *498:12 0
15 *3566:B *3566:C 4.88637e-05
16 *3566:B *498:12 0.00010096
17 *490:8 *3547:A 0
18 *490:8 *612:98 0.00035938
19 *490:8 *1083:10 0
20 *490:8 *1084:10 0
21 *490:8 *1084:27 0
22 *490:14 *497:12 7.90803e-05
23 *490:20 *497:12 5.66157e-05
24 *490:33 *498:12 5.52238e-05
25 *3493:B *3551:C 9.25014e-06
26 *3550:A1 *490:14 5.33005e-05
27 *3550:A1 *490:20 5.33005e-05
28 *3550:A1 *490:33 2.95726e-05
29 *3551:B *3551:C 3.69697e-05
30 *3551:B *490:20 2.72545e-05
31 *3566:A *3566:B 6.63682e-05
32 *3566:A *490:33 1.15281e-05
33 *4005:D *490:8 0.000100823
34 *4006:RESET_B *490:8 0
35 *483:39 *490:8 0
36 *483:39 *490:14 0
37 *483:41 *490:14 0
38 *483:56 *490:33 5.55071e-05
*RES
1 *3547:X *490:8 26.0679 
2 *490:8 *490:14 7.58929 
3 *490:14 *490:20 5.76786 
4 *490:20 *3551:C 16.05 
5 *490:20 *490:33 8.32143 
6 *490:33 *3566:B 13.05 
7 *490:33 *3559:B 9.3 
8 *490:14 *3550:A2 9.3 
9 *490:8 *3548:A2 15.1571 
*END

*D_NET *491 0.000597949
*CONN
*I *3549:B1 I *D sky130_fd_sc_hd__a21oi_2
*I *3548:X O *D sky130_fd_sc_hd__a21o_2
*CAP
1 *3549:B1 0.000198976
2 *3548:X 0.000198976
3 *3549:B1 *4007:CLK 0
4 *3549:B1 *657:53 0.00014285
5 *3549:B1 *881:103 5.71472e-05
6 *3549:B1 *896:133 0
*RES
1 *3548:X *3549:B1 31.1357 
*END

*D_NET *492 0.000633978
*CONN
*I *3552:B I *D sky130_fd_sc_hd__nor3_2
*I *3550:Y O *D sky130_fd_sc_hd__a21oi_2
*CAP
1 *3552:B 0.000264303
2 *3550:Y 0.000264303
3 *3552:B *3550:B1 0
4 *3552:B *497:12 0
5 *3552:B *657:23 0
6 *3552:B *904:105 2.8266e-06
7 *3552:B *1085:19 0
8 *4007:D *3552:B 0.000102545
*RES
1 *3550:Y *3552:B 32.5107 
*END

*D_NET *493 0.00583932
*CONN
*I *3555:A2 I *D sky130_fd_sc_hd__a21oi_2
*I *3552:C I *D sky130_fd_sc_hd__nor3_2
*I *3556:C I *D sky130_fd_sc_hd__and3_2
*I *3553:A2 I *D sky130_fd_sc_hd__a21oi_2
*I *3554:A2 I *D sky130_fd_sc_hd__o21a_2
*I *3551:X O *D sky130_fd_sc_hd__and3_2
*CAP
1 *3555:A2 0.000267225
2 *3552:C 0
3 *3556:C 4.36033e-05
4 *3553:A2 5.80491e-05
5 *3554:A2 0.000307742
6 *3551:X 0.000133581
7 *493:55 0.000473369
8 *493:18 0.000662085
9 *493:12 0.000444292
10 *493:10 0.00044412
11 *3553:A2 *3553:A1 5.52238e-05
12 *3553:A2 *613:103 4.88637e-05
13 *3554:A2 *3554:B1 0.000287833
14 *3554:A2 *3816:B1 6.30182e-05
15 *3554:A2 *3822:A1 0
16 *3554:A2 *613:82 1.5864e-05
17 *3554:A2 *881:23 2.34113e-05
18 *3554:A2 *896:31 0.000399245
19 *3554:A2 *1118:14 5.50052e-05
20 *3555:A2 *3558:B 8.07951e-05
21 *3555:A2 *3815:A1 1.98839e-05
22 *3555:A2 *3815:A2 5.33005e-05
23 *3555:A2 *3815:B1 1.24368e-05
24 *3555:A2 *656:69 0.000195547
25 *3555:A2 *657:23 5.96516e-05
26 *3555:A2 *1085:19 0.000123288
27 *3556:C *3556:A 5.33005e-05
28 *493:10 *498:12 0
29 *493:12 *3561:B1 0.00021192
30 *493:12 *496:10 9.25014e-06
31 *493:12 *904:105 0
32 *493:18 *3561:B1 0.000128146
33 *493:18 *3822:A1 0
34 *493:18 *4014:CLK 0
35 *493:18 *496:10 0.000128146
36 *493:18 *613:103 0
37 *493:18 *904:111 0
38 *493:55 *904:94 0.000181803
39 *493:55 *904:105 4.08637e-05
40 *3493:B *493:10 0.000131251
41 *3493:B *493:12 8.15939e-05
42 *4007:D *3555:A2 2.27416e-05
43 *4007:D *493:55 5.30637e-06
44 *4010:D *493:18 9.57064e-05
45 *4010:RESET_B *3554:A2 0.000200137
46 *4010:RESET_B *493:18 0.000170661
47 *4246:A *3554:A2 5.1061e-05
*RES
1 *3551:X *493:10 16.2821 
2 *493:10 *493:12 3.16071 
3 *493:12 *493:18 7.46429 
4 *493:18 *3554:A2 23.5679 
5 *493:18 *3553:A2 15.1571 
6 *493:12 *3556:C 14.3357 
7 *493:10 *493:55 8.32143 
8 *493:55 *3552:C 9.3 
9 *493:55 *3555:A2 24.675 
*END

*D_NET *494 0.00128068
*CONN
*I *3554:B1 I *D sky130_fd_sc_hd__o21a_2
*I *3553:Y O *D sky130_fd_sc_hd__a21oi_2
*CAP
1 *3554:B1 0.000161119
2 *3553:Y 0.000161119
3 *3554:B1 *4008:CLK 2.21972e-05
4 *3554:B1 *613:82 5.58419e-05
5 *3554:B1 *613:97 6.84568e-05
6 *3554:B1 *881:23 0.000269747
7 *3554:A2 *3554:B1 0.000287833
8 *4008:RESET_B *3554:B1 7.74135e-05
9 *4010:RESET_B *3554:B1 0.000176958
*RES
1 *3553:Y *3554:B1 34.5643 
*END

*D_NET *495 0.00131706
*CONN
*I *3557:B I *D sky130_fd_sc_hd__nor3_2
*I *3555:Y O *D sky130_fd_sc_hd__a21oi_2
*CAP
1 *3557:B 0.000224216
2 *3555:Y 0.000224216
3 *3557:B *3557:C 5.52238e-05
4 *3557:B *3561:A1 0.000185643
5 *3557:B *4239:A 0.000299795
6 *3557:B *656:69 0.000128161
7 *3557:B *881:65 0.000128161
8 *3557:B *896:10 4.43256e-05
9 *3557:B *896:110 7.43578e-06
10 *3557:B *1073:22 1.98839e-05
*RES
1 *3555:Y *3557:B 34.2964 
*END

*D_NET *496 0.000966625
*CONN
*I *3561:A2 I *D sky130_fd_sc_hd__o21a_2
*I *3557:C I *D sky130_fd_sc_hd__nor3_2
*I *3556:X O *D sky130_fd_sc_hd__and3_2
*CAP
1 *3561:A2 0
2 *3557:C 0.000161176
3 *3556:X 8.51446e-05
4 *496:10 0.00024632
5 *3557:C *3561:A1 0.00014338
6 *3557:C *1073:22 0.000137983
7 *496:10 *904:105 0
8 *496:10 *904:111 0
9 *3557:B *3557:C 5.52238e-05
10 *493:12 *496:10 9.25014e-06
11 *493:18 *496:10 0.000128146
*RES
1 *3556:X *496:10 19.9429 
2 *496:10 *3557:C 13.1393 
3 *496:10 *3561:A2 9.3 
*END

*D_NET *497 0.00284992
*CONN
*I *3559:C I *D sky130_fd_sc_hd__and3_2
*I *3566:C I *D sky130_fd_sc_hd__and4_2
*I *3558:X O *D sky130_fd_sc_hd__and4_2
*CAP
1 *3559:C 0
2 *3566:C 0.000205687
3 *3558:X 0.000592368
4 *497:12 0.000798055
5 *497:12 *904:105 0.000150618
6 *3493:B *497:12 0.000148701
7 *3550:A1 *497:12 6.87574e-05
8 *3551:B *497:12 1.46624e-05
9 *3551:C *497:12 0.000173083
10 *3552:B *497:12 0
11 *3566:A *3566:C 0.000188586
12 *3566:A *497:12 8.76257e-05
13 *3566:B *3566:C 4.88637e-05
14 *483:41 *497:12 9.69119e-06
15 *483:56 *497:12 0.000227526
16 *490:14 *497:12 7.90803e-05
17 *490:20 *497:12 5.66157e-05
*RES
1 *3558:X *497:12 29.9429 
2 *497:12 *3566:C 12.3 
3 *497:12 *3559:C 9.3 
*END

*D_NET *498 0.0034154
*CONN
*I *3563:B I *D sky130_fd_sc_hd__nand2_2
*I *3562:B I *D sky130_fd_sc_hd__or2_2
*I *3560:B I *D sky130_fd_sc_hd__nor2_2
*I *3559:X O *D sky130_fd_sc_hd__and3_2
*CAP
1 *3563:B 2.03441e-05
2 *3562:B 6.66701e-05
3 *3560:B 0
4 *3559:X 0.000311322
5 *498:21 0.000400096
6 *498:12 0.000624404
7 *3562:B *3563:A 3.18676e-05
8 *3562:B *4084:A 5.52302e-05
9 *3562:B *501:12 0.000127439
10 *3562:B *1074:16 4.25716e-05
11 *3563:B *3563:A 5.7661e-06
12 *3563:B *904:86 0
13 *498:12 *4007:CLK 0
14 *498:12 *4084:A 0
15 *498:21 *3563:A 4.13496e-05
16 *498:21 *4084:A 0.000617886
17 *498:21 *904:86 0.000795065
18 *498:21 *904:94 6.5053e-05
19 *3493:B *498:12 0
20 *3551:C *498:12 0
21 *3566:A *498:12 5.41494e-05
22 *3566:B *498:12 0.00010096
23 *490:33 *498:12 5.52238e-05
24 *493:10 *498:12 0
*RES
1 *3559:X *498:12 24.0321 
2 *498:12 *3560:B 9.3 
3 *498:12 *498:21 10.4107 
4 *498:21 *3562:B 20.4786 
5 *498:21 *3563:B 9.72857 
*END

*D_NET *499 0.000993062
*CONN
*I *3561:B1 I *D sky130_fd_sc_hd__o21a_2
*I *3560:Y O *D sky130_fd_sc_hd__nor2_2
*CAP
1 *3561:B1 0.000284666
2 *3560:Y 0.000284666
3 *3561:B1 *4014:CLK 0
4 *3561:B1 *904:94 8.36638e-05
5 *493:12 *3561:B1 0.00021192
6 *493:18 *3561:B1 0.000128146
*RES
1 *3560:Y *3561:B1 33.3321 
*END

*D_NET *500 0.000664327
*CONN
*I *3564:B I *D sky130_fd_sc_hd__and3_2
*I *3562:X O *D sky130_fd_sc_hd__or2_2
*CAP
1 *3564:B 0.000193381
2 *3562:X 0.000193381
3 *3564:B *503:10 0.000119125
4 *3564:B *1074:14 7.83587e-05
5 *3564:B *1075:12 8.00806e-05
*RES
1 *3562:X *3564:B 30.8143 
*END

*D_NET *501 0.00191356
*CONN
*I *3564:C I *D sky130_fd_sc_hd__and3_2
*I *3567:A2 I *D sky130_fd_sc_hd__a211oi_2
*I *3563:Y O *D sky130_fd_sc_hd__nand2_2
*CAP
1 *3564:C 0.000288994
2 *3567:A2 0
3 *3563:Y 0.000125856
4 *501:12 0.000414849
5 *3564:C *3491:A 9.69119e-06
6 *3564:C *3562:A 5.52238e-05
7 *3564:C *3565:A 8.66063e-05
8 *3564:C *3565:B 0.000227539
9 *3564:C *3566:D 5.16852e-05
10 *3564:C *4084:A 0
11 *3564:C *1074:14 0
12 *3564:C *1075:12 0.000136951
13 *501:12 *3491:D 1.59782e-05
14 *501:12 *3563:A 5.52302e-05
15 *501:12 *3820:A1 0.000175519
16 *501:12 *904:63 3.26873e-05
17 *501:12 *904:86 4.46186e-06
18 *501:12 *1074:14 0
19 *501:12 *1074:16 0
20 *3562:B *501:12 0.000127439
21 *3564:A *3564:C 5.80706e-06
22 *3567:A1 *3564:C 9.90431e-05
23 *457:12 *3564:C 0
*RES
1 *3563:Y *501:12 21.6929 
2 *501:12 *3567:A2 9.3 
3 *501:12 *3564:C 25.2821 
*END

*D_NET *502 0.000648394
*CONN
*I *3566:D I *D sky130_fd_sc_hd__and4_2
*I *3565:X O *D sky130_fd_sc_hd__and2_2
*CAP
1 *3566:D 0.000189234
2 *3565:X 0.000189234
3 *3566:D *503:10 0.000139913
4 *3564:C *3566:D 5.16852e-05
5 *457:12 *3566:D 7.8327e-05
*RES
1 *3565:X *3566:D 31.725 
*END

*D_NET *503 0.00498844
*CONN
*I *3567:B1 I *D sky130_fd_sc_hd__a211oi_2
*I *3568:A2 I *D sky130_fd_sc_hd__a21oi_2
*I *3570:A2 I *D sky130_fd_sc_hd__a21oi_2
*I *3569:A2 I *D sky130_fd_sc_hd__o21a_2
*I *3571:A3 I *D sky130_fd_sc_hd__a31o_2
*I *3566:X O *D sky130_fd_sc_hd__and4_2
*CAP
1 *3567:B1 0
2 *3568:A2 1.1624e-05
3 *3570:A2 0.000183803
4 *3569:A2 0
5 *3571:A3 0.000215776
6 *3566:X 0.000646556
7 *503:24 0.000482872
8 *503:18 0.000624017
9 *503:16 0.000479321
10 *503:10 0.000941134
11 *3568:A2 *3570:B1 5.52238e-05
12 *3568:A2 *3572:B 5.52238e-05
13 *3570:A2 *3570:A1 3.18676e-05
14 *3571:A3 *3571:A1 5.7661e-06
15 *3571:A3 *1076:23 0.000218315
16 *3571:A3 *1076:31 5.52238e-05
17 *503:10 *657:59 0.000106542
18 *503:16 *3568:A1 1.75336e-05
19 *503:16 *3570:A1 0
20 *503:16 *3820:A2 7.8178e-06
21 *503:16 *4128:A 8.15939e-05
22 *503:16 *657:59 8.47011e-05
23 *503:18 *3568:A1 2.8266e-06
24 *503:18 *3569:B1 0
25 *503:18 *3570:A1 0
26 *503:18 *3570:B1 0.000129868
27 *503:18 *654:72 0
28 *503:18 *1076:31 0
29 *503:24 *3569:B1 0
30 *503:24 *3973:RESET_B 6.4443e-05
31 *503:24 *654:72 0
32 *503:24 *919:10 5.52238e-05
33 *503:24 *1076:31 2.14757e-05
34 *3564:B *503:10 0.000119125
35 *3566:D *503:10 0.000139913
36 *4012:D *503:10 0
37 *4014:D *3570:A2 0.00014285
38 *4014:D *503:18 7.80714e-06
*RES
1 *3566:X *503:10 25.1036 
2 *503:10 *503:16 6.05357 
3 *503:16 *503:18 2.85714 
4 *503:18 *503:24 9.14286 
5 *503:24 *3571:A3 14.3893 
6 *503:24 *3569:A2 9.3 
7 *503:18 *3570:A2 17.2286 
8 *503:16 *3568:A2 14.3357 
9 *503:10 *3567:B1 13.8 
*END

*D_NET *504 0.000803334
*CONN
*I *3569:B1 I *D sky130_fd_sc_hd__o21a_2
*I *3568:Y O *D sky130_fd_sc_hd__a21oi_2
*CAP
1 *3569:B1 0.000215258
2 *3568:Y 0.000215258
3 *3569:B1 *3570:B1 5.52238e-05
4 *3569:B1 *1076:31 0.000317594
5 *503:18 *3569:B1 0
6 *503:24 *3569:B1 0
*RES
1 *3568:Y *3569:B1 32.2071 
*END

*D_NET *505 0.000255084
*CONN
*I *3572:A I *D sky130_fd_sc_hd__nor2_2
*I *3570:Y O *D sky130_fd_sc_hd__a21oi_2
*CAP
1 *3572:A 6.26081e-05
2 *3570:Y 6.26081e-05
3 *3572:A *3570:A1 0.000129868
4 *3572:A *654:72 0
*RES
1 *3570:Y *3572:A 29.2429 
*END

*D_NET *506 0.00205313
*CONN
*I *3572:B I *D sky130_fd_sc_hd__nor2_2
*I *3571:X O *D sky130_fd_sc_hd__a31o_2
*CAP
1 *3572:B 0.000522378
2 *3571:X 0.000522378
3 *3572:B *3491:C 1.52978e-05
4 *3572:B *3568:A1 9.90367e-05
5 *3572:B *3568:B1 9.60875e-05
6 *3572:B *3570:B1 5.68519e-05
7 *3572:B *3571:A1 3.79467e-05
8 *3572:B *3820:A2 0.000437756
9 *3572:B *4128:A 2.44318e-05
10 *3572:B *1077:27 0.000185746
11 *3568:A2 *3572:B 5.52238e-05
*RES
1 *3571:X *3572:B 40.225 
*END

*D_NET *507 0.00564073
*CONN
*I *3585:A I *D sky130_fd_sc_hd__and3_2
*I *3590:A I *D sky130_fd_sc_hd__and3_2
*I *3582:C I *D sky130_fd_sc_hd__and3b_2
*I *3577:A I *D sky130_fd_sc_hd__and3_2
*I *3574:X O *D sky130_fd_sc_hd__o31a_2
*CAP
1 *3585:A 0.000227245
2 *3590:A 0
3 *3582:C 9.79764e-05
4 *3577:A 0.000401059
5 *3574:X 0.000132417
6 *507:56 0.000861697
7 *507:16 0.000797786
8 *507:10 0.00106562
9 *3577:A *3579:B1 9.87983e-06
10 *3577:A *3581:A3 0
11 *3577:A *3581:B1 0.000426877
12 *3577:A *3582:B 0.000142856
13 *3582:C *3579:B1 0
14 *3582:C *3581:A1 5.95099e-05
15 *3582:C *3581:A3 6.14332e-05
16 *3582:C *3582:A_N 2.34204e-05
17 *3585:A *3586:A 0.000220455
18 *3585:A *3586:C 0.000264133
19 *3585:A *3587:C1 0
20 *3585:A *3588:A 2.89016e-05
21 *3585:A *3588:B 3.5707e-05
22 *3585:A *3590:C 9.25014e-06
23 *3585:A *1107:34 0
24 *507:10 *3578:B1 0
25 *507:16 *3578:B1 0
26 *507:16 *3580:B 0.000148903
27 *507:16 *3581:B1 6.27058e-05
28 *507:16 *3582:A_N 9.60939e-05
29 *507:16 *901:51 1.18451e-05
30 *507:16 *1104:36 0.000148903
31 *507:16 *1104:51 5.41794e-05
32 *507:56 *3588:A 7.61932e-05
33 *3574:A2 *507:10 2.89016e-05
34 *4024:D *3582:C 0
35 *463:8 *507:10 9.33907e-05
36 *463:8 *507:16 5.33882e-05
*RES
1 *3574:X *507:10 16.5857 
2 *507:10 *507:16 10.4464 
3 *507:16 *3577:A 26.4429 
4 *507:16 *3582:C 20.2152 
5 *507:10 *507:56 14.0714 
6 *507:56 *3590:A 9.3 
7 *507:56 *3585:A 24.4786 
*END

*D_NET *508 0.000427235
*CONN
*I *3577:B I *D sky130_fd_sc_hd__and3_2
*I *3575:X O *D sky130_fd_sc_hd__or2_2
*CAP
1 *3577:B 0.000174438
2 *3575:X 0.000174438
3 *3577:B *509:10 7.83587e-05
4 *3577:B *662:41 0
*RES
1 *3575:X *3577:B 29.9929 
*END

*D_NET *509 0.00131921
*CONN
*I *3577:C I *D sky130_fd_sc_hd__and3_2
*I *3579:A2 I *D sky130_fd_sc_hd__a21oi_2
*I *3576:Y O *D sky130_fd_sc_hd__nand2_2
*CAP
1 *3577:C 4.00453e-05
2 *3579:A2 0.00011367
3 *3576:Y 0.000415143
4 *509:10 0.000568858
5 *3579:A2 *3579:B1 0
6 *3579:A2 *3581:A2 0
7 *3579:A2 *662:41 2.89114e-05
8 *3579:A2 *662:80 2.94103e-05
9 *509:10 *3576:A 0
10 *509:10 *3581:A2 0
11 *509:10 *662:41 0
12 *3422:B2 *509:10 0
13 *3577:B *509:10 7.83587e-05
14 *4022:D *3579:A2 4.48113e-05
*RES
1 *3576:Y *509:10 20.9607 
2 *509:10 *3579:A2 16.2821 
3 *509:10 *3577:C 14.3357 
*END

*D_NET *510 0.00080329
*CONN
*I *3579:B1 I *D sky130_fd_sc_hd__a21oi_2
*I *3578:X O *D sky130_fd_sc_hd__a31o_2
*CAP
1 *3579:B1 0.0003087
2 *3578:X 0.0003087
3 *3579:B1 *3581:A2 0.000117388
4 *3579:B1 *662:80 0
5 *3579:B1 *1097:18 5.41609e-05
6 *3577:A *3579:B1 9.87983e-06
7 *3579:A1 *3579:B1 4.46186e-06
8 *3579:A2 *3579:B1 0
9 *3582:C *3579:B1 0
10 *4024:D *3579:B1 0
*RES
1 *3578:X *3579:B1 33.3321 
*END

*D_NET *511 0.0125563
*CONN
*I *3582:A_N I *D sky130_fd_sc_hd__and3b_2
*I *3583:B I *D sky130_fd_sc_hd__nand2_2
*I *3595:B I *D sky130_fd_sc_hd__and3_2
*I *3610:A I *D sky130_fd_sc_hd__and4_2
*I *3603:A I *D sky130_fd_sc_hd__and3_2
*I *3594:A1 I *D sky130_fd_sc_hd__a21oi_2
*I *3592:A1 I *D sky130_fd_sc_hd__a21o_2
*I *3586:C I *D sky130_fd_sc_hd__and3_2
*I *3584:B I *D sky130_fd_sc_hd__or2_2
*I *3580:X O *D sky130_fd_sc_hd__and4_2
*CAP
1 *3582:A_N 0.000186331
2 *3583:B 0
3 *3595:B 0
4 *3610:A 0.000353147
5 *3603:A 0
6 *3594:A1 7.54927e-05
7 *3592:A1 0.000151635
8 *3586:C 9.44745e-05
9 *3584:B 2.23854e-05
10 *3580:X 0.000672996
11 *511:88 0.000669844
12 *511:82 0.000827313
13 *511:65 0.000765406
14 *511:50 0.00100749
15 *511:34 0.000911972
16 *511:15 0.000442631
17 *511:6 0.000621792
18 *3582:A_N *3581:B1 0.000219711
19 *3582:A_N *1104:10 1.02504e-05
20 *3582:A_N *1104:36 6.81083e-05
21 *3582:A_N *1106:12 4.43256e-05
22 *3584:B *3585:C 0
23 *3586:C *1107:34 0
24 *3592:A1 *4312:A 0.000136887
25 *3594:A1 *3596:B 1.56e-05
26 *3594:A1 *3597:B1 3.81226e-05
27 *3594:A1 *518:27 5.54256e-05
28 *3594:A1 *661:53 0.000235689
29 *3610:A *3610:B 9.87983e-06
30 *3610:A *526:27 0.000205494
31 *3610:A *887:52 0
32 *511:6 *3498:A 0.000315165
33 *511:15 *3584:A 1.58163e-05
34 *511:34 *3584:A 1.39841e-05
35 *511:34 *3585:C 9.11545e-05
36 *511:34 *1107:36 4.10304e-05
37 *511:34 *1107:60 7.29416e-05
38 *511:50 *3586:A 0
39 *511:50 *3589:B 6.6421e-05
40 *511:50 *3591:B 0.000176879
41 *511:50 *4027:CLK 0.000183211
42 *511:50 *4312:A 0.000181381
43 *511:50 *887:52 0
44 *511:50 *1109:46 0.000461799
45 *511:50 *1110:33 0.000207501
46 *511:65 *3589:A 0.000132442
47 *511:65 *3589:B 0.000134748
48 *511:65 *518:27 4.68791e-05
49 *511:82 *3594:B1 0.000338867
50 *511:82 *3597:A1 0
51 *511:82 *3602:B 0.000128875
52 *511:82 *518:27 3.36355e-06
53 *511:82 *521:14 0.000160222
54 *511:82 *521:33 0.000142856
55 *511:82 *521:42 4.13496e-05
56 *511:82 *609:86 0.000197984
57 *511:82 *609:95 7.05447e-05
58 *511:88 *3604:A 9.80394e-05
59 *511:88 *3607:A 3.10819e-05
60 *511:88 *3609:B 2.21934e-05
61 *511:88 *518:44 0.000399841
62 *3500:C *3586:C 0.000290993
63 *3582:C *3582:A_N 2.34204e-05
64 *3585:A *3586:C 0.000264133
65 *3587:A1 *511:50 0.000113151
66 *4025:D *511:34 0.000139907
67 *4028:RESET_B *511:50 0
68 *466:12 *3610:A 9.59532e-06
69 *507:16 *3582:A_N 9.60939e-05
*RES
1 *3580:X *511:6 15.5857 
2 *511:6 *3584:B 9.72857 
3 *511:6 *511:15 1.35714 
4 *511:15 *3586:C 22.0679 
5 *511:15 *511:34 4.80357 
6 *511:34 *511:50 27.728 
7 *511:50 *3592:A1 11.6214 
8 *511:50 *511:65 9.48214 
9 *511:65 *3594:A1 16.4071 
10 *511:65 *511:82 14.9286 
11 *511:82 *511:88 9.66071 
12 *511:88 *3603:A 13.8 
13 *511:88 *3610:A 21.5203 
14 *511:82 *3595:B 9.3 
15 *511:34 *3583:B 9.3 
16 *3580:X *3582:A_N 31.6357 
*END

*D_NET *512 0.000449612
*CONN
*I *3582:B I *D sky130_fd_sc_hd__and3b_2
*I *3581:X O *D sky130_fd_sc_hd__a31o_2
*CAP
1 *3582:B 0.000141162
2 *3581:X 0.000141162
3 *3582:B *3581:B1 2.44318e-05
4 *3577:A *3582:B 0.000142856
*RES
1 *3581:X *3582:B 20.7964 
*END

*D_NET *513 0.000840938
*CONN
*I *3585:B I *D sky130_fd_sc_hd__and3_2
*I *3587:A2 I *D sky130_fd_sc_hd__a211oi_2
*I *3583:Y O *D sky130_fd_sc_hd__nand2_2
*CAP
1 *3585:B 0
2 *3587:A2 0.000115391
3 *3583:Y 0.00016856
4 *513:6 0.000283951
5 *3587:A2 *3586:A 0.00012501
6 *3587:A2 *1107:36 3.18676e-05
7 *513:6 *1107:36 4.58976e-05
8 *513:6 *1107:60 7.02611e-05
9 *3587:A1 *3587:A2 0
*RES
1 *3583:Y *513:6 11.4786 
2 *513:6 *3587:A2 20.4786 
3 *513:6 *3585:B 9.3 
*END

*D_NET *514 0.000323382
*CONN
*I *3585:C I *D sky130_fd_sc_hd__and3_2
*I *3584:X O *D sky130_fd_sc_hd__or2_2
*CAP
1 *3585:C 4.61604e-05
2 *3584:X 4.61604e-05
3 *3585:C *3584:A 5.33005e-05
4 *3585:C *1107:36 8.66063e-05
5 *3584:B *3585:C 0
6 *511:34 *3585:C 9.11545e-05
*RES
1 *3584:X *3585:C 20.3857 
*END

*D_NET *515 0.00346537
*CONN
*I *3588:B I *D sky130_fd_sc_hd__nand2_2
*I *3589:B I *D sky130_fd_sc_hd__or2_2
*I *3587:B1 I *D sky130_fd_sc_hd__a211oi_2
*I *3586:X O *D sky130_fd_sc_hd__and3_2
*CAP
1 *3588:B 8.8009e-05
2 *3589:B 0.000455742
3 *3587:B1 0
4 *3586:X 0.000261888
5 *515:8 0.000629621
6 *3588:B *3590:C 0
7 *3589:B *3352:A 3.31397e-05
8 *3589:B *3587:C1 9.71197e-05
9 *3589:B *3591:A 0.000355352
10 *3589:B *3591:B 0.00045825
11 *3589:B *1108:6 6.05161e-06
12 *3589:B *1108:8 6.42095e-05
13 *3589:B *1109:46 0
14 *515:8 *3498:B 9.60875e-05
15 *515:8 *3498:C 0.000140518
16 *515:8 *3587:C1 8.97416e-05
17 *515:8 *1108:8 0.000432883
18 *3585:A *3588:B 3.5707e-05
19 *4026:D *3589:B 1.98839e-05
20 *511:50 *3589:B 6.6421e-05
21 *511:65 *3589:B 0.000134748
*RES
1 *3586:X *515:8 14.7821 
2 *515:8 *3587:B1 9.3 
3 *515:8 *3589:B 30.3357 
4 *3586:X *3588:B 29.2429 
*END

*D_NET *516 0.000654895
*CONN
*I *3590:B I *D sky130_fd_sc_hd__and3_2
*I *3593:A2 I *D sky130_fd_sc_hd__a21oi_2
*I *3588:Y O *D sky130_fd_sc_hd__nand2_2
*CAP
1 *3590:B 0.000123976
2 *3593:A2 0.000140157
3 *3588:Y 0
4 *516:4 0.000264133
5 *3590:B *3588:A 9.47613e-05
6 *3593:A2 *3588:A 3.18676e-05
7 *3593:A2 *3590:C 0
*RES
1 *3588:Y *516:4 9.3 
2 *516:4 *3593:A2 20.4786 
3 *516:4 *3590:B 11.0679 
*END

*D_NET *517 0.00139089
*CONN
*I *3590:C I *D sky130_fd_sc_hd__and3_2
*I *3589:X O *D sky130_fd_sc_hd__or2_2
*CAP
1 *3590:C 0.000492925
2 *3589:X 0.000492925
3 *3590:C *3587:C1 3.2886e-05
4 *3590:C *3588:A 9.42111e-05
5 *3590:C *3593:B1 0.000154762
6 *3590:C *903:78 2.40379e-05
7 *3590:C *903:80 8.98897e-05
8 *3585:A *3590:C 9.25014e-06
9 *3588:B *3590:C 0
10 *3593:A2 *3590:C 0
*RES
1 *3589:X *3590:C 37.6 
*END

*D_NET *518 0.0046824
*CONN
*I *3594:A2 I *D sky130_fd_sc_hd__a21oi_2
*I *3603:B I *D sky130_fd_sc_hd__and3_2
*I *3610:B I *D sky130_fd_sc_hd__and4_2
*I *3595:C I *D sky130_fd_sc_hd__and3_2
*I *3592:A2 I *D sky130_fd_sc_hd__a21o_2
*I *3591:X O *D sky130_fd_sc_hd__and4_2
*CAP
1 *3594:A2 0
2 *3603:B 2.23854e-05
3 *3610:B 0.000162629
4 *3595:C 0
5 *3592:A2 0
6 *3591:X 0.000147202
7 *518:44 0.000373271
8 *518:35 0.000429786
9 *518:27 0.000462725
10 *518:12 0.000368398
11 *3610:B *3610:D 3.07555e-05
12 *3610:B *525:12 5.41794e-05
13 *3610:B *529:8 0.000353086
14 *3610:B *901:107 0
15 *518:12 *3588:A 0.000137983
16 *518:12 *3589:A 0.000102545
17 *518:12 *4027:CLK 0
18 *518:12 *4312:A 0.000102545
19 *518:12 *1109:16 1.24368e-05
20 *518:12 *1110:33 1.02504e-05
21 *518:27 *3589:A 0.000249493
22 *518:27 *3594:B1 4.6025e-06
23 *518:27 *3596:B 1.33343e-05
24 *518:27 *3597:B1 9.59992e-05
25 *518:27 *4312:A 2.31791e-05
26 *518:27 *609:43 0.000198323
27 *518:27 *661:53 3.31419e-05
28 *518:35 *3597:B1 6.05161e-06
29 *518:35 *3604:A 0
30 *518:35 *4081:A 6.26653e-05
31 *518:35 *526:27 0
32 *518:35 *661:53 7.77652e-05
33 *518:35 *903:110 2.19778e-05
34 *518:35 *903:125 0.000101441
35 *518:44 *3607:A 2.28598e-05
36 *518:44 *521:14 9.10293e-05
37 *518:44 *529:8 0.000126566
38 *3503:A *3610:B 0.000268403
39 *3594:A1 *518:27 5.54256e-05
40 *3610:A *3610:B 9.87983e-06
41 *466:12 *3610:B 0
42 *511:65 *518:27 4.68791e-05
43 *511:82 *518:27 3.36355e-06
44 *511:88 *518:44 0.000399841
*RES
1 *3591:X *518:12 16.925 
2 *518:12 *3592:A2 13.8 
3 *518:12 *518:27 11.9821 
4 *518:27 *518:35 14.7321 
5 *518:35 *3595:C 9.3 
6 *518:35 *518:44 5.67857 
7 *518:44 *3610:B 23.05 
8 *518:44 *3603:B 9.72857 
9 *518:27 *3594:A2 9.3 
*END

*D_NET *519 0.000326385
*CONN
*I *3593:B1 I *D sky130_fd_sc_hd__a21oi_2
*I *3592:X O *D sky130_fd_sc_hd__a21o_2
*CAP
1 *3593:B1 4.16397e-05
2 *3592:X 4.16397e-05
3 *3593:B1 *3587:C1 7.80929e-05
4 *3593:B1 *3588:A 1.02504e-05
5 *3590:C *3593:B1 0.000154762
*RES
1 *3592:X *3593:B1 29.5464 
*END

*D_NET *520 0.000709164
*CONN
*I *3596:B I *D sky130_fd_sc_hd__nor3_2
*I *3594:Y O *D sky130_fd_sc_hd__a21oi_2
*CAP
1 *3596:B 0.000184285
2 *3594:Y 0.000184285
3 *3596:B *3594:B1 0.000150847
4 *3596:B *3597:B1 5.52302e-05
5 *3596:B *3601:A 0
6 *3596:B *3602:B 2.72545e-05
7 *3596:B *609:43 7.8327e-05
8 *3596:B *903:125 0
9 *3594:A1 *3596:B 1.56e-05
10 *518:27 *3596:B 1.33343e-05
*RES
1 *3594:Y *3596:B 32.5107 
*END

*D_NET *521 0.004957
*CONN
*I *3599:A2 I *D sky130_fd_sc_hd__a21oi_2
*I *3598:A2 I *D sky130_fd_sc_hd__o21a_2
*I *3597:A2 I *D sky130_fd_sc_hd__a21oi_2
*I *3596:C I *D sky130_fd_sc_hd__nor3_2
*I *3600:C I *D sky130_fd_sc_hd__and3_2
*I *3595:X O *D sky130_fd_sc_hd__and3_2
*CAP
1 *3599:A2 0.000238551
2 *3598:A2 0.000149733
3 *3597:A2 0.000236211
4 *3596:C 0
5 *3600:C 0.000204285
6 *3595:X 0.000203569
7 *521:55 0.000449152
8 *521:42 0.000532738
9 *521:33 0.000277506
10 *521:14 0.000449702
11 *3597:A2 *3502:B 8.15095e-05
12 *3597:A2 *3597:A1 0.000108046
13 *3597:A2 *3598:B1 0
14 *3597:A2 *661:53 8.07313e-05
15 *3598:A2 *3502:D 3.69047e-06
16 *3598:A2 *1112:25 7.28183e-05
17 *3599:A2 *3597:A1 1.40849e-05
18 *3599:A2 *3598:B1 0
19 *3599:A2 *3599:B1 0.000126439
20 *3599:A2 *661:94 0
21 *3599:A2 *1098:12 0.000223585
22 *3599:A2 *1099:14 1.3142e-05
23 *3599:A2 *1112:14 0
24 *3600:C *3600:A 0.000139907
25 *3600:C *3600:B 1.63337e-05
26 *3600:C *3601:A 8.359e-05
27 *3600:C *3602:D 5.66157e-05
28 *3600:C *524:12 3.18676e-05
29 *3600:C *525:12 0.000100625
30 *521:14 *3595:A 7.79521e-05
31 *521:33 *3595:A 3.07455e-05
32 *521:42 *3595:A 1.92789e-05
33 *521:42 *1111:6 1.58163e-05
34 *521:42 *1111:8 7.31062e-05
35 *521:55 *3502:B 0.00011891
36 *521:55 *3597:A1 7.79781e-06
37 *521:55 *3598:B1 0
38 *4029:D *521:42 9.7659e-05
39 *4030:D *3597:A2 0.000118339
40 *4030:D *521:55 6.75007e-05
41 *4031:RESET_B *3599:A2 0
42 *511:82 *521:14 0.000160222
43 *511:82 *521:33 0.000142856
44 *511:82 *521:42 4.13496e-05
45 *518:44 *521:14 9.10293e-05
*RES
1 *3595:X *521:14 14.0143 
2 *521:14 *3600:C 23.1571 
3 *521:14 *521:33 1.78571 
4 *521:33 *3596:C 9.3 
5 *521:33 *521:42 9.14286 
6 *521:42 *3597:A2 20.1393 
7 *521:42 *521:55 1.94643 
8 *521:55 *3598:A2 16.3893 
9 *521:55 *3599:A2 19.0857 
*END

*D_NET *522 0.00190791
*CONN
*I *3598:B1 I *D sky130_fd_sc_hd__o21a_2
*I *3597:Y O *D sky130_fd_sc_hd__a21oi_2
*CAP
1 *3598:B1 0.000594541
2 *3597:Y 0.000594541
3 *3598:B1 *3597:A1 0
4 *3598:B1 *661:41 9.69119e-06
5 *3598:B1 *661:53 0.000405727
6 *3598:B1 *661:83 0
7 *3598:B1 *900:92 0
8 *3598:B1 *1112:14 0
9 *3597:A2 *3598:B1 0
10 *3599:A2 *3598:B1 0
11 *4029:RESET_B *3598:B1 0.000118775
12 *4030:D *3598:B1 0.000184635
13 *521:55 *3598:B1 0
*RES
1 *3597:Y *3598:B1 39.4393 
*END

*D_NET *523 0.000723957
*CONN
*I *3601:B I *D sky130_fd_sc_hd__nor3_2
*I *3599:Y O *D sky130_fd_sc_hd__a21oi_2
*CAP
1 *3601:B 0.000252379
2 *3599:Y 0.000252379
3 *3601:B *3599:B1 5.71472e-05
4 *3601:B *3601:A 0
5 *3601:B *3605:A1 0.000148911
6 *3601:B *4032:CLK 7.33494e-06
7 *3601:B *609:95 5.80706e-06
*RES
1 *3599:Y *3601:B 32.0286 
*END

*D_NET *524 0.00114485
*CONN
*I *3605:A2 I *D sky130_fd_sc_hd__o21a_2
*I *3601:C I *D sky130_fd_sc_hd__nor3_2
*I *3600:X O *D sky130_fd_sc_hd__and3_2
*CAP
1 *3605:A2 0
2 *3601:C 9.20914e-05
3 *3600:X 0.000212037
4 *524:12 0.000304129
5 *3601:C *3601:A 0
6 *3601:C *3605:A1 0.00013548
7 *524:12 *3601:A 6.09572e-05
8 *524:12 *3605:B1 0
9 *524:12 *525:12 2.65105e-05
10 *3503:B *3601:C 0.000281775
11 *3600:C *524:12 3.18676e-05
12 *4031:D *3601:C 0
*RES
1 *3600:X *524:12 21.3 
2 *524:12 *3601:C 12.7464 
3 *524:12 *3605:A2 9.3 
*END

*D_NET *525 0.00287596
*CONN
*I *3603:C I *D sky130_fd_sc_hd__and3_2
*I *3610:C I *D sky130_fd_sc_hd__and4_2
*I *3602:X O *D sky130_fd_sc_hd__and4_2
*CAP
1 *3603:C 0.000119491
2 *3610:C 2.19479e-05
3 *3602:X 0.00050597
4 *525:12 0.000647409
5 *3603:C *3606:B 0.000114655
6 *3603:C *529:8 0.000289339
7 *3610:C *3606:B 9.80173e-05
8 *3610:C *529:8 9.60875e-05
9 *525:12 *3501:A 0
10 *525:12 *3600:B 0.000185643
11 *525:12 *3609:A 8.46829e-05
12 *525:12 *3610:D 0.000381477
13 *525:12 *1101:27 9.90431e-05
14 *3600:C *525:12 0.000100625
15 *3610:B *525:12 5.41794e-05
16 *466:12 *525:12 5.08788e-05
17 *524:12 *525:12 2.65105e-05
*RES
1 *3602:X *525:12 29.7107 
2 *525:12 *3610:C 10.2464 
3 *525:12 *3603:C 12.8536 
*END

*D_NET *526 0.0029963
*CONN
*I *3604:B I *D sky130_fd_sc_hd__nor2_2
*I *3607:B I *D sky130_fd_sc_hd__nand2_2
*I *3606:B I *D sky130_fd_sc_hd__or2_2
*I *3603:X O *D sky130_fd_sc_hd__and3_2
*CAP
1 *3604:B 0.000141265
2 *3607:B 0
3 *3606:B 0.000562062
4 *3603:X 0
5 *526:27 0.000387483
6 *526:4 0.000808279
7 *3604:B *3601:A 0
8 *3604:B *3604:A 7.03856e-05
9 *3604:B *903:125 0
10 *3606:B *3501:A 0.000393949
11 *3606:B *3501:C 2.44318e-05
12 *3606:B *3501:D 5.71472e-05
13 *3606:B *529:8 6.58597e-05
14 *3606:B *531:14 1.55885e-05
15 *526:27 *3604:A 2.27062e-05
16 *526:27 *3609:B 1.04707e-05
17 *526:27 *887:52 0
18 *526:27 *903:125 0
19 *526:27 *1100:34 8.6229e-06
20 *3603:C *3606:B 0.000114655
21 *3610:A *526:27 0.000205494
22 *3610:C *3606:B 9.80173e-05
23 *466:12 *526:27 9.87983e-06
24 *518:35 *526:27 0
*RES
1 *3603:X *526:4 9.3 
2 *526:4 *3606:B 19.425 
3 *526:4 *526:27 13.1042 
4 *526:27 *3607:B 13.8 
5 *526:27 *3604:B 16.6571 
*END

*D_NET *527 0.00047948
*CONN
*I *3605:B1 I *D sky130_fd_sc_hd__o21a_2
*I *3604:Y O *D sky130_fd_sc_hd__nor2_2
*CAP
1 *3605:B1 0.000168312
2 *3604:Y 0.000168312
3 *3605:B1 *3601:A 0
4 *3503:A *3605:B1 0
5 *3503:B *3605:B1 0.000142856
6 *524:12 *3605:B1 0
*RES
1 *3604:Y *3605:B1 30.9036 
*END

*D_NET *528 0.00163872
*CONN
*I *3608:B I *D sky130_fd_sc_hd__and3_2
*I *3606:X O *D sky130_fd_sc_hd__or2_2
*CAP
1 *3608:B 0.000483367
2 *3606:X 0.000483367
3 *3608:B *4034:CLK 0.000179656
4 *3608:B *4081:A 0.000492333
5 *3608:B *903:25 0
*RES
1 *3606:X *3608:B 36.0107 
*END

*D_NET *529 0.00317981
*CONN
*I *3611:A2 I *D sky130_fd_sc_hd__a211oi_2
*I *3608:C I *D sky130_fd_sc_hd__and3_2
*I *3607:Y O *D sky130_fd_sc_hd__nand2_2
*CAP
1 *3611:A2 9.91971e-05
2 *3608:C 0.000276069
3 *3607:Y 0.00021091
4 *529:8 0.000586177
5 *3608:C *3842:B1 0.000154934
6 *3608:C *887:67 2.89016e-05
7 *3608:C *901:59 5.71472e-05
8 *3608:C *903:12 0
9 *3608:C *903:25 0
10 *3611:A2 *3842:B1 8.9163e-05
11 *3611:A2 *903:25 0
12 *529:8 *3501:A 0.000219711
13 *529:8 *3607:A 9.41642e-05
14 *529:8 *531:14 0.000219711
15 *3503:A *529:8 8.25996e-05
16 *3603:C *529:8 0.000289339
17 *3606:B *529:8 6.58597e-05
18 *3610:B *529:8 0.000353086
19 *3610:C *529:8 9.60875e-05
20 *4033:D *3608:C 0.000125724
21 *390:19 *3608:C 4.46186e-06
22 *518:44 *529:8 0.000126566
*RES
1 *3607:Y *529:8 22.1393 
2 *529:8 *3608:C 19.925 
3 *529:8 *3611:A2 16.05 
*END

*D_NET *530 0.00138459
*CONN
*I *3610:D I *D sky130_fd_sc_hd__and4_2
*I *3609:X O *D sky130_fd_sc_hd__and2_2
*CAP
1 *3610:D 0.000415905
2 *3609:X 0.000415905
3 *3610:D *3501:A 0.000100705
4 *3610:D *1101:27 3.9846e-05
5 *3610:B *3610:D 3.07555e-05
6 *525:12 *3610:D 0.000381477
*RES
1 *3609:X *3610:D 34.1893 
*END

*D_NET *531 0.00455184
*CONN
*I *3611:B1 I *D sky130_fd_sc_hd__a211oi_2
*I *3615:A3 I *D sky130_fd_sc_hd__a31o_2
*I *3614:A2 I *D sky130_fd_sc_hd__a21oi_2
*I *3612:A2 I *D sky130_fd_sc_hd__a21oi_2
*I *3613:A2 I *D sky130_fd_sc_hd__o21a_2
*I *3610:X O *D sky130_fd_sc_hd__and4_2
*CAP
1 *3611:B1 0
2 *3615:A3 0
3 *3614:A2 0.000174717
4 *3612:A2 3.42916e-05
5 *3613:A2 4.66046e-05
6 *3610:X 0.000264078
7 *531:38 0.000288756
8 *531:32 0.000472367
9 *531:28 0.000457342
10 *531:14 0.00063163
11 *3612:A2 *899:116 0
12 *3612:A2 *1102:22 1.59689e-05
13 *3613:A2 *3613:B1 9.90367e-05
14 *3614:A2 *3614:A1 0.000239404
15 *3614:A2 *3616:A 4.88637e-05
16 *3614:A2 *1102:22 5.83304e-05
17 *531:14 *3501:A 9.31893e-05
18 *531:14 *3501:B 0
19 *531:14 *4034:CLK 0
20 *531:14 *903:25 0.000250376
21 *531:28 *3501:C 4.35131e-05
22 *531:28 *4299:A 2.49484e-05
23 *531:28 *903:25 4.14279e-05
24 *531:28 *903:29 7.32272e-05
25 *531:28 *1102:22 0
26 *531:28 *1103:8 3.32631e-05
27 *531:28 *1103:21 3.25078e-05
28 *531:32 *3615:A2 9.92409e-05
29 *531:32 *3616:B 4.88515e-05
30 *531:38 *3613:B1 8.66063e-05
31 *531:38 *899:116 0
32 *531:38 *1102:22 0.000345639
33 *3503:A *531:14 0.000306311
34 *3606:B *531:14 1.55885e-05
35 *4035:RESET_B *3614:A2 6.05161e-06
36 *4035:RESET_B *531:38 0
37 *4036:RESET_B *3614:A2 0
38 *4036:RESET_B *531:38 0
39 *529:8 *531:14 0.000219711
*RES
1 *3610:X *531:14 25.425 
2 *531:14 *531:28 16.3571 
3 *531:28 *531:32 6.67857 
4 *531:32 *531:38 9.82143 
5 *531:38 *3613:A2 10.2464 
6 *531:38 *3612:A2 19.0321 
7 *531:32 *3614:A2 18.1214 
8 *531:28 *3615:A3 9.3 
9 *531:14 *3611:B1 9.3 
*END

*D_NET *532 0.000707931
*CONN
*I *3613:B1 I *D sky130_fd_sc_hd__o21a_2
*I *3612:Y O *D sky130_fd_sc_hd__a21oi_2
*CAP
1 *3613:B1 0.000147363
2 *3612:Y 0.000147363
3 *3613:B1 *3501:D 9.90431e-05
4 *3613:B1 *3613:A1 7.32955e-05
5 *3613:B1 *1102:24 5.52238e-05
6 *3613:A2 *3613:B1 9.90367e-05
7 *531:38 *3613:B1 8.66063e-05
*RES
1 *3612:Y *3613:B1 22.4214 
*END

*D_NET *533 0.000859258
*CONN
*I *3616:A I *D sky130_fd_sc_hd__nor2_2
*I *3614:Y O *D sky130_fd_sc_hd__a21oi_2
*CAP
1 *3616:A 0.000277506
2 *3614:Y 0.000277506
3 *3616:A *3614:A1 1.33343e-05
4 *3616:A *3843:A2 0.00018372
5 *3616:A *659:99 4.43256e-05
6 *3614:A2 *3616:A 4.88637e-05
7 *4035:RESET_B *3616:A 1.40034e-05
*RES
1 *3614:Y *3616:A 23.6893 
*END

*D_NET *534 0.00167099
*CONN
*I *3616:B I *D sky130_fd_sc_hd__nor2_2
*I *3615:X O *D sky130_fd_sc_hd__a31o_2
*CAP
1 *3616:B 0.00075231
2 *3615:X 0.00075231
3 *3616:B *885:104 1.59782e-05
4 *4036:D *3616:B 0.000101545
5 *531:32 *3616:B 4.88515e-05
*RES
1 *3615:X *3616:B 37.0821 
*END

*D_NET *535 0.00140566
*CONN
*I *3619:A I *D sky130_fd_sc_hd__nor2_2
*I *3617:X O *D sky130_fd_sc_hd__or4_2
*CAP
1 *3619:A 0.000456074
2 *3617:X 0.000456074
3 *3619:A *3753:A1 0.000229456
4 *3619:A *632:12 4.71964e-05
5 *3619:A *905:42 0.000216862
6 *3619:A *962:10 0
7 *3619:A *962:16 0
*RES
1 *3617:X *3619:A 35.9571 
*END

*D_NET *536 0.00114897
*CONN
*I *3619:B I *D sky130_fd_sc_hd__nor2_2
*I *3618:X O *D sky130_fd_sc_hd__or4_2
*CAP
1 *3619:B 0.00021195
2 *3618:X 0.00021195
3 *3619:B *3754:S 0.000159697
4 *3619:B *4058:RESET_B 0.000388883
5 *3619:B *905:42 0.000112497
6 *3619:B *961:26 6.39901e-05
*RES
1 *3618:X *3619:B 34.6357 
*END

*D_NET *537 0.000778342
*CONN
*I *3624:A I *D sky130_fd_sc_hd__or3_2
*I *3619:Y O *D sky130_fd_sc_hd__nor2_2
*CAP
1 *3624:A 0.000253002
2 *3619:Y 0.000253002
3 *3624:A *3621:A1 2.98258e-05
4 *3624:A *3621:A2 0.000120501
5 *3624:A *3621:B1 1.55885e-05
6 *3624:A *3621:B2 5.76373e-05
7 *3624:A *3624:B 4.87854e-05
*RES
1 *3619:Y *3624:A 23.2429 
*END

*D_NET *538 0.00145164
*CONN
*I *3621:C1 I *D sky130_fd_sc_hd__a221o_2
*I *3620:X O *D sky130_fd_sc_hd__a22o_2
*CAP
1 *3621:C1 0.000424029
2 *3620:X 0.000424029
3 *3621:C1 *3753:A1 0.000525241
4 *3621:C1 *4063:RESET_B 7.83366e-05
*RES
1 *3620:X *3621:C1 34.6 
*END

*D_NET *539 0.000204332
*CONN
*I *3624:B I *D sky130_fd_sc_hd__or3_2
*I *3621:X O *D sky130_fd_sc_hd__a221o_2
*CAP
1 *3624:B 7.77732e-05
2 *3621:X 7.77732e-05
3 *3624:A *3624:B 4.87854e-05
*RES
1 *3621:X *3624:B 19.5464 
*END

*D_NET *540 0.00194251
*CONN
*I *3623:C1 I *D sky130_fd_sc_hd__a221o_2
*I *3622:X O *D sky130_fd_sc_hd__a22o_2
*CAP
1 *3623:C1 0.000812999
2 *3622:X 0.000812999
3 *3623:C1 *3621:B1 6.1684e-05
4 *3623:C1 *3623:B2 1.02504e-05
5 *3623:C1 *3694:A1 6.119e-05
6 *3623:C1 *4063:RESET_B 0.000183384
*RES
1 *3622:X *3623:C1 38.3277 
*END

*D_NET *541 0.000525086
*CONN
*I *3624:C I *D sky130_fd_sc_hd__or3_2
*I *3623:X O *D sky130_fd_sc_hd__a221o_2
*CAP
1 *3624:C 0.000104597
2 *3623:X 0.000104597
3 *3624:C *3621:A2 0.000148189
4 *3624:C *3623:A1 0.000148196
5 *3624:C *3623:A2 1.58163e-05
6 *3624:C *4231:A 3.69047e-06
*RES
1 *3623:X *3624:C 30.0821 
*END

*D_NET *542 0.00364979
*CONN
*I *3635:C I *D sky130_fd_sc_hd__nor3_2
*I *3634:X O *D sky130_fd_sc_hd__or3b_2
*CAP
1 *3635:C 0.000830672
2 *3634:X 0.000830672
3 *3635:C *3634:A 0.000706537
4 *3635:C *3634:B 0.000360894
5 *3635:C *3634:C_N 4.71919e-05
6 *3635:C *3964:D 0.000226453
7 *3635:C *3968:D 2.90075e-05
8 *3635:C *4047:D 0.000185643
9 *3635:C *4065:A 0.000125724
10 *3635:C *4180:A 0
11 *3635:C *613:35 7.77652e-05
12 *3635:C *1011:10 0
13 *4174:A *3635:C 9.84673e-05
14 *4246:A *3635:C 0.000130761
*RES
1 *3634:X *3635:C 47.3768 
*END

*D_NET *543 0.00655542
*CONN
*I *3658:B1 I *D sky130_fd_sc_hd__o21a_2
*I *3654:B1 I *D sky130_fd_sc_hd__o21a_2
*I *3656:B1 I *D sky130_fd_sc_hd__o21a_2
*I *3652:B1 I *D sky130_fd_sc_hd__o21a_2
*I *3650:B1 I *D sky130_fd_sc_hd__o21a_2
*I *3648:Y O *D sky130_fd_sc_hd__nand2b_2
*CAP
1 *3658:B1 0
2 *3654:B1 0.000258314
3 *3656:B1 2.22873e-05
4 *3652:B1 0.0002039
5 *3650:B1 1.62117e-05
6 *3648:Y 0.000218634
7 *543:31 0.000351672
8 *543:27 0.000414278
9 *543:25 0.00178953
10 *543:6 0.0019939
11 *3650:B1 *3650:A1 1.19813e-05
12 *3652:B1 *3652:A1 0.000226274
13 *3652:B1 *3652:A2 5.49995e-05
14 *3652:B1 *4070:A 5.27486e-05
15 *3652:B1 *4167:A 5.84722e-05
16 *3654:B1 *3654:A2 5.4959e-05
17 *3656:B1 *4070:A 9.67754e-05
18 *543:6 *3648:B 2.85321e-05
19 *543:25 *3649:A_N 4.82744e-06
20 *543:25 *3650:A1 0.000141941
21 *543:25 *3657:B 3.45899e-05
22 *543:25 *3658:A2 0.000100858
23 *543:25 *3967:CLK 3.13018e-05
24 *543:25 *4384:A 0.000140243
25 *543:27 *3658:A1 1.06172e-05
26 *543:31 *3652:A1 1.89507e-06
27 *543:31 *3654:A1 0
28 *543:31 *3658:A1 2.45881e-05
29 *543:31 *4167:A 2.17533e-05
30 *3877:D *3652:B1 2.85234e-05
31 *3879:D *3652:B1 1.32293e-05
32 *3879:D *3656:B1 4.51148e-05
33 *3880:D *3654:B1 9.84673e-05
34 *55:18 *543:25 4.00276e-06
*RES
1 *3648:Y *543:6 12.7107 
2 *543:6 *3650:B1 9.72857 
3 *543:6 *543:25 28.5893 
4 *543:25 *543:27 0.732143 
5 *543:27 *543:31 6.44643 
6 *543:31 *3652:B1 14.3714 
7 *543:31 *3656:B1 10.2464 
8 *543:27 *3654:B1 18.4607 
9 *543:25 *3658:B1 13.8 
*END

*D_NET *544 0.00175438
*CONN
*I *3650:A2 I *D sky130_fd_sc_hd__o21a_2
*I *3649:X O *D sky130_fd_sc_hd__and2b_2
*CAP
1 *3650:A2 0.000799726
2 *3649:X 0.000799726
3 *3650:A2 *614:101 9.35419e-05
4 *3650:A2 *1012:14 6.13903e-05
*RES
1 *3649:X *3650:A2 38.0643 
*END

*D_NET *545 0.000345173
*CONN
*I *3652:A2 I *D sky130_fd_sc_hd__o21a_2
*I *3651:X O *D sky130_fd_sc_hd__and2b_2
*CAP
1 *3652:A2 7.64768e-05
2 *3651:X 7.64768e-05
3 *3652:A2 *3654:A1 0.000101771
4 *3652:B1 *3652:A2 5.49995e-05
5 *3877:D *3652:A2 3.54498e-05
*RES
1 *3651:X *3652:A2 29.475 
*END

*D_NET *546 0.00158518
*CONN
*I *3654:A2 I *D sky130_fd_sc_hd__o21a_2
*I *3653:X O *D sky130_fd_sc_hd__and2b_2
*CAP
1 *3654:A2 0.000553883
2 *3653:X 0.000553883
3 *3654:A2 *3651:B 3.80953e-06
4 *3654:A2 *3653:A_N 0.000158638
5 *3654:A2 *3653:B 1.40415e-05
6 *3654:A2 *3946:RESET_B 1.90223e-05
7 *3654:A2 *650:10 0.000151445
8 *3654:A2 *650:17 7.54988e-05
9 *3654:B1 *3654:A2 5.4959e-05
10 *3878:D *3654:A2 0
*RES
1 *3653:X *3654:A2 39.0821 
*END

*D_NET *547 0.000682679
*CONN
*I *3656:A2 I *D sky130_fd_sc_hd__o21a_2
*I *3655:X O *D sky130_fd_sc_hd__and2b_2
*CAP
1 *3656:A2 0.000130999
2 *3655:X 0.000130999
3 *3656:A2 *3658:A1 0.000170138
4 *3656:A2 *3658:A2 5.1061e-05
5 *3656:A2 *994:18 7.76169e-05
6 *3880:D *3656:A2 0.000121866
*RES
1 *3655:X *3656:A2 31.6714 
*END

*D_NET *548 0.000606464
*CONN
*I *3658:A2 I *D sky130_fd_sc_hd__o21a_2
*I *3657:X O *D sky130_fd_sc_hd__and2b_2
*CAP
1 *3658:A2 0.000227273
2 *3657:X 0.000227273
3 *3656:A2 *3658:A2 5.1061e-05
4 *543:25 *3658:A2 0.000100858
*RES
1 *3657:X *3658:A2 31.1179 
*END

*D_NET *549 0.00231457
*CONN
*I *3662:B1 I *D sky130_fd_sc_hd__a21o_2
*I *3661:X O *D sky130_fd_sc_hd__a21bo_2
*CAP
1 *3662:B1 0.000326726
2 *3661:X 0.000326726
3 *3662:B1 *3402:B 5.75803e-05
4 *3662:B1 *3661:B1_N 0.000513139
5 *3662:B1 *3662:A2 5.66564e-05
6 *3662:B1 *4073:TE_B 0.000409903
7 *3662:B1 *4228:A 0.000236814
8 *3662:B1 *646:53 0.000265453
9 *3662:B1 *936:21 1.32552e-05
10 *3662:B1 *939:16 2.49484e-05
11 *3883:D *3662:B1 8.33655e-05
*RES
1 *3661:X *3662:B1 39.725 
*END

*D_NET *550 0.00213132
*CONN
*I *3664:S I *D sky130_fd_sc_hd__mux2_1
*I *3663:Y O *D sky130_fd_sc_hd__nand2_2
*CAP
1 *3664:S 0.000317255
2 *3663:Y 0.000317255
3 *3664:S *3664:A1 0.00056228
4 *3664:S *3745:A0 2.44318e-05
5 *3664:S *3745:A1 9.60939e-05
6 *3664:S *907:12 0
7 *3664:S *907:18 0.000770315
8 *3664:S *907:26 1.02504e-05
9 *3664:S *907:102 3.34366e-05
10 *4053:D *3664:S 0
*RES
1 *3663:Y *3664:S 38.6893 
*END

*D_NET *551 0.0042317
*CONN
*I *3666:S I *D sky130_fd_sc_hd__mux2_1
*I *3665:Y O *D sky130_fd_sc_hd__nand2_2
*CAP
1 *3666:S 0.00140972
2 *3665:Y 0.00140972
3 *3666:S *3671:B 3.67142e-05
4 *3666:S *3672:S 0.000392917
5 *3666:S *3746:S 0.000200413
6 *3666:S *3747:A0 8.3212e-05
7 *3666:S *3747:S 5.52238e-05
8 *3666:S *646:61 7.95581e-05
9 *3666:S *889:105 9.74218e-05
10 *3666:S *889:109 3.48705e-05
11 *3666:S *907:102 4.18895e-05
12 *3666:S *907:104 0.000305671
13 *3666:S *945:12 1.46264e-05
14 *3666:A0 *3666:S 6.97409e-05
*RES
1 *3665:Y *3666:S 48.5643 
*END

*D_NET *552 0.00287558
*CONN
*I *3668:S I *D sky130_fd_sc_hd__mux2_1
*I *3667:Y O *D sky130_fd_sc_hd__nand2_2
*CAP
1 *3668:S 0.00103994
2 *3667:Y 0.00103994
3 *3668:S *3667:A 0.000190586
4 *3668:S *4055:CLK 5.41609e-05
5 *3668:S *4056:CLK 2.84109e-05
6 *3668:S *624:10 6.19181e-05
7 *3668:S *624:12 0.000132442
8 *3668:S *624:16 3.16039e-05
9 *3668:S *641:54 5.52302e-05
10 *3668:S *940:12 0.000115639
11 *4050:D *3668:S 0.000125717
*RES
1 *3667:Y *3668:S 45.8679 
*END

*D_NET *553 0.00216782
*CONN
*I *3670:S I *D sky130_fd_sc_hd__mux2_1
*I *3669:Y O *D sky130_fd_sc_hd__nand2_2
*CAP
1 *3670:S 0.000462392
2 *3669:Y 0.000462392
3 *3670:S *3669:A 3.55471e-05
4 *3670:S *3670:A1 0.00014285
5 *3670:S *3672:A1 0.00018372
6 *3670:S *4207:A 0.000137525
7 *3670:S *865:12 0.000320024
8 *3670:S *868:18 0.000371609
9 *3670:A0 *3670:S 5.17614e-05
*RES
1 *3669:Y *3670:S 38.9214 
*END

*D_NET *554 0.000930519
*CONN
*I *3672:S I *D sky130_fd_sc_hd__mux2_1
*I *3671:Y O *D sky130_fd_sc_hd__nand2_2
*CAP
1 *3672:S 0.000146983
2 *3671:Y 0.000146983
3 *3672:S *3672:A1 0.000139907
4 *3672:S *889:109 2.89114e-05
5 *3666:A0 *3672:S 2.28499e-05
6 *3666:S *3672:S 0.000392917
7 *359:87 *3672:S 5.1969e-05
*RES
1 *3671:Y *3672:S 23.2786 
*END

*D_NET *555 0.000430774
*CONN
*I *3674:S I *D sky130_fd_sc_hd__mux2_1
*I *3673:Y O *D sky130_fd_sc_hd__nand2_2
*CAP
1 *3674:S 0.000115153
2 *3673:Y 0.000115153
3 *3674:S *3647:A0 3.55056e-05
4 *3674:S *3674:A1 0.000101545
5 *3674:S *623:60 0
6 *3674:S *869:10 1.07719e-05
7 *359:67 *3674:S 5.26442e-05
*RES
1 *3673:Y *3674:S 30.3857 
*END

*D_NET *556 0.00096374
*CONN
*I *3676:S I *D sky130_fd_sc_hd__mux2_1
*I *3675:Y O *D sky130_fd_sc_hd__nand2_2
*CAP
1 *3676:S 0.000306422
2 *3675:Y 0.000306422
3 *3676:S *3641:A0 0.000111118
4 *3676:S *623:101 1.02504e-05
5 *3676:S *623:107 0.000153054
6 *3676:S *646:61 0
7 *3890:D *3676:S 5.49489e-05
8 *4286:A *3676:S 0
9 *359:45 *3676:S 2.15245e-05
*RES
1 *3675:Y *3676:S 33.7964 
*END

*D_NET *557 0.00158349
*CONN
*I *3678:S I *D sky130_fd_sc_hd__mux2_1
*I *3677:Y O *D sky130_fd_sc_hd__nand2_2
*CAP
1 *3678:S 0.000416273
2 *3677:Y 0.000416273
3 *3678:S *3716:B 0.000197991
4 *3678:S *3745:A1 7.80714e-06
5 *3678:S *4053:RESET_B 4.73656e-05
6 *3678:S *4285:A 0.00034545
7 *3678:S *4378:A 0.000152333
8 *3678:S *871:10 0
9 *3884:D *3678:S 0
10 *11:10 *3678:S 0
*RES
1 *3677:Y *3678:S 37.7071 
*END

*D_NET *558 0.000637186
*CONN
*I *3681:B I *D sky130_fd_sc_hd__nor2_2
*I *3680:X O *D sky130_fd_sc_hd__a2bb2o_2
*CAP
1 *3681:B 0.00027203
2 *3680:X 0.00027203
3 *3681:B *3680:A1_N 2.89114e-05
4 *3681:B *3945:SET_B 0
5 *3681:B *3951:RESET_B 6.42145e-05
6 *3681:B *652:16 0
7 *3945:D *3681:B 0
*RES
1 *3680:X *3681:B 32.2071 
*END

*D_NET *559 0.00133874
*CONN
*I *3684:A2 I *D sky130_fd_sc_hd__a22o_2
*I *3685:A2 I *D sky130_fd_sc_hd__a22o_2
*I *3682:Y O *D sky130_fd_sc_hd__a21oi_2
*CAP
1 *3684:A2 8.3637e-06
2 *3685:A2 8.28242e-05
3 *3682:Y 0.000300483
4 *559:10 0.000391671
5 *3684:A2 *3684:A1 1.46576e-05
6 *3685:A2 *3685:A1 0.000239307
7 *3685:A2 *3685:B1 0.00010209
8 *3685:A2 *3685:B2 3.34295e-05
9 *559:10 *3682:B1 1.21258e-05
10 *559:10 *3683:A_N 2.56601e-05
11 *559:10 *3685:A1 3.34366e-05
12 *559:10 *4087:A 0
13 *559:10 *605:12 9.46929e-05
14 *559:10 *838:12 0
*RES
1 *3682:Y *559:10 18.0321 
2 *559:10 *3685:A2 16.8045 
3 *559:10 *3684:A2 13.9473 
*END

*D_NET *560 0.000841911
*CONN
*I *3684:B1 I *D sky130_fd_sc_hd__a22o_2
*I *3685:B1 I *D sky130_fd_sc_hd__a22o_2
*I *3683:X O *D sky130_fd_sc_hd__and3b_2
*CAP
1 *3684:B1 0
2 *3685:B1 7.88879e-05
3 *3683:X 0.000108409
4 *560:10 0.000187297
5 *3685:B1 *3685:B2 3.34295e-05
6 *560:10 *3683:A_N 1.98839e-05
7 *560:10 *3684:A1 3.57366e-05
8 *3684:B2 *3685:B1 0.000222878
9 *3684:B2 *560:10 5.33005e-05
10 *3685:A2 *3685:B1 0.00010209
*RES
1 *3683:X *560:10 11.5143 
2 *560:10 *3685:B1 21.1571 
3 *560:10 *3684:B1 9.3 
*END

*D_NET *561 0.000842459
*CONN
*I *3688:B1 I *D sky130_fd_sc_hd__o21a_2
*I *3687:X O *D sky130_fd_sc_hd__a221o_2
*CAP
1 *3688:B1 0.000240519
2 *3687:X 0.000240519
3 *3688:B1 *3687:A2 5.01234e-05
4 *3688:B1 *1002:51 6.93626e-06
5 *3897:D *3688:B1 3.73361e-05
6 *435:8 *3688:B1 0.000267025
*RES
1 *3687:X *3688:B1 33.8857 
*END

*D_NET *562 0.0058477
*CONN
*I *3692:B1 I *D sky130_fd_sc_hd__a22o_2
*I *3694:B1 I *D sky130_fd_sc_hd__a22o_2
*I *3696:B1 I *D sky130_fd_sc_hd__a22o_2
*I *3689:Y O *D sky130_fd_sc_hd__a21oi_2
*CAP
1 *3692:B1 0
2 *3694:B1 0.000165122
3 *3696:B1 0.000237653
4 *3689:Y 0.00118462
5 *562:35 0.00050669
6 *562:14 0.00176384
7 *3694:B1 *564:14 0.000141941
8 *3696:B1 *3696:A1 0.000137639
9 *3696:B1 *564:14 5.51649e-05
10 *3696:B1 *569:24 3.9342e-05
11 *562:14 *3481:A 2.85321e-05
12 *562:14 *3690:A2 5.50052e-05
13 *562:14 *569:24 0.000277162
14 *562:14 *951:10 5.66971e-05
15 *3483:B2 *562:14 2.60673e-05
16 *3485:A *562:14 0.000183711
17 *3485:C *562:14 0.000181435
18 *3689:B1 *562:14 6.89735e-05
19 *3692:A2 *3694:B1 0.000100675
20 *3898:D *3696:B1 5.66971e-05
21 *3898:D *562:14 8.52379e-05
22 *3898:D *562:35 0.000146084
23 *3899:D *3694:B1 0.00017616
24 *3899:D *562:35 0.000101908
25 *3900:D *3696:B1 5.66943e-05
26 *434:43 *3694:B1 1.46576e-05
*RES
1 *3689:Y *562:14 26.9607 
2 *562:14 *3696:B1 22.0321 
3 *562:14 *562:35 15.7321 
4 *562:35 *3694:B1 13.1214 
5 *562:35 *3692:B1 9.3 
*END

*D_NET *563 0.00877006
*CONN
*I *3704:B1 I *D sky130_fd_sc_hd__o22a_2
*I *3700:B1 I *D sky130_fd_sc_hd__o22a_2
*I *3698:B1 I *D sky130_fd_sc_hd__o22a_2
*I *3702:B1 I *D sky130_fd_sc_hd__o22a_2
*I *3690:X O *D sky130_fd_sc_hd__a21o_2
*CAP
1 *3704:B1 3.64069e-05
2 *3700:B1 0.000271317
3 *3698:B1 0.000662351
4 *3702:B1 0.000187584
5 *3690:X 0.000178101
6 *563:39 0.00102478
7 *563:22 0.00126267
8 *563:6 0.00119848
9 *3698:B1 *3901:CLK 0.000271898
10 *3698:B1 *608:77 0
11 *3698:B1 *608:79 0
12 *3700:B1 *3700:B2 6.05161e-06
13 *3700:B1 *3901:RESET_B 4.83849e-05
14 *3700:B1 *954:10 0.000210033
15 *3702:B1 *3473:A 2.36643e-05
16 *3702:B1 *3698:B2 0.000227243
17 *3702:B1 *4224:A 0
18 *3702:B1 *569:24 9.58126e-05
19 *3702:B1 *913:78 3.43988e-06
20 *563:22 *3622:A2 0.000221058
21 *563:22 *4244:A 5.50052e-05
22 *563:22 *913:78 3.57074e-05
23 *563:22 *953:8 0.000119607
24 *563:22 *955:6 0.000181899
25 *563:39 *3698:B2 0.000219731
26 *563:39 *913:78 5.96135e-05
27 *563:39 *913:88 6.93626e-06
28 *3484:A2 *3702:B1 0.000140907
29 *3704:A2 *563:22 9.75679e-05
30 *3901:D *3698:B1 0.000138749
31 *3902:D *563:22 0.000481885
32 *3904:D *563:6 0.0001871
33 *434:22 *563:6 0.000128198
34 *434:22 *563:22 0.000439676
35 *435:22 *3698:B1 0.000103832
36 *435:22 *3700:B1 0.000444374
*RES
1 *3690:X *563:6 13.9429 
2 *563:6 *563:22 27.0804 
3 *563:22 *3702:B1 18.5946 
4 *563:22 *563:39 7.50893 
5 *563:39 *3698:B1 28.55 
6 *563:39 *3700:B1 16.0321 
7 *563:6 *3704:B1 10.0321 
*END

*D_NET *564 0.00389542
*CONN
*I *3692:B2 I *D sky130_fd_sc_hd__a22o_2
*I *3691:X O *D sky130_fd_sc_hd__mux2_1
*CAP
1 *3692:B2 0
2 *3691:X 0.0011873
3 *564:14 0.0011873
4 *564:14 *3482:B 0.000177821
5 *564:14 *3631:A1 3.43988e-06
6 *564:14 *3631:S 9.5011e-05
7 *564:14 *3696:A1 1.12578e-05
8 *564:14 *3696:B2 0.000335409
9 *564:14 *3860:RESET_B 0.00022459
10 *564:14 *4381:A 2.44287e-05
11 *564:14 *632:12 0
12 *564:14 *844:14 1.26938e-05
13 *3691:S *564:14 7.19508e-05
14 *3692:A2 *564:14 0.000141941
15 *3694:B1 *564:14 0.000141941
16 *3696:B1 *564:14 5.51649e-05
17 *3900:D *564:14 7.6623e-05
18 *427:55 *564:14 8.6229e-06
19 *434:43 *564:14 0.000139933
*RES
1 *3691:X *564:14 42.2107 
2 *564:14 *3692:B2 9.3 
*END

*D_NET *565 0.00292075
*CONN
*I *3694:B2 I *D sky130_fd_sc_hd__a22o_2
*I *3693:X O *D sky130_fd_sc_hd__mux2_1
*CAP
1 *3694:B2 0.000910325
2 *3693:X 0.000910325
3 *3694:B2 *3473:B 2.71964e-05
4 *3694:B2 *3622:B1 3.63061e-05
5 *3694:B2 *3860:RESET_B 0.000174648
6 *3694:B2 *4092:A 0
7 *3694:B2 *4224:A 0.000514418
8 *3694:B2 *4230:A 4.41588e-05
9 *3694:B2 *853:22 0.00028046
10 *3697:S *3694:B2 0
11 *3902:D *3694:B2 2.29112e-05
12 *427:67 *3694:B2 0
*RES
1 *3693:X *3694:B2 46.9393 
*END

*D_NET *566 0.00160319
*CONN
*I *3696:B2 I *D sky130_fd_sc_hd__a22o_2
*I *3695:X O *D sky130_fd_sc_hd__mux2_1
*CAP
1 *3696:B2 0.000379044
2 *3695:X 0.000379044
3 *3696:B2 *3696:A1 0.000147784
4 *3696:B2 *4243:A 0
5 *3696:B2 *4381:A 0.000361914
6 *564:14 *3696:B2 0.000335409
*RES
1 *3695:X *3696:B2 35.3857 
*END

*D_NET *567 0.0033094
*CONN
*I *3698:B2 I *D sky130_fd_sc_hd__o22a_2
*I *3697:X O *D sky130_fd_sc_hd__mux2_1
*CAP
1 *3698:B2 0.000952085
2 *3697:X 0.000952085
3 *3698:B2 *3473:B 2.15688e-05
4 *3698:B2 *3698:A1 7.589e-05
5 *3698:B2 *3753:A0 9.99853e-05
6 *3698:B2 *3758:A0 0.000199283
7 *3698:B2 *3758:S 5.79582e-06
8 *3698:B2 *608:77 0
9 *3698:B2 *760:6 0.000128523
10 *3698:B2 *909:29 0.000230155
11 *3698:A2 *3698:B2 1.02911e-05
12 *3702:B1 *3698:B2 0.000227243
13 *3903:D *3698:B2 0
14 *4062:D *3698:B2 0.000186765
15 *563:39 *3698:B2 0.000219731
*RES
1 *3697:X *3698:B2 47.225 
*END

*D_NET *568 0.00302481
*CONN
*I *3700:B2 I *D sky130_fd_sc_hd__o22a_2
*I *3699:X O *D sky130_fd_sc_hd__mux2_1
*CAP
1 *3700:B2 0.000608536
2 *3699:X 0.000608536
3 *3700:B2 *3482:B 0.00034285
4 *3700:B2 *3622:A2 0.000144732
5 *3700:B2 *3899:CLK 4.40513e-06
6 *3700:B2 *4092:A 0.000561396
7 *3700:B2 *620:58 9.53044e-05
8 *3700:B2 *620:79 5.94886e-05
9 *3700:B2 *620:90 6.4934e-05
10 *3700:B2 *853:22 3.74783e-05
11 *3700:B2 *954:10 8.25843e-06
12 *3700:B2 *986:27 7.43578e-06
13 *3700:B1 *3700:B2 6.05161e-06
14 *3860:D *3700:B2 0.000359835
15 *427:55 *3700:B2 4.35336e-05
16 *435:22 *3700:B2 7.20336e-05
*RES
1 *3699:X *3700:B2 44.7786 
*END

*D_NET *569 0.00455544
*CONN
*I *3702:B2 I *D sky130_fd_sc_hd__o22a_2
*I *3701:X O *D sky130_fd_sc_hd__mux2_1
*CAP
1 *3702:B2 0
2 *3701:X 0.000950882
3 *569:24 0.000950882
4 *569:24 *3473:A 0.000531781
5 *569:24 *3702:A1 5.66971e-05
6 *569:24 *3704:B2 9.6573e-05
7 *569:24 *3898:CLK 0.000303705
8 *569:24 *4170:A 0.000128154
9 *3484:A2 *569:24 0.000479153
10 *3485:A *569:24 4.58194e-05
11 *3485:B *569:24 6.96806e-05
12 *3485:D *569:24 0.000313352
13 *3696:B1 *569:24 3.9342e-05
14 *3702:B1 *569:24 9.58126e-05
15 *3898:D *569:24 7.88091e-05
16 *3900:D *569:24 0.000137639
17 *562:14 *569:24 0.000277162
*RES
1 *3701:X *569:24 44.6929 
2 *569:24 *3702:B2 9.3 
*END

*D_NET *570 0.00172239
*CONN
*I *3704:B2 I *D sky130_fd_sc_hd__o22a_2
*I *3703:X O *D sky130_fd_sc_hd__mux2_1
*CAP
1 *3704:B2 0.000506386
2 *3703:X 0.000506386
3 *3704:B2 *3481:A 0
4 *3704:B2 *3481:B 0
5 *3704:B2 *3703:A1 9.90431e-05
6 *3704:B2 *4170:A 0.000222878
7 *3704:B2 *854:26 0.000139913
8 *3704:B2 *987:10 2.61337e-05
9 *3704:B2 *987:23 7.71417e-05
10 *3485:D *3704:B2 8.08608e-06
11 *427:29 *3704:B2 1.54142e-05
12 *427:43 *3704:B2 2.44318e-05
13 *569:24 *3704:B2 9.6573e-05
*RES
1 *3703:X *3704:B2 38.3143 
*END

*D_NET *571 9.29676e-05
*CONN
*I *3714:A I *D sky130_fd_sc_hd__and4_2
*I *3705:Y O *D sky130_fd_sc_hd__xnor2_2
*CAP
1 *3714:A 1.84357e-05
2 *3705:Y 1.84357e-05
3 *3714:A *3714:B 5.60962e-05
*RES
1 *3705:Y *3714:A 19.1357 
*END

*D_NET *572 0.00109409
*CONN
*I *3714:B I *D sky130_fd_sc_hd__and4_2
*I *3706:Y O *D sky130_fd_sc_hd__xnor2_2
*CAP
1 *3714:B 0.000481072
2 *3706:Y 0.000481072
3 *3714:B *3705:A 6.05161e-06
4 *3714:B *3705:B 3.1367e-05
5 *3714:B *3706:B 3.84349e-05
6 *3714:A *3714:B 5.60962e-05
*RES
1 *3706:Y *3714:B 33.6893 
*END

*D_NET *573 0.000331318
*CONN
*I *3713:A I *D sky130_fd_sc_hd__and4_2
*I *3707:Y O *D sky130_fd_sc_hd__xnor2_2
*CAP
1 *3713:A 0.000112025
2 *3707:Y 0.000112025
3 *3713:A *3641:A1 0
4 *3713:A *3707:B 7.83659e-05
5 *3713:A *3713:B 2.89016e-05
*RES
1 *3707:Y *3713:A 29.6 
*END

*D_NET *574 0.000513051
*CONN
*I *3714:C I *D sky130_fd_sc_hd__and4_2
*I *3708:Y O *D sky130_fd_sc_hd__xnor2_2
*CAP
1 *3714:C 0.000216485
2 *3708:Y 0.000216485
3 *3714:C *3714:D 8.00806e-05
4 *3714:C *4091:A 0
5 *3714:C *588:16 0
*RES
1 *3708:Y *3714:C 31.6714 
*END

*D_NET *575 0.000210349
*CONN
*I *3713:B I *D sky130_fd_sc_hd__and4_2
*I *3709:Y O *D sky130_fd_sc_hd__xnor2_2
*CAP
1 *3713:B 5.26269e-05
2 *3709:Y 5.26269e-05
3 *3713:B *3713:C 7.61932e-05
4 *3713:A *3713:B 2.89016e-05
*RES
1 *3709:Y *3713:B 19.9571 
*END

*D_NET *576 0.000360603
*CONN
*I *3714:D I *D sky130_fd_sc_hd__and4_2
*I *3710:Y O *D sky130_fd_sc_hd__xnor2_2
*CAP
1 *3714:D 0.000112111
2 *3710:Y 0.000112111
3 *3714:D *3710:B 5.62995e-05
4 *3714:D *588:16 0
5 *3714:C *3714:D 8.00806e-05
*RES
1 *3710:Y *3714:D 29.5821 
*END

*D_NET *577 0.00129427
*CONN
*I *3713:C I *D sky130_fd_sc_hd__and4_2
*I *3711:Y O *D sky130_fd_sc_hd__xnor2_2
*CAP
1 *3713:C 0.000535676
2 *3711:Y 0.000535676
3 *3713:C *3709:A 0.000146724
4 *3713:B *3713:C 7.61932e-05
*RES
1 *3711:Y *3713:C 27.6893 
*END

*D_NET *578 0.000462718
*CONN
*I *3713:D I *D sky130_fd_sc_hd__and4_2
*I *3712:Y O *D sky130_fd_sc_hd__xnor2_2
*CAP
1 *3713:D 0.000229514
2 *3712:Y 0.000229514
3 *3713:D *3707:B 3.69047e-06
4 *3713:D *646:61 0
*RES
1 *3712:Y *3713:D 30.4036 
*END

*D_NET *579 0.00248933
*CONN
*I *3717:A1 I *D sky130_fd_sc_hd__a21oi_2
*I *3715:A1 I *D sky130_fd_sc_hd__a21oi_2
*I *3713:X O *D sky130_fd_sc_hd__and4_2
*CAP
1 *3717:A1 0
2 *3715:A1 0.000240685
3 *3713:X 0.000499618
4 *579:10 0.000740304
5 *3715:A1 *3712:B 0.000106552
6 *3715:A1 *3715:A2 0.000130823
7 *3715:A1 *4172:A 3.48705e-05
8 *3715:A1 *582:23 6.63476e-05
9 *579:10 *3712:B 0.000181378
10 *579:10 *3905:CLK 0.000361914
11 *579:10 *3909:RESET_B 0
12 *579:10 *646:61 7.32955e-05
13 *3909:D *579:10 5.35423e-05
*RES
1 *3713:X *579:10 24.4607 
2 *579:10 *3715:A1 19.7821 
3 *579:10 *3717:A1 13.8 
*END

*D_NET *580 0.00462709
*CONN
*I *3717:A2 I *D sky130_fd_sc_hd__a21oi_2
*I *3715:A2 I *D sky130_fd_sc_hd__a21oi_2
*I *3714:X O *D sky130_fd_sc_hd__and4_2
*CAP
1 *3717:A2 0.000180126
2 *3715:A2 0.000171847
3 *3714:X 0.00070669
4 *580:10 0.00105866
5 *3715:A2 *3728:A 9.71197e-05
6 *3715:A2 *3728:B 2.95726e-05
7 *3715:A2 *4172:A 0.00044366
8 *3717:A2 *3730:A 0.000222666
9 *3717:A2 *3730:B 3.39892e-05
10 *3717:A2 *3730:C 0.00012401
11 *3717:A2 *3909:RESET_B 2.26424e-05
12 *3717:A2 *4397:A 0.00026546
13 *3717:A2 *582:10 2.28598e-05
14 *3717:A2 *588:49 0
15 *3717:A2 *973:66 0.000181223
16 *580:10 *3727:B 0.00010326
17 *580:10 *3909:RESET_B 1.17968e-05
18 *580:10 *588:49 0
19 *580:10 *619:14 0.000136028
20 *580:10 *632:22 0.000176353
21 *3715:A1 *3715:A2 0.000130823
22 *3907:D *580:10 0.000197269
23 *3908:D *580:10 0.000311028
*RES
1 *3714:X *580:10 27.4786 
2 *580:10 *3715:A2 19.2821 
3 *580:10 *3717:A2 19.9071 
*END

*D_NET *581 0.00194505
*CONN
*I *3716:B I *D sky130_fd_sc_hd__nor2_2
*I *3715:Y O *D sky130_fd_sc_hd__a21oi_2
*CAP
1 *3716:B 0.000489549
2 *3715:Y 0.000489549
3 *3716:B *3715:B1 0.000482877
4 *3716:B *871:10 0
5 *3678:S *3716:B 0.000197991
6 *3716:A *3716:B 6.30023e-05
7 *3717:B1 *3716:B 0.000222082
*RES
1 *3715:Y *3716:B 40.5107 
*END

*D_NET *582 0.00998791
*CONN
*I *3721:A I *D sky130_fd_sc_hd__and3_2
*I *3724:B I *D sky130_fd_sc_hd__and3b_2
*I *3727:C I *D sky130_fd_sc_hd__and3b_2
*I *3736:B I *D sky130_fd_sc_hd__and3b_2
*I *3742:A I *D sky130_fd_sc_hd__and3_2
*I *3739:A I *D sky130_fd_sc_hd__and3_2
*I *3733:B I *D sky130_fd_sc_hd__and3b_2
*I *3730:A I *D sky130_fd_sc_hd__and3_2
*I *3717:Y O *D sky130_fd_sc_hd__a21oi_2
*CAP
1 *3721:A 0.000324076
2 *3724:B 0
3 *3727:C 0.00012335
4 *3736:B 0.000438571
5 *3742:A 0
6 *3739:A 8.34776e-05
7 *3733:B 0
8 *3730:A 0.00010102
9 *3717:Y 9.77055e-05
10 *582:59 0.000555814
11 *582:44 0.000558414
12 *582:33 0.000949435
13 *582:31 0.000911496
14 *582:29 0.000390734
15 *582:23 0.000771052
16 *582:10 0.000451371
17 *3721:A *3721:C 1.92905e-05
18 *3721:A *3722:A1 0.0001479
19 *3721:A *3722:B1 3.91935e-05
20 *3721:A *3724:C 0.000225609
21 *3721:A *3726:A 7.65689e-05
22 *3727:C *3907:CLK 4.87669e-06
23 *3727:C *588:16 0
24 *3727:C *588:29 0.000125731
25 *3730:A *3730:C 5.52302e-05
26 *3736:B *3739:C 0.000117388
27 *3736:B *3740:A1 0.000128496
28 *3736:B *3740:A2 0.000139907
29 *3736:B *3741:A 0
30 *3736:B *3742:C 0
31 *3736:B *4397:A 7.27381e-05
32 *3736:B *595:24 0.000128933
33 *3736:B *595:30 0.000222885
34 *3736:B *976:21 1.08359e-05
35 *3739:A *3640:A0 2.78822e-05
36 *3739:A *3739:B 3.92757e-05
37 *3739:A *3739:C 0.000106523
38 *3739:A *916:77 0
39 *582:10 *4397:A 3.14078e-05
40 *582:23 *3712:B 0
41 *582:23 *3726:B 5.83304e-05
42 *582:23 *3909:RESET_B 0.000133487
43 *582:23 *632:22 8.98801e-05
44 *582:29 *3719:A 2.89016e-05
45 *582:29 *3724:C 0.000266099
46 *582:29 *3726:B 0.000301778
47 *582:29 *587:8 0.000101545
48 *582:29 *632:22 7.25296e-05
49 *582:31 *3719:A 0.000137447
50 *582:33 *3719:A 6.05161e-06
51 *582:33 *3721:B 7.48301e-06
52 *582:33 *3731:A2 8.90199e-05
53 *582:33 *3731:B1 0.000165615
54 *582:33 *588:29 5.04705e-05
55 *582:44 *3731:B1 1.24368e-05
56 *582:44 *3737:A 2.84109e-05
57 *582:44 *3737:B 2.07878e-05
58 *582:44 *3739:B 0.000266479
59 *582:59 *3739:C 0.000104227
60 *582:59 *3740:A1 5.52302e-05
61 *582:59 *3740:A2 5.52302e-05
62 *582:59 *3742:C 1.02504e-05
63 *3715:A1 *582:23 6.63476e-05
64 *3717:A2 *3730:A 0.000222666
65 *3717:A2 *582:10 2.28598e-05
66 *3908:D *3727:C 0.000100979
67 *3909:D *3730:A 2.28499e-05
68 *3909:D *582:10 1.33343e-05
69 *3912:D *3739:A 0
70 *3912:D *582:59 0
*RES
1 *3717:Y *582:10 11.5143 
2 *582:10 *3730:A 11.9071 
3 *582:10 *582:23 10.0893 
4 *582:23 *582:29 10.3214 
5 *582:29 *582:31 2.58929 
6 *582:31 *582:33 7.92857 
7 *582:33 *3733:B 9.3 
8 *582:33 *582:44 10.8036 
9 *582:44 *3739:A 16.3536 
10 *582:44 *582:59 7.58929 
11 *582:59 *3742:A 9.3 
12 *582:59 *3736:B 28.1214 
13 *582:31 *3727:C 21.0187 
14 *582:29 *3724:B 9.3 
15 *582:23 *3721:A 20.5857 
*END

*D_NET *583 0.00435376
*CONN
*I *3722:A2 I *D sky130_fd_sc_hd__a21o_2
*I *3719:B I *D sky130_fd_sc_hd__or2_2
*I *3720:B I *D sky130_fd_sc_hd__nand2_2
*I *3723:C I *D sky130_fd_sc_hd__and3_2
*I *3718:X O *D sky130_fd_sc_hd__or2_2
*CAP
1 *3722:A2 0.000287755
2 *3719:B 0.000195714
3 *3720:B 0.000119804
4 *3723:C 8.63274e-05
5 *3718:X 7.05909e-05
6 *583:16 0.00030224
7 *583:12 0.000398532
8 *583:6 0.000465056
9 *3719:B *3719:A 0.000429934
10 *3719:B *3721:B 0.000299334
11 *3719:B *3722:A1 8.50152e-05
12 *3719:B *3724:A_N 9.90431e-05
13 *3719:B *3726:A 2.04866e-05
14 *3719:B *970:23 0.000122063
15 *3719:B *971:22 0.000126042
16 *3720:B *3708:B 0.000175519
17 *3720:B *3720:A 9.10431e-06
18 *3720:B *632:12 0
19 *3720:B *970:23 3.4323e-06
20 *3720:B *971:22 1.7897e-05
21 *3722:A2 *3721:B 9.10475e-05
22 *3722:A2 *3721:C 0.000576873
23 *3722:A2 *3906:RESET_B 0
24 *3722:A2 *4172:A 1.02504e-05
25 *3723:C *970:23 2.04825e-05
26 *583:6 *3726:A 5.52302e-05
27 *583:12 *3726:A 9.60875e-05
28 *583:12 *971:22 2.09897e-05
29 *583:16 *970:23 7.35921e-05
30 *583:16 *971:22 9.53173e-05
*RES
1 *3718:X *583:6 10.6571 
2 *583:6 *583:12 6.54464 
3 *583:12 *583:16 3.08929 
4 *583:16 *3723:C 15.0232 
5 *583:16 *3720:B 16.8089 
6 *583:12 *3719:B 20.8446 
7 *583:6 *3722:A2 25.7107 
*END

*D_NET *584 0.00240102
*CONN
*I *3721:B I *D sky130_fd_sc_hd__and3_2
*I *3719:X O *D sky130_fd_sc_hd__or2_2
*CAP
1 *3721:B 0.000866117
2 *3719:X 0.000866117
3 *3721:B *3719:A 4.43256e-05
4 *3721:B *3722:A1 1.21258e-05
5 *3721:B *3724:A_N 9.90431e-05
6 *3721:B *3724:C 1.76204e-05
7 *3721:B *3906:RESET_B 4.25809e-05
8 *3721:B *588:29 5.52238e-05
9 *3719:B *3721:B 0.000299334
10 *3722:A2 *3721:B 9.10475e-05
11 *3906:D *3721:B 0
12 *582:33 *3721:B 7.48301e-06
*RES
1 *3719:X *3721:B 40.7786 
*END

*D_NET *585 0.00274449
*CONN
*I *3721:C I *D sky130_fd_sc_hd__and3_2
*I *3720:Y O *D sky130_fd_sc_hd__nand2_2
*CAP
1 *3721:C 0.000526206
2 *3720:Y 0.000526206
3 *3721:C *3712:B 0
4 *3721:C *3720:A 0.000197977
5 *3721:C *3725:A1 0
6 *3721:C *3725:C1 0.000103267
7 *3721:C *3726:A 0.000577587
8 *3721:C *4172:A 6.00733e-05
9 *3721:C *875:58 0
10 *3721:C *971:22 0.000107119
11 *3721:C *972:12 4.98872e-05
12 *3721:A *3721:C 1.92905e-05
13 *3722:A2 *3721:C 0.000576873
*RES
1 *3720:Y *3721:C 42.3679 
*END

*D_NET *586 0.00137151
*CONN
*I *3724:C I *D sky130_fd_sc_hd__and3b_2
*I *3722:X O *D sky130_fd_sc_hd__a21o_2
*CAP
1 *3724:C 0.000293408
2 *3722:X 0.000293408
3 *3724:C *3726:A 8.25843e-06
4 *3724:C *632:22 0.000267107
5 *3721:A *3724:C 0.000225609
6 *3721:B *3724:C 1.76204e-05
7 *582:29 *3724:C 0.000266099
*RES
1 *3722:X *3724:C 33.8187 
*END

*D_NET *587 0.00175065
*CONN
*I *3726:B I *D sky130_fd_sc_hd__or2_2
*I *3724:A_N I *D sky130_fd_sc_hd__and3b_2
*I *3723:X O *D sky130_fd_sc_hd__and3_2
*CAP
1 *3726:B 0.000164597
2 *3724:A_N 1.64323e-05
3 *3723:X 0.000154461
4 *587:8 0.000335489
5 *3726:B *971:22 7.95581e-05
6 *3726:B *971:44 0
7 *587:8 *632:12 3.5707e-05
8 *587:8 *632:22 6.07532e-05
9 *587:8 *970:23 0.00020821
10 *587:8 *971:22 3.56976e-05
11 *3719:B *3724:A_N 9.90431e-05
12 *3721:B *3724:A_N 9.90431e-05
13 *582:23 *3726:B 5.83304e-05
14 *582:29 *3726:B 0.000301778
15 *582:29 *587:8 0.000101545
*RES
1 *3723:X *587:8 18.4786 
2 *587:8 *3724:A_N 14.7464 
3 *587:8 *3726:B 18.4786 
*END

*D_NET *588 0.00817862
*CONN
*I *3735:D I *D sky130_fd_sc_hd__and4_2
*I *3728:B I *D sky130_fd_sc_hd__nand2_2
*I *3729:B I *D sky130_fd_sc_hd__or2_2
*I *3727:A_N I *D sky130_fd_sc_hd__and3b_2
*I *3732:C I *D sky130_fd_sc_hd__and3_2
*I *3731:A2 I *D sky130_fd_sc_hd__a21o_2
*I *3725:X O *D sky130_fd_sc_hd__o2111a_2
*CAP
1 *3735:D 0.000640783
2 *3728:B 0.000237745
3 *3729:B 0
4 *3727:A_N 0
5 *3732:C 0.000760159
6 *3731:A2 9.7872e-05
7 *3725:X 0.000696115
8 *588:58 0.000902268
9 *588:49 0.000316059
10 *588:33 0.000812158
11 *588:29 0.000499374
12 *588:16 0.000949043
13 *3728:B *3728:A 9.47028e-05
14 *3728:B *3730:C 5.52302e-05
15 *3732:C *3732:A 0.000173431
16 *3732:C *3737:B 2.84026e-05
17 *3732:C *3907:CLK 9.74698e-05
18 *3732:C *4106:A 0
19 *3732:C *593:6 6.8445e-06
20 *3732:C *619:6 1.92789e-05
21 *3732:C *619:87 1.21258e-05
22 *3735:D *3735:A 0.000142575
23 *3735:D *3735:C 5.49544e-05
24 *3735:D *4397:A 0.000155006
25 *3735:D *973:25 0
26 *3735:D *973:66 0.000118349
27 *588:16 *3710:B 0.000575092
28 *588:16 *3723:A 3.99614e-06
29 *588:16 *4063:CLK 5.35516e-05
30 *588:16 *619:14 0
31 *588:16 *632:22 0
32 *588:16 *970:36 7.46166e-05
33 *588:16 *970:47 5.03772e-05
34 *588:29 *3731:A1 0
35 *588:29 *619:14 0
36 *588:33 *3907:CLK 0.00014285
37 *588:49 *3731:A1 0
38 *588:49 *973:25 0
39 *588:49 *973:66 5.80706e-06
40 *588:58 *973:25 0
41 *588:58 *973:66 3.17067e-05
42 *3714:C *588:16 0
43 *3714:D *588:16 0
44 *3715:A2 *3728:B 2.95726e-05
45 *3717:A2 *588:49 0
46 *3721:B *588:29 5.52238e-05
47 *3727:C *588:16 0
48 *3727:C *588:29 0.000125731
49 *3908:D *588:16 0
50 *3908:D *588:29 1.78353e-05
51 *3908:D *588:49 2.8266e-06
52 *580:10 *588:49 0
53 *582:33 *3731:A2 8.90199e-05
54 *582:33 *588:29 5.04705e-05
*RES
1 *3725:X *588:16 31.05 
2 *588:16 *3731:A2 11.4786 
3 *588:16 *588:29 8.10714 
4 *588:29 *588:33 5.85714 
5 *588:33 *3732:C 19.1929 
6 *588:33 *3727:A_N 9.3 
7 *588:29 *588:49 4.98214 
8 *588:49 *3729:B 13.8 
9 *588:49 *588:58 0.732143 
10 *588:58 *3728:B 17.9429 
11 *588:58 *3735:D 23.7643 
*END

*D_NET *589 0.000704352
*CONN
*I *3727:B I *D sky130_fd_sc_hd__and3b_2
*I *3726:X O *D sky130_fd_sc_hd__or2_2
*CAP
1 *3727:B 0.000156095
2 *3726:X 0.000156095
3 *3727:B *632:22 0.00010326
4 *3727:B *916:32 0.000185643
5 *580:10 *3727:B 0.00010326
*RES
1 *3726:X *3727:B 30.7071 
*END

*D_NET *590 0.000325695
*CONN
*I *3730:B I *D sky130_fd_sc_hd__and3_2
*I *3728:Y O *D sky130_fd_sc_hd__nand2_2
*CAP
1 *3730:B 4.2947e-05
2 *3728:Y 4.2947e-05
3 *3730:B *3730:C 7.83659e-05
4 *3730:B *3909:RESET_B 0.000127446
5 *3717:A2 *3730:B 3.39892e-05
*RES
1 *3728:Y *3730:B 29.2429 
*END

*D_NET *591 0.00067504
*CONN
*I *3730:C I *D sky130_fd_sc_hd__and3_2
*I *3729:X O *D sky130_fd_sc_hd__or2_2
*CAP
1 *3730:C 0.000144847
2 *3729:X 0.000144847
3 *3730:C *3909:RESET_B 4.43046e-05
4 *3730:C *973:66 2.82057e-05
5 *3717:A2 *3730:C 0.00012401
6 *3728:B *3730:C 5.52302e-05
7 *3730:A *3730:C 5.52302e-05
8 *3730:B *3730:C 7.83659e-05
*RES
1 *3729:X *3730:C 30.9214 
*END

*D_NET *592 0.000347446
*CONN
*I *3733:C I *D sky130_fd_sc_hd__and3b_2
*I *3731:X O *D sky130_fd_sc_hd__a21o_2
*CAP
1 *3733:C 9.44326e-05
2 *3731:X 9.44326e-05
3 *3733:C *3731:B1 5.85953e-05
4 *3910:D *3733:C 9.99853e-05
*RES
1 *3731:X *3733:C 20.5732 
*END

*D_NET *593 0.00241252
*CONN
*I *3734:B I *D sky130_fd_sc_hd__or2_2
*I *3733:A_N I *D sky130_fd_sc_hd__and3b_2
*I *3732:X O *D sky130_fd_sc_hd__and3_2
*CAP
1 *3734:B 0.000467073
2 *3733:A_N 0.000126686
3 *3732:X 9.1629e-05
4 *593:6 0.000685388
5 *3733:A_N *3737:B 7.02461e-05
6 *3733:A_N *4091:A 6.15273e-05
7 *3734:B *3641:A1 1.83053e-05
8 *3734:B *3732:A 4.65258e-05
9 *3734:B *3732:B 9.66977e-05
10 *3734:B *3735:B 9.30065e-05
11 *3734:B *974:10 9.97648e-05
12 *3734:B *974:12 1.52978e-05
13 *3734:B *975:10 0.000172375
14 *3734:B *975:21 0.000115474
15 *593:6 *3732:A 2.84026e-05
16 *593:6 *3732:B 0.000141729
17 *593:6 *3737:B 6.94952e-05
18 *593:6 *3740:A2 6.05161e-06
19 *3732:C *593:6 6.8445e-06
*RES
1 *3732:X *593:6 11.4786 
2 *593:6 *3733:A_N 20.8536 
3 *593:6 *3734:B 28.7107 
*END

*D_NET *594 0.00096906
*CONN
*I *3736:C I *D sky130_fd_sc_hd__and3b_2
*I *3734:X O *D sky130_fd_sc_hd__or2_2
*CAP
1 *3736:C 0.000328538
2 *3734:X 0.000328538
3 *3736:C *3735:C 5.33005e-05
4 *3736:C *4397:A 0.000104721
5 *3736:C *595:63 5.07042e-05
6 *3736:C *975:21 0.00010326
*RES
1 *3734:X *3736:C 32.4348 
*END

*D_NET *595 0.00455507
*CONN
*I *3736:A_N I *D sky130_fd_sc_hd__and3b_2
*I *3741:C I *D sky130_fd_sc_hd__nand3_2
*I *3738:B I *D sky130_fd_sc_hd__nand2_2
*I *3737:B I *D sky130_fd_sc_hd__or2_2
*I *3740:A2 I *D sky130_fd_sc_hd__a21o_2
*I *3735:X O *D sky130_fd_sc_hd__and4_2
*CAP
1 *3736:A_N 0
2 *3741:C 0.000194468
3 *3738:B 0
4 *3737:B 0.000157516
5 *3740:A2 0.000160955
6 *3735:X 5.51442e-05
7 *595:63 0.000346949
8 *595:30 0.000386441
9 *595:24 0.000449265
10 *595:8 0.00058892
11 *3737:B *3740:A1 2.14658e-05
12 *3737:B *976:21 2.71557e-05
13 *3737:B *976:23 4.93875e-05
14 *3740:A2 *3740:A1 0.000137505
15 *3740:A2 *3742:B 9.46929e-05
16 *3741:C *4397:A 0.00019781
17 *595:8 *4397:A 0.000224341
18 *595:24 *3741:A 0
19 *595:24 *3912:RESET_B 9.66977e-05
20 *595:24 *976:21 5.33005e-05
21 *595:30 *976:21 0.000198705
22 *595:63 *3741:A 0
23 *595:63 *4397:A 0.000139111
24 *3732:C *3737:B 2.84026e-05
25 *3733:A_N *3737:B 7.02461e-05
26 *3736:B *3740:A2 0.000139907
27 *3736:B *595:24 0.000128933
28 *3736:B *595:30 0.000222885
29 *3736:C *595:63 5.07042e-05
30 *3911:D *595:8 0.000182592
31 *582:44 *3737:B 2.07878e-05
32 *582:59 *3740:A2 5.52302e-05
33 *593:6 *3737:B 6.94952e-05
34 *593:6 *3740:A2 6.05161e-06
*RES
1 *3735:X *595:8 15.9786 
2 *595:8 *595:24 11.9821 
3 *595:24 *595:30 11.8571 
4 *595:30 *3740:A2 13.5321 
5 *595:30 *3737:B 22.1393 
6 *595:24 *3738:B 9.3 
7 *595:8 *595:63 7.41071 
8 *595:63 *3741:C 13.1393 
9 *595:63 *3736:A_N 9.3 
*END

*D_NET *596 0.000985855
*CONN
*I *3739:B I *D sky130_fd_sc_hd__and3_2
*I *3737:X O *D sky130_fd_sc_hd__or2_2
*CAP
1 *3739:B 0.00030001
2 *3737:X 0.00030001
3 *3739:B *3640:A0 8.00806e-05
4 *3739:A *3739:B 3.92757e-05
5 *582:44 *3739:B 0.000266479
*RES
1 *3737:X *3739:B 32.0464 
*END

*D_NET *597 0.00148713
*CONN
*I *3739:C I *D sky130_fd_sc_hd__and3_2
*I *3738:Y O *D sky130_fd_sc_hd__nand2_2
*CAP
1 *3739:C 0.000416773
2 *3738:Y 0.000416773
3 *3739:C *3706:B 0
4 *3739:C *3742:C 7.7674e-05
5 *3739:C *4311:A 0.000247771
6 *3739:C *916:77 0
7 *3739:C *976:23 0
8 *3736:B *3739:C 0.000117388
9 *3739:A *3739:C 0.000106523
10 *582:59 *3739:C 0.000104227
*RES
1 *3738:Y *3739:C 37.3857 
*END

*D_NET *598 0.000653492
*CONN
*I *3742:B I *D sky130_fd_sc_hd__and3_2
*I *3740:X O *D sky130_fd_sc_hd__a21o_2
*CAP
1 *3742:B 0.00025919
2 *3740:X 0.00025919
3 *3742:B *3740:A1 1.15172e-05
4 *3742:B *3740:B1 2.89016e-05
5 *3740:A2 *3742:B 9.46929e-05
*RES
1 *3740:X *3742:B 22.85 
*END

*D_NET *599 0.00108237
*CONN
*I *3742:C I *D sky130_fd_sc_hd__and3_2
*I *3741:Y O *D sky130_fd_sc_hd__nand3_2
*CAP
1 *3742:C 0.000245322
2 *3741:Y 0.000245322
3 *3742:C *3740:B1 0
4 *3742:C *3741:A 0.000271958
5 *3742:C *977:25 3.92854e-05
6 *3736:B *3742:C 0
7 *3739:C *3742:C 7.7674e-05
8 *3912:D *3742:C 3.38229e-05
9 *3913:D *3742:C 0.000158736
10 *582:59 *3742:C 1.02504e-05
*RES
1 *3741:Y *3742:C 34.7071 
*END

*D_NET *600 0.000851667
*CONN
*I *3744:A2 I *D sky130_fd_sc_hd__a21o_2
*I *3743:Y O *D sky130_fd_sc_hd__nor2_2
*CAP
1 *3744:A2 0.000387737
2 *3743:Y 0.000387737
3 *3914:D *3744:A2 7.61932e-05
*RES
1 *3743:Y *3744:A2 25.3143 
*END

*D_NET *601 0.000611602
*CONN
*I *4071:TE_B I *D sky130_fd_sc_hd__ebufn_2
*I *3761:X O *D sky130_fd_sc_hd__buf_1
*CAP
1 *4071:TE_B 0.000257279
2 *3761:X 0.000257279
3 *4071:TE_B *3761:A 7.77652e-05
4 *4071:TE_B *4071:A 1.92789e-05
*RES
1 *3761:X *4071:TE_B 22.0286 
*END

*D_NET *602 0.00309341
*CONN
*I *4073:TE_B I *D sky130_fd_sc_hd__ebufn_2
*I *3396:X O *D sky130_fd_sc_hd__and4_2
*CAP
1 *4073:TE_B 0.000900861
2 *3396:X 0.000900861
3 *4073:TE_B *3396:B 0.00014183
4 *4073:TE_B *3396:C 7.03393e-05
5 *4073:TE_B *3662:A2 1.55885e-05
6 *4073:TE_B *4073:A 1.85728e-05
7 *4073:TE_B *643:67 0
8 *4073:TE_B *889:57 0.000244886
9 *4073:TE_B *944:8 4.87854e-05
10 *3662:B1 *4073:TE_B 0.000409903
11 *3883:D *4073:TE_B 0.000341781
*RES
1 *3396:X *4073:TE_B 44.975 
*END

*D_NET *603 0.0173386
*CONN
*I *4078:A I *D sky130_fd_sc_hd__clkbuf_16
*I *4079:A I *D sky130_fd_sc_hd__clkbuf_16
*I *4077:A I *D sky130_fd_sc_hd__clkbuf_16
*I *4076:A I *D sky130_fd_sc_hd__clkbuf_16
*I *4075:X O *D sky130_fd_sc_hd__clkbuf_16
*CAP
1 *4078:A 7.74507e-05
2 *4079:A 5.93924e-05
3 *4077:A 8.3064e-05
4 *4076:A 0.000104528
5 *4075:X 6.66388e-05
6 *603:105 0.00159679
7 *603:63 0.00102745
8 *603:55 0.00379667
9 *603:43 0.000483463
10 *603:27 0.00176695
11 *603:13 0.00335056
12 *603:8 0.00266366
13 *4076:A *604:70 5.12567e-05
14 *4076:A *905:28 9.80173e-05
15 *4077:A *3454:A2 3.67142e-05
16 *4078:A *644:10 5.38218e-05
17 *4079:A *607:12 6.05161e-06
18 *603:13 *3433:B2 0
19 *603:13 *3451:A2 0
20 *603:13 *3468:B2 0
21 *603:13 *3744:B1 0.000134726
22 *603:13 *3896:D 0.000126137
23 *603:13 *3914:RESET_B 0
24 *603:13 *4017:CLK 6.74911e-05
25 *603:13 *4017:D 0
26 *603:13 *4019:CLK 0.000261199
27 *603:13 *4201:A 0
28 *603:13 *616:29 7.49332e-05
29 *603:13 *996:12 0
30 *603:13 *1008:10 0
31 *603:27 *3744:B1 4.50209e-05
32 *603:27 *4115:A 0.000104092
33 *603:27 *604:70 3.36658e-05
34 *603:43 *3892:D 7.70589e-05
35 *603:55 *3433:B2 0
36 *603:55 *3793:A2 0.000273555
37 *603:55 *3931:D 0
38 *603:55 *3985:CLK 1.03245e-05
39 *603:55 *878:16 0
40 *603:55 *894:83 0
41 *603:55 *996:12 0
42 *603:55 *1035:12 0
43 *603:63 *3422:A1_N 4.64488e-06
44 *603:63 *658:114 1.01912e-05
45 *603:105 *3790:B1 5.09887e-05
46 *603:105 *3791:A1 7.65689e-05
47 *603:105 *3791:A2 2.7627e-05
48 *603:105 *3985:CLK 1.31511e-05
49 *603:105 *4121:A 2.84026e-05
50 *603:105 *4153:A 0
51 *603:105 *4217:A 0
52 *603:105 *644:10 9.09664e-06
53 *603:105 *878:43 6.32597e-05
54 *603:105 *878:47 0.000273588
55 *603:105 *892:52 4.53294e-05
56 *603:105 *1035:12 0
57 *3438:A1 *603:105 3.55552e-05
58 *3914:D *603:13 0
59 *3931:SET_B *603:55 0
60 *3936:RESET_B *603:55 0
61 *4019:RESET_B *603:13 0
62 *4265:A *603:55 0.00011316
63 *109:14 *603:27 0
64 *111:10 *4077:A 1.44079e-05
65 *111:10 *603:43 3.03792e-05
66 *354:20 *603:105 1.15281e-05
*RES
1 *4075:X *603:8 14.7464 
2 *603:8 *603:13 25.9286 
3 *603:13 *603:27 19.228 
4 *603:27 *4076:A 11.7509 
5 *603:13 *603:43 11.0357 
6 *603:43 *4077:A 10.8179 
7 *603:8 *603:55 24.5625 
8 *603:55 *603:63 9.59405 
9 *603:63 *4079:A 14.7464 
10 *603:55 *603:105 31.9554 
11 *603:105 *4078:A 10.9786 
*END

*D_NET *604 0.020326
*CONN
*I *4089:A I *D sky130_fd_sc_hd__clkbuf_8
*I *4093:A I *D sky130_fd_sc_hd__clkbuf_8
*I *4090:A I *D sky130_fd_sc_hd__clkbuf_8
*I *4092:A I *D sky130_fd_sc_hd__clkbuf_8
*I *4080:A I *D sky130_fd_sc_hd__clkbuf_8
*I *4091:A I *D sky130_fd_sc_hd__clkbuf_8
*I *4076:X O *D sky130_fd_sc_hd__clkbuf_16
*CAP
1 *4089:A 0
2 *4093:A 0.000541171
3 *4090:A 0.000552063
4 *4092:A 0.000762175
5 *4080:A 0
6 *4091:A 0.000960622
7 *4076:X 0.00185306
8 *604:89 0.000859475
9 *604:70 0.00172821
10 *604:24 0.00139032
11 *604:12 0.00218709
12 *4090:A *3445:A 4.84159e-05
13 *4090:A *3445:B 0.000107916
14 *4090:A *618:12 9.75679e-05
15 *4090:A *646:41 0.00102686
16 *4090:A *1004:18 1.81805e-05
17 *4090:A *1004:26 0.000209376
18 *4091:A *3644:A0 0.000126439
19 *4091:A *3644:S 4.04459e-05
20 *4091:A *3705:A 0
21 *4091:A *3705:B 0.000108848
22 *4091:A *4062:RESET_B 2.2351e-05
23 *4091:A *4288:A 0.000359974
24 *4091:A *608:10 1.00399e-05
25 *4091:A *608:122 5.33005e-05
26 *4091:A *929:10 0
27 *4091:A *974:12 8.89289e-05
28 *4092:A *3620:B1 4.75521e-05
29 *4092:A *3620:B2 4.25523e-05
30 *4092:A *3622:A1 0.000150625
31 *4092:A *3622:A2 0.00021721
32 *4092:A *3622:B1 0.000151333
33 *4092:A *4064:RESET_B 6.27272e-06
34 *4092:A *4224:A 0
35 *4092:A *632:12 0
36 *4092:A *853:22 0.000439315
37 *4092:A *967:16 0
38 *4092:A *967:22 0.000173804
39 *4092:A *969:10 2.14474e-05
40 *4092:A *969:14 2.14474e-05
41 *4093:A *3470:B1 0.000198698
42 *4093:A *3470:B2 0.000128154
43 *4093:A *3806:A1 3.03071e-05
44 *4093:A *3954:RESET_B 3.17067e-05
45 *4093:A *3958:RESET_B 0.000149647
46 *4093:A *621:91 5.30637e-06
47 *4093:A *636:109 0.000230761
48 *4093:A *894:22 5.33005e-05
49 *4093:A *894:32 5.33005e-05
50 *4093:A *936:33 0
51 *604:12 *3623:A1 4.65158e-06
52 *604:12 *875:31 0.000674457
53 *604:12 *875:58 5.98536e-06
54 *604:24 *3755:A0 0.000139907
55 *604:24 *4062:RESET_B 0.000268762
56 *604:24 *4064:CLK 4.13496e-05
57 *604:24 *4290:A 2.15245e-05
58 *604:24 *608:122 0.000299402
59 *604:24 *967:16 4.65158e-06
60 *604:70 *3757:A0 0.000227322
61 *604:70 *4115:A 8.2912e-05
62 *604:70 *905:28 2.441e-05
63 *604:89 *4249:A 0.00015304
64 *604:89 *646:41 0.000274514
65 *3449:B1 *4090:A 0.000148903
66 *3469:B1 *4093:A 2.87473e-05
67 *3469:B1 *604:89 0.00012401
68 *3694:B2 *4092:A 0
69 *3700:B2 *4092:A 0.000561396
70 *3714:C *4091:A 0
71 *3733:A_N *4091:A 6.15273e-05
72 *3902:D *4092:A 7.74135e-05
73 *3949:D *4090:A 0.000128154
74 *3955:D *4093:A 0.000128161
75 *4059:D *604:24 1.0562e-05
76 *4076:A *604:70 5.12567e-05
77 *4274:A *4092:A 0.00011365
78 *109:14 *4090:A 9.30065e-05
79 *109:14 *4093:A 0.000298281
80 *109:14 *604:89 0.000772559
81 *353:10 *604:12 2.06112e-05
82 *429:12 *4090:A 0.000145609
83 *603:27 *604:70 3.36658e-05
*RES
1 *4076:X *604:12 20.1282 
2 *604:12 *604:24 13.9538 
3 *604:24 *4091:A 38.0857 
4 *604:24 *4080:A 9.3 
5 *604:12 *4092:A 36.9154 
6 *4076:X *604:70 26.1214 
7 *604:70 *4090:A 28.8357 
8 *604:70 *604:89 15.7143 
9 *604:89 *4093:A 33.1929 
10 *604:89 *4089:A 9.3 
*END

*D_NET *605 0.0182937
*CONN
*I *4084:A I *D sky130_fd_sc_hd__clkbuf_8
*I *4085:A I *D sky130_fd_sc_hd__clkbuf_8
*I *4086:A I *D sky130_fd_sc_hd__clkbuf_8
*I *4101:A I *D sky130_fd_sc_hd__clkbuf_8
*I *4088:A I *D sky130_fd_sc_hd__clkbuf_8
*I *4087:A I *D sky130_fd_sc_hd__clkbuf_8
*I *4077:X O *D sky130_fd_sc_hd__clkbuf_16
*CAP
1 *4084:A 0.00167974
2 *4085:A 0.000754082
3 *4086:A 7.86797e-05
4 *4101:A 0
5 *4088:A 0.000109063
6 *4087:A 0.000429053
7 *4077:X 0.00128944
8 *605:56 0.00186119
9 *605:46 0.00367012
10 *605:14 0.000538116
11 *605:12 0.00032749
12 *4084:A *3548:B1 0.000325767
13 *4084:A *3563:A 1.39841e-05
14 *4084:A *3626:A1 0.000394719
15 *4084:A *3820:A1 2.14658e-05
16 *4084:A *881:103 0.000171375
17 *4085:A *3635:B 5.50052e-05
18 *4085:A *3648:A_N 0.000170375
19 *4085:A *3973:RESET_B 6.92966e-06
20 *4085:A *4128:A 0.000139344
21 *4085:A *4268:A 6.88108e-05
22 *4085:A *613:10 0.000115295
23 *4085:A *654:10 0.000141935
24 *4085:A *1012:14 9.67754e-05
25 *4086:A *3649:A_N 0.00012377
26 *4086:A *4379:A 0.000123178
27 *4086:A *614:101 5.50052e-05
28 *4087:A *3454:A2 0.000508764
29 *4087:A *3683:A_N 0.000125724
30 *4087:A *3685:B2 0.000188844
31 *4087:A *802:12 9.56673e-05
32 *4087:A *990:12 0.000149113
33 *4087:A *990:18 0.000129569
34 *4088:A *3454:A2 0.000162832
35 *4088:A *3683:A_N 3.17148e-05
36 *4088:A *990:18 0.00010209
37 *4088:A *1003:18 0.000335674
38 *605:12 *3682:B1 5.33005e-05
39 *605:12 *616:78 0.000153054
40 *605:12 *838:12 8.16036e-05
41 *605:46 *3893:CLK 0.000112995
42 *605:46 *994:8 5.41609e-05
43 *605:56 *3655:A_N 0
44 *605:56 *3656:A1 1.58163e-05
45 *605:56 *3680:A1_N 0
46 *605:56 *4268:A 0.000141036
47 *605:56 *4384:A 6.46843e-05
48 *605:56 *992:16 0.000751642
49 *605:56 *994:18 0
50 *3493:A *4084:A 0.000101545
51 *3562:B *4084:A 5.52302e-05
52 *3564:C *4084:A 0
53 *3684:B2 *4087:A 0.000527799
54 *3893:D *605:46 0.00014285
55 *3973:D *605:56 0
56 *4012:RESET_B *4084:A 0.000265447
57 *4341:A *4085:A 0.00026974
58 *457:12 *4084:A 0.000199549
59 *498:12 *4084:A 0
60 *498:21 *4084:A 0.000617886
61 *559:10 *4087:A 0
62 *559:10 *605:12 9.46929e-05
*RES
1 *4077:X *605:12 25.3 
2 *605:12 *605:14 4.5 
3 *605:14 *4087:A 27.2286 
4 *605:14 *4088:A 18.4786 
5 *605:12 *4101:A 9.3 
6 *4077:X *605:46 20.925 
7 *605:46 *605:56 32.1071 
8 *605:56 *4086:A 20.4786 
9 *605:56 *4085:A 23.3893 
10 *605:46 *4084:A 47.7107 
*END

*D_NET *606 0.0167452
*CONN
*I *4097:A I *D sky130_fd_sc_hd__clkbuf_8
*I *4098:A I *D sky130_fd_sc_hd__clkbuf_8
*I *4095:A I *D sky130_fd_sc_hd__clkbuf_8
*I *4096:A I *D sky130_fd_sc_hd__clkbuf_8
*I *4102:A I *D sky130_fd_sc_hd__clkbuf_8
*I *4094:A I *D sky130_fd_sc_hd__clkbuf_8
*I *4078:X O *D sky130_fd_sc_hd__clkbuf_16
*CAP
1 *4097:A 0.00130028
2 *4098:A 0.000438196
3 *4095:A 0.0010565
4 *4096:A 3.52163e-05
5 *4102:A 0
6 *4094:A 0.000610598
7 *4078:X 0.000415548
8 *606:67 0.00230428
9 *606:45 0.00272311
10 *606:35 0.00253535
11 *606:8 0.000687988
12 *4094:A *3789:A2 0
13 *4094:A *4041:CLK 0
14 *4094:A *4041:D 4.34988e-05
15 *4094:A *4073:A 2.8266e-06
16 *4094:A *4151:A 0.000282079
17 *4094:A *622:126 0
18 *4094:A *643:67 0
19 *4094:A *643:76 0
20 *4094:A *643:89 0
21 *4095:A *3752:A1 0.000285672
22 *4095:A *4056:D 4.63862e-05
23 *4095:A *4305:A 1.08359e-05
24 *4095:A *4390:A 2.59355e-05
25 *4095:A *4395:A 0
26 *4095:A *623:101 5.49544e-05
27 *4095:A *640:28 0
28 *4095:A *640:35 0
29 *4097:A *3381:A1 0.000162832
30 *4097:A *4237:A 8.15095e-05
31 *4097:A *625:80 0.000236765
32 *4097:A *891:62 0.000125918
33 *4097:A *1044:8 1.58163e-05
34 *4098:A *1051:10 0.00010096
35 *606:8 *3789:A2 0
36 *606:8 *4151:A 0.000142082
37 *606:35 *3789:A1 6.8646e-06
38 *606:35 *3789:A2 5.10822e-05
39 *606:45 *3388:A1 0.000671299
40 *606:45 *3766:A1 0.00018372
41 *606:45 *3917:D 0.000227532
42 *606:45 *624:10 5.52302e-05
43 *606:45 *779:10 9.60875e-05
44 *606:67 *3381:A1 5.83304e-05
45 *606:67 *4219:A 0.000209574
46 *606:67 *891:49 0.000138015
47 *606:67 *891:62 0.000430477
48 *3515:A_N *4097:A 2.59355e-05
49 *3515:C *4097:A 5.95163e-05
50 *3920:D *4097:A 0.000139907
51 *3941:D *606:35 0
52 *3941:RESET_B *606:35 2.79092e-05
53 *3997:D *4098:A 1.94516e-06
54 *4041:RESET_B *4094:A 6.48863e-05
55 *4220:A *606:45 3.97657e-05
56 *4277:A *4095:A 0.000126439
57 *11:10 *4094:A 0
58 *359:61 *4095:A 0.000173812
59 *396:14 *4098:A 0.000163877
60 *396:16 *4097:A 3.94624e-05
61 *396:20 *4097:A 2.84318e-05
*RES
1 *4078:X *606:8 15.7464 
2 *606:8 *4094:A 26.3714 
3 *606:8 *4102:A 13.8 
4 *4078:X *606:35 18.925 
5 *606:35 *606:45 31.8929 
6 *606:45 *4096:A 9.83571 
7 *606:45 *4095:A 38.0857 
8 *606:35 *606:67 15.3036 
9 *606:67 *4098:A 21.8714 
10 *606:67 *4097:A 32.3 
*END

*D_NET *607 0.0209559
*CONN
*I *4081:A I *D sky130_fd_sc_hd__clkbuf_8
*I *4100:A I *D sky130_fd_sc_hd__clkbuf_8
*I *4105:A I *D sky130_fd_sc_hd__clkbuf_8
*I *4082:A I *D sky130_fd_sc_hd__clkbuf_8
*I *4083:A I *D sky130_fd_sc_hd__clkbuf_8
*I *4099:A I *D sky130_fd_sc_hd__clkbuf_8
*I *4079:X O *D sky130_fd_sc_hd__clkbuf_16
*CAP
1 *4081:A 0.00105541
2 *4100:A 0.000371598
3 *4105:A 0
4 *4082:A 0.00115929
5 *4083:A 0.00035204
6 *4099:A 0.000403527
7 *4079:X 7.65269e-05
8 *607:78 0.00208288
9 *607:27 0.00173429
10 *607:16 0.000802635
11 *607:12 0.000803898
12 *607:6 0.00136014
13 *4081:A *3604:A 0
14 *4081:A *661:53 0.000322529
15 *4081:A *887:67 0.00134347
16 *4081:A *901:51 2.15245e-05
17 *4081:A *901:59 9.99644e-06
18 *4082:A *3521:A 1.92163e-05
19 *4082:A *3831:A1 9.90367e-05
20 *4082:A *3831:A2 4.43157e-05
21 *4082:A *3831:B1 0.00036193
22 *4082:A *4103:A 0.00010096
23 *4082:A *4145:A 0.000815032
24 *4082:A *658:50 1.98839e-05
25 *4082:A *660:64 0.000485681
26 *4082:A *662:80 0
27 *4083:A *611:102 0
28 *4083:A *611:113 0
29 *4083:A *611:132 0
30 *4083:A *658:50 0.000195555
31 *4083:A *1089:22 5.90443e-06
32 *4099:A *3423:A 5.33433e-05
33 *4099:A *3428:B1 2.44318e-05
34 *4099:A *3521:A 9.89914e-05
35 *4099:A *3625:B 0.0011767
36 *4099:A *658:56 0.000186669
37 *4099:A *658:60 0.00033577
38 *4099:A *658:64 0.000660801
39 *4100:A *3845:A1 2.14757e-05
40 *4100:A *3845:B1 7.61932e-05
41 *4100:A *659:58 6.39901e-05
42 *4100:A *887:67 0.000269428
43 *4100:A *899:72 1.55885e-05
44 *4100:A *899:82 3.48705e-05
45 *4100:A *901:59 0
46 *4100:A *901:69 5.59013e-05
47 *607:12 *3422:A1_N 0.000367382
48 *607:12 *3426:A2 0.000114829
49 *607:12 *658:114 0
50 *607:16 *3422:A1_N 0.000189448
51 *607:16 *3426:A2 7.50697e-05
52 *607:16 *658:114 0
53 *607:16 *997:10 0.000153054
54 *607:27 *3776:A1 5.71472e-05
55 *607:27 *658:50 0.000160621
56 *607:27 *658:56 0.000213179
57 *607:27 *885:28 3.18676e-05
58 *607:78 *662:41 0.000174972
59 *607:78 *662:52 0.000439656
60 *607:78 *885:62 0
61 *607:78 *885:93 0
62 *607:78 *899:28 0.000439656
63 *607:78 *899:47 0.000150625
64 *607:78 *899:68 3.88819e-05
65 *607:78 *899:116 7.90803e-05
66 *3608:B *4081:A 0.000492333
67 *3932:RESET_B *4083:A 9.24491e-05
68 *4018:D *4082:A 1.02504e-05
69 *4039:D *607:78 0
70 *4039:RESET_B *607:78 0.000104974
71 *4043:RESET_B *4100:A 5.33978e-05
72 *4079:A *607:12 6.05161e-06
73 *360:14 *4099:A 0.00032685
74 *423:38 *4083:A 0
75 *518:35 *4081:A 6.26653e-05
*RES
1 *4079:X *607:6 10.2464 
2 *607:6 *607:12 14.2321 
3 *607:12 *607:16 8.875 
4 *607:16 *4099:A 26.6929 
5 *607:16 *607:27 5.46429 
6 *607:27 *4083:A 25.4071 
7 *607:27 *4082:A 43.8179 
8 *607:12 *4105:A 13.8 
9 *607:6 *607:78 24.9107 
10 *607:78 *4100:A 26.0143 
11 *607:78 *4081:A 42.4429 
*END

*D_NET *608 0.0112695
*CONN
*I *4064:CLK I *D sky130_fd_sc_hd__dfrtp_2
*I *4058:CLK I *D sky130_fd_sc_hd__dfrtp_2
*I *4059:CLK I *D sky130_fd_sc_hd__dfrtp_2
*I *3903:CLK I *D sky130_fd_sc_hd__dfrtp_2
*I *3901:CLK I *D sky130_fd_sc_hd__dfrtp_2
*I *3902:CLK I *D sky130_fd_sc_hd__dfrtp_2
*I *4062:CLK I *D sky130_fd_sc_hd__dfrtp_2
*I *3868:CLK I *D sky130_fd_sc_hd__dfrtp_2
*I *3874:CLK I *D sky130_fd_sc_hd__dfrtp_2
*I *3872:CLK I *D sky130_fd_sc_hd__dfrtp_2
*I *4057:CLK I *D sky130_fd_sc_hd__dfrtp_2
*I *4080:X O *D sky130_fd_sc_hd__clkbuf_8
*CAP
1 *4064:CLK 3.75032e-05
2 *4058:CLK 0.000357183
3 *4059:CLK 0.000253031
4 *3903:CLK 0.000153463
5 *3901:CLK 0.000103086
6 *3902:CLK 0.000219575
7 *4062:CLK 1.99857e-05
8 *3868:CLK 0.000253259
9 *3874:CLK 8.9042e-05
10 *3872:CLK 0
11 *4057:CLK 4.231e-05
12 *4080:X 0.000101975
13 *608:128 0.00070595
14 *608:122 0.000325084
15 *608:79 0.000417146
16 *608:77 0.000754887
17 *608:42 0.000431031
18 *608:33 0.000466176
19 *608:27 0.00105397
20 *608:21 0.00116347
21 *608:10 0.000146055
22 *608:6 0.000397565
23 *3868:CLK *3646:A1 0
24 *3902:CLK *3902:RESET_B 0.000101859
25 *3902:CLK *853:22 0
26 *4057:CLK *4062:RESET_B 1.41642e-05
27 *4058:CLK *4059:RESET_B 0.000264678
28 *4058:CLK *914:57 0.000186379
29 *4058:CLK *967:10 2.89114e-05
30 *4064:CLK *4290:A 4.58194e-05
31 *608:6 *4062:RESET_B 3.17684e-05
32 *608:10 *4062:RESET_B 3.00989e-05
33 *608:27 *4062:RESET_B 0.00013576
34 *608:27 *964:12 6.60357e-05
35 *608:33 *3646:S 0
36 *608:33 *862:22 7.39637e-05
37 *608:77 *3753:A0 4.15914e-05
38 *608:77 *3758:A0 0
39 *608:77 *4057:D 0.000126439
40 *608:77 *4288:A 3.17148e-05
41 *608:77 *792:10 0
42 *608:77 *964:12 0.000127651
43 *608:77 *964:37 3.36286e-05
44 *608:122 *4062:RESET_B 4.16473e-05
45 *608:122 *4290:A 9.04241e-05
46 *608:128 *4288:A 0
47 *608:128 *792:10 0.000173804
48 *3698:A2 *3902:CLK 4.73355e-05
49 *3698:A2 *608:77 0.000121165
50 *3698:A2 *608:79 0.000170647
51 *3698:B1 *3901:CLK 0.000271898
52 *3698:B1 *608:77 0
53 *3698:B1 *608:79 0
54 *3698:B2 *608:77 0
55 *3702:A2 *3902:CLK 0.000175883
56 *3874:D *3868:CLK 9.25014e-06
57 *3874:D *608:33 0.000129868
58 *3874:D *608:42 0.000177941
59 *3901:D *3901:CLK 7.8195e-05
60 *3902:D *3902:CLK 3.17465e-05
61 *3903:D *3903:CLK 0.000102739
62 *4059:D *4058:CLK 2.79421e-05
63 *4059:D *4059:CLK 0.00015689
64 *4062:D *608:27 0.00022586
65 *4091:A *608:10 1.00399e-05
66 *4091:A *608:122 5.33005e-05
67 *604:24 *4064:CLK 4.13496e-05
68 *604:24 *608:122 0.000299402
*RES
1 *4080:X *608:6 11.0679 
2 *608:6 *608:10 6.44643 
3 *608:10 *4057:CLK 14.5321 
4 *608:10 *608:21 4.5 
5 *608:21 *608:27 9.30357 
6 *608:27 *608:33 11.875 
7 *608:33 *3872:CLK 13.8 
8 *608:33 *608:42 2.25 
9 *608:42 *3874:CLK 15.175 
10 *608:42 *3868:CLK 18.0143 
11 *608:27 *4062:CLK 9.72857 
12 *608:21 *608:77 13.875 
13 *608:77 *608:79 2.25 
14 *608:79 *3902:CLK 19.0857 
15 *608:79 *3901:CLK 16.8179 
16 *608:77 *3903:CLK 16.8 
17 *608:6 *608:122 5.625 
18 *608:122 *608:128 11.25 
19 *608:128 *4059:CLK 13.9429 
20 *608:128 *4058:CLK 16.8179 
21 *608:122 *4064:CLK 10.2464 
*END

*D_NET *609 0.0133068
*CONN
*I *4030:CLK I *D sky130_fd_sc_hd__dfrtp_2
*I *4031:CLK I *D sky130_fd_sc_hd__dfrtp_2
*I *4032:CLK I *D sky130_fd_sc_hd__dfrtp_2
*I *4029:CLK I *D sky130_fd_sc_hd__dfrtp_2
*I *4025:CLK I *D sky130_fd_sc_hd__dfrtp_2
*I *4027:CLK I *D sky130_fd_sc_hd__dfrtp_2
*I *4028:CLK I *D sky130_fd_sc_hd__dfrtp_2
*I *4112:A I *D sky130_fd_sc_hd__clkinv_2
*I *4033:CLK I *D sky130_fd_sc_hd__dfrtp_2
*I *4034:CLK I *D sky130_fd_sc_hd__dfrtp_2
*I *4081:X O *D sky130_fd_sc_hd__clkbuf_8
*CAP
1 *4030:CLK 5.52531e-05
2 *4031:CLK 5.71978e-05
3 *4032:CLK 0.00077501
4 *4029:CLK 0
5 *4025:CLK 0.000457301
6 *4027:CLK 0.000251993
7 *4028:CLK 0
8 *4112:A 2.23854e-05
9 *4033:CLK 0
10 *4034:CLK 0.000345554
11 *4081:X 0
12 *609:95 0.00109463
13 *609:86 0.000369761
14 *609:82 0.000344691
15 *609:54 0.000951233
16 *609:43 0.000620557
17 *609:12 0.00144129
18 *609:6 0.00139626
19 *609:4 0.000838856
20 *4025:CLK *3591:B 0
21 *4025:CLK *3636:A1 0
22 *4025:CLK *4026:CLK 7.33112e-05
23 *4025:CLK *4159:A 0.000125717
24 *4025:CLK *661:30 0
25 *4025:CLK *887:14 0.000167246
26 *4025:CLK *887:52 2.11372e-05
27 *4025:CLK *1110:14 3.92854e-05
28 *4027:CLK *3591:B 2.62349e-05
29 *4027:CLK *1109:14 3.4148e-05
30 *4032:CLK *3599:A1 0
31 *4032:CLK *3605:A1 0.000331703
32 *4032:CLK *1099:8 9.90367e-05
33 *4032:CLK *1099:14 0
34 *4034:CLK *3501:B 9.4724e-05
35 *4034:CLK *3501:C 1.69115e-05
36 *4034:CLK *3612:B1 0.000146474
37 *4034:CLK *3615:B1 0.000153054
38 *4034:CLK *4299:A 1.00375e-05
39 *4034:CLK *903:25 0
40 *4034:CLK *1100:10 0.000180022
41 *609:12 *1100:10 5.9025e-05
42 *609:12 *1100:34 1.48591e-05
43 *609:43 *3587:C1 0.000356716
44 *609:43 *3594:B1 0
45 *609:43 *4312:A 0.000119618
46 *609:43 *903:80 0.000146554
47 *609:43 *903:110 9.56345e-05
48 *609:43 *903:125 6.5185e-05
49 *609:43 *1110:33 9.32062e-05
50 *609:54 *3591:B 1.4133e-06
51 *609:86 *3597:A1 0
52 *609:95 *3597:A1 0
53 *609:95 *3599:A1 0
54 *609:95 *3600:A 2.04825e-05
55 *609:95 *3601:A 0
56 *609:95 *3602:B 5.74562e-05
57 *609:95 *3602:D 0
58 *3503:B *609:95 7.6644e-05
59 *3596:B *609:43 7.8327e-05
60 *3601:B *4032:CLK 7.33494e-06
61 *3601:B *609:95 5.80706e-06
62 *3608:B *4034:CLK 0.000179656
63 *4026:RESET_B *4025:CLK 0
64 *4027:D *4027:CLK 0.000172932
65 *4027:D *609:54 0.000207552
66 *4028:D *609:43 0.00010326
67 *4028:D *609:54 4.4679e-05
68 *4028:RESET_B *4025:CLK 0
69 *4028:RESET_B *4027:CLK 0
70 *4031:D *4031:CLK 5.71472e-05
71 *4032:RESET_B *4032:CLK 0
72 *4033:D *609:12 9.76491e-05
73 *4033:RESET_B *609:12 1.66373e-05
74 *4034:D *4034:CLK 3.79467e-05
75 *511:50 *4027:CLK 0.000183211
76 *511:82 *609:86 0.000197984
77 *511:82 *609:95 7.05447e-05
78 *518:12 *4027:CLK 0
79 *518:27 *609:43 0.000198323
80 *531:14 *4034:CLK 0
*RES
1 *4081:X *609:4 9.3 
2 *609:4 *609:6 4.23214 
3 *609:6 *609:12 13.5 
4 *609:12 *4034:CLK 27.8893 
5 *609:12 *4033:CLK 9.3 
6 *609:6 *4112:A 9.72857 
7 *609:4 *609:43 20.9643 
8 *609:43 *4028:CLK 9.3 
9 *609:43 *609:54 9.33036 
10 *609:54 *4027:CLK 19.1125 
11 *609:54 *4025:CLK 24.2375 
12 *609:4 *609:82 2.58929 
13 *609:82 *609:86 7.05357 
14 *609:86 *4029:CLK 13.8 
15 *609:86 *609:95 4.98214 
16 *609:95 *4032:CLK 27.8357 
17 *609:95 *4031:CLK 14.8714 
18 *609:82 *4030:CLK 10.2464 
*END

*D_NET *610 0.0124876
*CONN
*I *3865:CLK I *D sky130_fd_sc_hd__dfrtp_2
*I *3864:CLK I *D sky130_fd_sc_hd__dfrtp_2
*I *3855:CLK I *D sky130_fd_sc_hd__dfstp_2
*I *4026:CLK I *D sky130_fd_sc_hd__dfrtp_2
*I *3854:CLK I *D sky130_fd_sc_hd__dfstp_2
*I *4024:CLK I *D sky130_fd_sc_hd__dfrtp_2
*I *4023:CLK I *D sky130_fd_sc_hd__dfrtp_2
*I *4000:CLK I *D sky130_fd_sc_hd__dfrtp_2
*I *4001:CLK I *D sky130_fd_sc_hd__dfrtp_2
*I *4103:A I *D sky130_fd_sc_hd__clkinv_2
*I *4082:X O *D sky130_fd_sc_hd__clkbuf_8
*CAP
1 *3865:CLK 0
2 *3864:CLK 0
3 *3855:CLK 0.000579077
4 *4026:CLK 0.000382298
5 *3854:CLK 0
6 *4024:CLK 0.000252793
7 *4023:CLK 0.000163122
8 *4000:CLK 0.000115031
9 *4001:CLK 0.000171716
10 *4103:A 0.000162513
11 *4082:X 0.000155897
12 *610:98 0.000686512
13 *610:94 0.000239192
14 *610:81 0.000669952
15 *610:47 0.00085352
16 *610:25 0.000523263
17 *610:23 0.00121798
18 *610:19 0.00104174
19 *610:4 0.000660393
20 *3855:CLK *3516:A 1.02504e-05
21 *3855:CLK *3637:A0 0
22 *4023:CLK *4158:A 0.000183035
23 *4024:CLK *662:33 1.57885e-05
24 *4024:CLK *1104:10 0
25 *4026:CLK *3351:A 9.27278e-05
26 *4026:CLK *3499:A_N 0
27 *4026:CLK *3516:B 0
28 *4026:CLK *3591:B 5.83304e-05
29 *4026:CLK *4145:A 0.000176234
30 *4026:CLK *886:16 0
31 *4026:CLK *887:14 0.000507757
32 *4026:CLK *887:52 3.45763e-05
33 *4026:CLK *1068:19 0
34 *4103:A *4145:A 8.86512e-05
35 *4103:A *660:64 0.000274288
36 *610:19 *660:31 0
37 *610:19 *660:64 0
38 *610:23 *1087:10 0.000280807
39 *610:25 *4132:A 0.000202835
40 *610:47 *4132:A 0.000250915
41 *610:47 *660:68 0
42 *610:47 *886:33 0
43 *610:47 *1104:10 0
44 *610:81 *4145:A 0.000309266
45 *610:81 *685:10 1.92789e-05
46 *610:94 *918:6 1.58163e-05
47 *610:98 *3516:A 0.000113038
48 *610:98 *3516:B 1.08359e-05
49 *610:98 *886:16 0.000148903
50 *610:98 *1068:19 0
51 *3497:C1 *610:19 0.000360823
52 *3533:A *4001:CLK 3.18676e-05
53 *3533:B *4001:CLK 8.07313e-05
54 *3533:C *4001:CLK 3.14193e-05
55 *3535:A2 *4001:CLK 0
56 *3579:A1 *4023:CLK 0.000151061
57 *3579:A1 *4024:CLK 0
58 *3865:D *3855:CLK 0
59 *3865:D *610:98 0
60 *4000:D *4001:CLK 0.00010326
61 *4018:RESET_B *610:25 0
62 *4022:RESET_B *610:47 0.000391568
63 *4023:D *4024:CLK 0
64 *4023:D *610:47 0
65 *4023:RESET_B *610:47 6.07232e-05
66 *4025:CLK *4026:CLK 7.33112e-05
67 *4025:D *4026:CLK 0.000313458
68 *4025:RESET_B *610:19 6.74911e-05
69 *4082:A *4103:A 0.00010096
70 *4188:A *3855:CLK 5.25998e-05
71 *481:8 *4001:CLK 0
72 *481:8 *610:25 0
*RES
1 *4082:X *610:4 9.3 
2 *610:4 *4103:A 13.5321 
3 *610:4 *610:19 18.7321 
4 *610:19 *610:23 15.3036 
5 *610:23 *610:25 4.98214 
6 *610:25 *4001:CLK 18.0143 
7 *610:25 *4000:CLK 15.5679 
8 *610:23 *610:47 9.83929 
9 *610:47 *4023:CLK 18.4429 
10 *610:47 *4024:CLK 17.5321 
11 *610:19 *3854:CLK 9.3 
12 *4082:X *610:81 12.7107 
13 *610:81 *4026:CLK 30.2643 
14 *610:81 *610:94 2.17857 
15 *610:94 *610:98 7.05357 
16 *610:98 *3855:CLK 22.6393 
17 *610:98 *3864:CLK 13.8 
18 *610:94 *3865:CLK 9.3 
*END

*D_NET *611 0.0131612
*CONN
*I *4022:CLK I *D sky130_fd_sc_hd__dfrtp_2
*I *3928:CLK I *D sky130_fd_sc_hd__dfstp_2
*I *4104:A I *D sky130_fd_sc_hd__clkbuf_4
*I *4018:CLK I *D sky130_fd_sc_hd__dfrtp_2
*I *3937:CLK I *D sky130_fd_sc_hd__dfrtp_2
*I *3975:CLK I *D sky130_fd_sc_hd__dfrtp_2
*I *3932:CLK I *D sky130_fd_sc_hd__dfrtp_2
*I *3935:CLK I *D sky130_fd_sc_hd__dfrtp_2
*I *3933:CLK I *D sky130_fd_sc_hd__dfrtp_2
*I *3980:CLK I *D sky130_fd_sc_hd__dfrtp_2
*I *4015:CLK I *D sky130_fd_sc_hd__dfrtp_2
*I *4020:CLK I *D sky130_fd_sc_hd__dfrtp_2
*I *4083:X O *D sky130_fd_sc_hd__clkbuf_8
*CAP
1 *4022:CLK 0.000215549
2 *3928:CLK 0.000192819
3 *4104:A 1.16062e-05
4 *4018:CLK 0.000362496
5 *3937:CLK 0.000429437
6 *3975:CLK 0.000314317
7 *3932:CLK 0.000139178
8 *3935:CLK 0
9 *3933:CLK 0.000122004
10 *3980:CLK 1.80162e-05
11 *4015:CLK 0.000512428
12 *4020:CLK 9.07076e-05
13 *4083:X 0
14 *611:132 0.000751512
15 *611:113 0.000497267
16 *611:102 0.000646768
17 *611:87 0.000571193
18 *611:58 0.000229756
19 *611:52 0.000459045
20 *611:14 0.000715059
21 *611:12 0.000265137
22 *611:10 0.000457345
23 *611:8 0.000541804
24 *611:4 0.00028751
25 *3928:CLK *885:28 0.000125674
26 *3928:CLK *899:28 0.000129868
27 *3937:CLK *3826:A2 1.24368e-05
28 *3937:CLK *3937:D 5.94862e-05
29 *3937:CLK *4215:A 4.884e-05
30 *3937:CLK *883:122 3.83189e-05
31 *3975:CLK *3779:A1 6.42705e-05
32 *3975:CLK *3779:A2 6.05161e-06
33 *3975:CLK *3783:B1 8.98801e-05
34 *3980:CLK *3520:A 1.92789e-05
35 *3980:CLK *883:36 2.89016e-05
36 *4015:CLK *898:6 6.71854e-05
37 *4015:CLK *898:8 0.000139087
38 *4015:CLK *898:16 0.00095854
39 *4020:CLK *3522:A 6.97972e-05
40 *4020:CLK *883:38 0
41 *4022:CLK *4198:A 2.44318e-05
42 *4104:A *3975:RESET_B 5.52302e-05
43 *4104:A *1089:22 5.52302e-05
44 *611:8 *3935:D 5.03772e-05
45 *611:8 *4212:A 9.90367e-05
46 *611:8 *708:10 1.21258e-05
47 *611:10 *3783:B1 0.000114688
48 *611:10 *883:58 0
49 *611:12 *3520:A 0.000318316
50 *611:12 *883:58 0
51 *611:14 *883:38 0
52 *611:14 *883:58 0
53 *611:52 *3783:B1 2.23987e-05
54 *611:52 *3935:D 0.00010326
55 *611:132 *3776:A2 5.27386e-05
56 *611:132 *4198:A 0.000169383
57 *611:132 *692:6 9.41642e-05
58 *611:132 *997:10 6.22145e-05
59 *3426:C1 *611:132 3.34295e-05
60 *3431:A *611:102 0
61 *3431:A *611:113 0
62 *3431:A *611:132 0
63 *3432:B1 *611:10 0.000127446
64 *3928:SET_B *611:132 0.000133062
65 *3932:D *3937:CLK 0
66 *3932:D *611:102 0
67 *3932:RESET_B *4018:CLK 4.73514e-05
68 *3933:D *3933:CLK 0.000113005
69 *3937:RESET_B *3937:CLK 0.000142805
70 *3975:D *3975:CLK 0.000188094
71 *3975:D *4020:CLK 0.000106542
72 *3975:D *611:10 0.000151593
73 *3975:D *611:12 0.000207278
74 *3975:D *611:14 8.68665e-05
75 *3975:D *611:52 7.60306e-05
76 *4015:D *4015:CLK 7.3237e-05
77 *4022:D *3928:CLK 0
78 *4022:D *4022:CLK 0.000186669
79 *4083:A *611:102 0
80 *4083:A *611:113 0
81 *4083:A *611:132 0
82 *4199:A *3928:CLK 0
83 *4199:A *4022:CLK 0.000175502
84 *4199:A *611:132 0.000113083
85 *4216:A *3937:CLK 8.9163e-05
86 *4216:A *611:102 4.46186e-06
87 *423:38 *611:8 0.000183412
*RES
1 *4083:X *611:4 9.3 
2 *611:4 *611:8 10.375 
3 *611:8 *611:10 5.28571 
4 *611:10 *611:12 4.98214 
5 *611:12 *611:14 2.25 
6 *611:14 *4020:CLK 16.3536 
7 *611:14 *4015:CLK 27.4786 
8 *611:12 *3980:CLK 14.3357 
9 *611:10 *3933:CLK 15.9786 
10 *611:8 *611:52 1.94643 
11 *611:52 *611:58 5.875 
12 *611:58 *3935:CLK 9.3 
13 *611:58 *3932:CLK 11.4786 
14 *611:52 *3975:CLK 19.9071 
15 *611:4 *611:87 4.5 
16 *611:87 *3937:CLK 22.7643 
17 *611:87 *611:102 2.55357 
18 *611:102 *4018:CLK 19.675 
19 *611:102 *611:113 2.55357 
20 *611:113 *4104:A 14.3357 
21 *611:113 *611:132 13.1429 
22 *611:132 *3928:CLK 22.9786 
23 *611:132 *4022:CLK 14.7643 
*END

*D_NET *612 0.0114687
*CONN
*I *4005:CLK I *D sky130_fd_sc_hd__dfrtp_2
*I *4003:CLK I *D sky130_fd_sc_hd__dfrtp_2
*I *4004:CLK I *D sky130_fd_sc_hd__dfrtp_2
*I *4006:CLK I *D sky130_fd_sc_hd__dfrtp_2
*I *4007:CLK I *D sky130_fd_sc_hd__dfrtp_2
*I *4002:CLK I *D sky130_fd_sc_hd__dfrtp_2
*I *3999:CLK I *D sky130_fd_sc_hd__dfrtp_2
*I *4011:CLK I *D sky130_fd_sc_hd__dfrtp_2
*I *4012:CLK I *D sky130_fd_sc_hd__dfrtp_2
*I *3951:CLK I *D sky130_fd_sc_hd__dfrtp_2
*I *4084:X O *D sky130_fd_sc_hd__clkbuf_8
*CAP
1 *4005:CLK 0
2 *4003:CLK 0.000161297
3 *4004:CLK 4.49328e-05
4 *4006:CLK 0
5 *4007:CLK 0.000481349
6 *4002:CLK 0.000109528
7 *3999:CLK 0.000217301
8 *4011:CLK 0
9 *4012:CLK 0.000168204
10 *3951:CLK 0.000377301
11 *4084:X 0.00108709
12 *612:98 0.000474461
13 *612:94 0.000377951
14 *612:72 0.000533947
15 *612:68 0.000772053
16 *612:43 0.000416789
17 *612:21 0.000589105
18 *612:8 0.000899479
19 *612:6 0.000668593
20 *3951:CLK *3823:A2 5.52302e-05
21 *3951:CLK *3823:B1 0.000105163
22 *3999:CLK *902:66 0.000173921
23 *4002:CLK *4289:A 0
24 *4002:CLK *1071:21 0
25 *4003:CLK *3346:A 3.57844e-05
26 *4003:CLK *1081:10 0.00013966
27 *4003:CLK *1081:12 0.000144696
28 *4003:CLK *1081:53 4.97876e-05
29 *4004:CLK *902:48 5.33005e-05
30 *4007:CLK *3551:A 2.27416e-05
31 *4007:CLK *3626:A2 0
32 *4007:CLK *896:133 0
33 *4012:CLK *4126:A 0
34 *4012:CLK *654:72 2.8266e-06
35 *612:6 *3529:A1 7.61932e-05
36 *612:6 *4289:A 9.60939e-05
37 *612:21 *4126:A 0
38 *612:43 *4289:A 0
39 *612:94 *3347:A 4.59429e-05
40 *612:98 *3547:A 2.04825e-05
41 *612:98 *3547:C 2.04825e-05
42 *612:98 *1081:12 0.000181733
43 *612:98 *1083:36 0.00011915
44 *612:98 *1083:38 4.52703e-05
45 *3493:B *4007:CLK 5.33334e-05
46 *3529:A2 *4002:CLK 0.000139653
47 *3529:A2 *612:21 1.19309e-05
48 *3529:A2 *612:43 0.000176234
49 *3529:B1 *612:21 0
50 *3539:B *4003:CLK 0
51 *3543:A2 *4003:CLK 9.00763e-05
52 *3543:A2 *612:98 5.7128e-05
53 *3549:A1 *612:68 7.02611e-05
54 *3549:A1 *612:94 1.98839e-05
55 *3549:A2 *4007:CLK 0.000177234
56 *3549:A2 *612:72 0.000190155
57 *3549:B1 *4007:CLK 0
58 *3551:B *4007:CLK 0.000228845
59 *3551:C *4007:CLK 1.78447e-05
60 *3999:D *3951:CLK 6.81335e-05
61 *3999:D *612:8 5.04705e-05
62 *3999:D *612:21 0
63 *3999:RESET_B *3999:CLK 4.96254e-05
64 *4004:D *4004:CLK 1.89001e-05
65 *4015:D *4002:CLK 3.34366e-05
66 *4015:RESET_B *3951:CLK 0.00010096
67 *483:39 *4007:CLK 0.000378903
68 *483:39 *612:72 0.000200406
69 *483:39 *612:98 6.66846e-05
70 *483:41 *4007:CLK 0.000141368
71 *490:8 *612:98 0.00035938
72 *498:12 *4007:CLK 0
*RES
1 *4084:X *612:6 16.8179 
2 *612:6 *612:8 1.76786 
3 *612:8 *3951:CLK 16.425 
4 *612:8 *612:21 12.2143 
5 *612:21 *4012:CLK 16.8893 
6 *612:21 *4011:CLK 13.8 
7 *612:6 *612:43 6.75 
8 *612:43 *3999:CLK 18.4429 
9 *612:43 *4002:CLK 16.05 
10 *4084:X *612:68 18.8714 
11 *612:68 *612:72 7.05357 
12 *612:72 *4007:CLK 25.925 
13 *612:72 *4006:CLK 13.8 
14 *612:68 *612:94 2.19643 
15 *612:94 *612:98 12.2143 
16 *612:98 *4004:CLK 14.7643 
17 *612:98 *4003:CLK 18.175 
18 *612:94 *4005:CLK 9.3 
*END

*D_NET *613 0.0129106
*CONN
*I *4046:CLK I *D sky130_fd_sc_hd__dfrtp_2
*I *4009:CLK I *D sky130_fd_sc_hd__dfrtp_2
*I *4014:CLK I *D sky130_fd_sc_hd__dfrtp_2
*I *4010:CLK I *D sky130_fd_sc_hd__dfrtp_2
*I *4008:CLK I *D sky130_fd_sc_hd__dfrtp_2
*I *3876:CLK I *D sky130_fd_sc_hd__dfrtp_2
*I *4048:CLK I *D sky130_fd_sc_hd__dfrtp_2
*I *4047:CLK I *D sky130_fd_sc_hd__dfrtp_2
*I *3968:CLK I *D sky130_fd_sc_hd__dfrtp_2
*I *3964:CLK I *D sky130_fd_sc_hd__dfrtp_2
*I *3863:CLK I *D sky130_fd_sc_hd__dfrtp_2
*I *4085:X O *D sky130_fd_sc_hd__clkbuf_8
*CAP
1 *4046:CLK 0.000181825
2 *4009:CLK 6.56512e-05
3 *4014:CLK 0.00128086
4 *4010:CLK 0
5 *4008:CLK 4.01568e-05
6 *3876:CLK 0
7 *4048:CLK 0.000831712
8 *4047:CLK 0
9 *3968:CLK 0
10 *3964:CLK 0.000287901
11 *3863:CLK 0.000108869
12 *4085:X 0
13 *613:103 0.00168572
14 *613:97 0.000614514
15 *613:82 0.000429417
16 *613:78 0.000457415
17 *613:57 0.000831712
18 *613:35 0.000441124
19 *613:22 0.000601166
20 *613:16 0.000462972
21 *613:10 0.000583513
22 *613:4 0.000489944
23 *3863:CLK *3964:D 0
24 *3863:CLK *3968:RESET_B 2.19684e-05
25 *3863:CLK *1011:10 0.000195072
26 *3964:CLK *3634:A 2.8266e-06
27 *3964:CLK *3863:RESET_B 0
28 *3964:CLK *3881:RESET_B 2.11419e-05
29 *3964:CLK *3964:D 0
30 *4009:CLK *3553:A1 7.76485e-05
31 *4014:CLK *3820:A2 0
32 *4048:CLK *4047:D 0.000347161
33 *4048:CLK *4047:RESET_B 0.000138257
34 *4048:CLK *4048:D 2.59355e-05
35 *4048:CLK *4048:RESET_B 7.40572e-05
36 *4048:CLK *4065:A 0.000186401
37 *4048:CLK *656:47 4.50675e-05
38 *4048:CLK *1118:14 2.89114e-05
39 *613:10 *3648:A_N 0.000111444
40 *613:10 *3648:B 4.69302e-05
41 *613:10 *706:12 3.35685e-06
42 *613:10 *1011:10 2.83284e-06
43 *613:16 *706:12 9.41008e-05
44 *613:16 *1011:10 1.56156e-05
45 *613:22 *3634:B 1.94879e-05
46 *613:22 *3863:D 4.1249e-05
47 *613:22 *4389:A 7.8401e-05
48 *613:22 *706:12 0.000185805
49 *613:22 *1011:10 0
50 *613:22 *1012:14 3.11683e-05
51 *613:35 *3968:D 7.77652e-05
52 *613:35 *3968:RESET_B 4.96155e-05
53 *613:35 *4389:A 5.46483e-05
54 *613:82 *1086:21 0
55 *613:97 *3553:B1 5.58941e-05
56 *613:97 *1086:21 0
57 *613:97 *1086:36 0
58 *613:103 *3553:A1 0.000221634
59 *613:103 *3820:A2 0
60 *613:103 *3822:A1 0.00014285
61 *3553:A2 *613:103 4.88637e-05
62 *3554:A2 *613:82 1.5864e-05
63 *3554:B1 *4008:CLK 2.21972e-05
64 *3554:B1 *613:82 5.58419e-05
65 *3554:B1 *613:97 6.84568e-05
66 *3561:B1 *4014:CLK 0
67 *3635:C *613:35 7.77652e-05
68 *3876:D *613:10 8.3857e-05
69 *4008:D *613:82 5.01234e-05
70 *4008:RESET_B *613:82 7.58841e-05
71 *4010:D *4014:CLK 0
72 *4010:D *613:103 0
73 *4010:RESET_B *613:97 5.90443e-06
74 *4014:D *4014:CLK 5.41609e-05
75 *4014:RESET_B *4014:CLK 0.000133233
76 *4085:A *613:10 0.000115295
77 *4346:A *3964:CLK 0.000311453
78 *409:22 *613:22 0
79 *493:18 *4014:CLK 0
80 *493:18 *613:103 0
*RES
1 *4085:X *613:4 9.3 
2 *613:4 *613:10 13.75 
3 *613:10 *613:16 3.21429 
4 *613:16 *613:22 11.6607 
5 *613:22 *3863:CLK 20.8536 
6 *613:22 *613:35 3.82143 
7 *613:35 *3964:CLK 23.9429 
8 *613:35 *3968:CLK 9.3 
9 *613:16 *613:57 4.5 
10 *613:57 *4047:CLK 9.3 
11 *613:57 *4048:CLK 26.2643 
12 *613:10 *3876:CLK 13.8 
13 *613:4 *613:78 0.535714 
14 *613:78 *613:82 9.63393 
15 *613:82 *4008:CLK 14.6125 
16 *613:82 *613:97 7.20536 
17 *613:97 *613:103 11.8036 
18 *613:103 *4010:CLK 13.8 
19 *613:103 *4014:CLK 30.1393 
20 *613:97 *4009:CLK 10.675 
21 *613:78 *4046:CLK 12.3 
*END

*D_NET *614 0.0121047
*CONN
*I *3967:CLK I *D sky130_fd_sc_hd__dfrtp_2
*I *3969:CLK I *D sky130_fd_sc_hd__dfrtp_2
*I *3973:CLK I *D sky130_fd_sc_hd__dfrtp_2
*I *4013:CLK I *D sky130_fd_sc_hd__dfrtp_2
*I *3879:CLK I *D sky130_fd_sc_hd__dfrtp_2
*I *3880:CLK I *D sky130_fd_sc_hd__dfrtp_2
*I *3882:CLK I *D sky130_fd_sc_hd__dfrtp_2
*I *3877:CLK I *D sky130_fd_sc_hd__dfrtp_2
*I *3878:CLK I *D sky130_fd_sc_hd__dfrtp_2
*I *3881:CLK I *D sky130_fd_sc_hd__dfrtp_2
*I *4086:X O *D sky130_fd_sc_hd__clkbuf_8
*CAP
1 *3967:CLK 0.000522371
2 *3969:CLK 0.00014873
3 *3973:CLK 4.67811e-05
4 *4013:CLK 0.000412586
5 *3879:CLK 0.000125806
6 *3880:CLK 4.60654e-05
7 *3882:CLK 0
8 *3877:CLK 0
9 *3878:CLK 0.000235347
10 *3881:CLK 0.000189657
11 *4086:X 0.00044351
12 *614:101 0.00101429
13 *614:74 0.000666087
14 *614:63 0.000429712
15 *614:29 0.000755317
16 *614:27 0.00051997
17 *614:12 0.000402817
18 *614:10 0.000389778
19 *614:8 0.000328059
20 *3878:CLK *4399:A 0
21 *3878:CLK *650:10 0.000151726
22 *3878:CLK *872:16 0.000274288
23 *3880:CLK *3393:B1_N 5.33334e-05
24 *3881:CLK *3394:A1 1.33343e-05
25 *3881:CLK *3394:A2 9.49984e-05
26 *3881:CLK *3394:B1 6.13479e-05
27 *3881:CLK *1018:23 6.98302e-05
28 *3881:CLK *1025:12 7.90284e-05
29 *3967:CLK *3395:A 0.000109881
30 *3967:CLK *3650:A1 2.68557e-05
31 *3967:CLK *3973:RESET_B 7.74135e-05
32 *3967:CLK *4128:A 0.000146991
33 *3969:CLK *3395:A 0.000128108
34 *3969:CLK *921:12 0.000144749
35 *3973:CLK *3655:A_N 0.000175519
36 *3973:CLK *994:18 0.000166976
37 *4013:CLK *4189:A 5.33005e-05
38 *614:8 *3656:A1 0.000356682
39 *614:8 *4266:A 7.88091e-05
40 *614:10 *3393:B1_N 4.45753e-05
41 *614:10 *4384:A 0
42 *614:12 *4067:A 8.96657e-05
43 *614:12 *4258:A 0
44 *614:12 *4384:A 0
45 *614:12 *1018:23 0.000193234
46 *614:12 *1025:12 6.07232e-05
47 *614:29 *3877:RESET_B 0.000118373
48 *614:63 *4384:A 0
49 *614:63 *994:18 2.47319e-05
50 *614:74 *3655:A_N 0.000362856
51 *614:74 *994:18 0.000566171
52 *614:101 *3649:A_N 5.49995e-05
53 *614:101 *3656:A1 0.00015579
54 *614:101 *4266:A 0.000303705
55 *3394:A3 *3881:CLK 3.65178e-05
56 *3650:A2 *614:101 9.35419e-05
57 *3877:D *3878:CLK 0
58 *3879:D *614:10 7.73848e-05
59 *3879:D *614:63 0.000115281
60 *3880:D *3879:CLK 1.58163e-05
61 *3880:D *3880:CLK 7.48091e-05
62 *3880:D *614:10 1.46893e-05
63 *3880:D *614:12 1.97381e-05
64 *3973:D *4013:CLK 7.32272e-05
65 *4086:A *614:101 5.50052e-05
66 *4341:A *3967:CLK 7.51425e-05
67 *4341:A *3969:CLK 0.00019809
68 *410:12 *3881:CLK 0.00030926
69 *543:25 *3967:CLK 3.13018e-05
*RES
1 *4086:X *614:8 17.2107 
2 *614:8 *614:10 2.85714 
3 *614:10 *614:12 4.98214 
4 *614:12 *3881:CLK 19.4786 
5 *614:12 *614:27 4.5 
6 *614:27 *614:29 8.75 
7 *614:29 *3878:CLK 23.55 
8 *614:29 *3877:CLK 9.3 
9 *614:27 *3882:CLK 9.3 
10 *614:10 *3880:CLK 15.1571 
11 *614:8 *614:63 2.25 
12 *614:63 *3879:CLK 15.5679 
13 *614:63 *614:74 7.41071 
14 *614:74 *4013:CLK 20.9071 
15 *614:74 *3973:CLK 16.05 
16 *4086:X *614:101 21.3179 
17 *614:101 *3969:CLK 18.7821 
18 *614:101 *3967:CLK 22.8357 
*END

*D_NET *615 0.0116787
*CONN
*I *3959:CLK I *D sky130_fd_sc_hd__dfrtp_2
*I *3894:CLK I *D sky130_fd_sc_hd__dfrtp_2
*I *3892:CLK I *D sky130_fd_sc_hd__dfrtp_2
*I *3946:CLK I *D sky130_fd_sc_hd__dfrtp_2
*I *3952:CLK I *D sky130_fd_sc_hd__dfrtp_2
*I *3963:CLK I *D sky130_fd_sc_hd__dfrtp_2
*I *3966:CLK I *D sky130_fd_sc_hd__dfrtp_2
*I *3970:CLK I *D sky130_fd_sc_hd__dfrtp_2
*I *3960:CLK I *D sky130_fd_sc_hd__dfrtp_2
*I *3971:CLK I *D sky130_fd_sc_hd__dfrtp_2
*I *3978:CLK I *D sky130_fd_sc_hd__dfrtp_2
*I *4087:X O *D sky130_fd_sc_hd__clkbuf_8
*CAP
1 *3959:CLK 0.000178738
2 *3894:CLK 6.87765e-05
3 *3892:CLK 0.000305512
4 *3946:CLK 0.000174454
5 *3952:CLK 0.000181397
6 *3963:CLK 0
7 *3966:CLK 2.26052e-05
8 *3970:CLK 0.000198743
9 *3960:CLK 0.000199787
10 *3971:CLK 0.00094062
11 *3978:CLK 3.73931e-05
12 *4087:X 2.50978e-05
13 *615:121 0.000553999
14 *615:97 0.00064881
15 *615:86 0.000461908
16 *615:84 0.000631534
17 *615:33 0.00123185
18 *615:22 0.00020309
19 *615:20 0.000431455
20 *615:14 0.000309072
21 *615:10 0.000227889
22 *615:8 0.000338363
23 *3892:CLK *3892:RESET_B 0.000308351
24 *3892:CLK *936:47 3.04808e-05
25 *3892:CLK *949:25 0.000334125
26 *3894:CLK *3946:RESET_B 6.58289e-05
27 *3894:CLK *838:12 6.58289e-05
28 *3946:CLK *3462:B1 9.58393e-05
29 *3960:CLK *3960:D 0.000105163
30 *3966:CLK *4167:A 1.84865e-05
31 *3970:CLK *3970:D 0.000101157
32 *3971:CLK *3960:D 4.15914e-05
33 *3971:CLK *3971:D 0.000142856
34 *3971:CLK *649:36 0.000180002
35 *3971:CLK *981:65 0.000170612
36 *3971:CLK *990:10 8.10573e-05
37 *615:8 *3685:B2 5.49995e-05
38 *615:10 *3978:D 0.000101555
39 *615:14 *3978:D 9.42254e-05
40 *615:14 *1016:10 0
41 *615:20 *4167:A 5.62846e-05
42 *615:20 *981:65 0.000174236
43 *615:20 *989:20 8.79438e-05
44 *615:22 *981:65 0.000222878
45 *615:22 *989:20 0.00011062
46 *615:33 *981:65 0.000175519
47 *615:33 *989:20 4.46186e-06
48 *615:84 *3978:D 0.000103848
49 *615:84 *990:18 0
50 *615:86 *3403:A 6.82998e-05
51 *615:97 *3443:A 2.26973e-05
52 *615:97 *3892:RESET_B 5.83233e-05
53 *615:97 *3947:RESET_B 0.000125731
54 *615:97 *949:25 0.000177708
55 *615:97 *949:38 1.91414e-05
56 *615:97 *989:20 0.000149769
57 *615:121 *3403:A 2.12647e-05
58 *615:121 *4330:A 0.000178503
59 *615:121 *1023:10 8.32875e-05
60 *3403:B *615:121 3.09985e-05
61 *3457:A1 *615:86 2.89016e-05
62 *3684:B2 *615:86 2.28598e-05
63 *3684:B2 *615:121 0.000311435
64 *3946:D *3946:CLK 8.07313e-05
*RES
1 *4087:X *615:8 14.3357 
2 *615:8 *615:10 2.55357 
3 *615:10 *615:14 7.05357 
4 *615:14 *615:20 8.51786 
5 *615:20 *615:22 2.85714 
6 *615:22 *3978:CLK 14.3357 
7 *615:22 *615:33 2.25 
8 *615:33 *3971:CLK 26.8714 
9 *615:33 *3960:CLK 17.6214 
10 *615:20 *3970:CLK 17.6214 
11 *615:14 *3966:CLK 9.83571 
12 *615:10 *3963:CLK 13.8 
13 *615:8 *615:84 7.89286 
14 *615:84 *615:86 2.17857 
15 *615:86 *3952:CLK 12.3 
16 *615:86 *615:97 9.48214 
17 *615:97 *3946:CLK 17.6214 
18 *615:97 *3892:CLK 20.7821 
19 *615:84 *615:121 7.92857 
20 *615:121 *3894:CLK 20.55 
21 *615:121 *3959:CLK 12.3 
*END

*D_NET *616 0.0073929
*CONN
*I *3976:CLK I *D sky130_fd_sc_hd__dfrtp_2
*I *3893:CLK I *D sky130_fd_sc_hd__dfrtp_2
*I *3961:CLK I *D sky130_fd_sc_hd__dfrtp_2
*I *3895:CLK I *D sky130_fd_sc_hd__dfrtp_2
*I *3945:CLK I *D sky130_fd_sc_hd__dfstp_2
*I *3950:CLK I *D sky130_fd_sc_hd__dfrtp_2
*I *3953:CLK I *D sky130_fd_sc_hd__dfrtp_2
*I *4019:CLK I *D sky130_fd_sc_hd__dfrtp_2
*I *3914:CLK I *D sky130_fd_sc_hd__dfrtp_2
*I *3948:CLK I *D sky130_fd_sc_hd__dfrtp_2
*I *4088:X O *D sky130_fd_sc_hd__clkbuf_8
*CAP
1 *3976:CLK 0
2 *3893:CLK 0.000116337
3 *3961:CLK 1.16062e-05
4 *3895:CLK 0.000161354
5 *3945:CLK 0.000145493
6 *3950:CLK 0
7 *3953:CLK 0
8 *4019:CLK 0.000452363
9 *3914:CLK 0
10 *3948:CLK 0
11 *4088:X 0
12 *616:78 0.000323288
13 *616:76 0.00033919
14 *616:72 0.000171452
15 *616:58 0.000197557
16 *616:29 0.000605951
17 *616:23 0.000443447
18 *616:21 0.000476758
19 *616:10 0.000312869
20 *616:4 0.000276959
21 *3895:CLK *3684:A1 0
22 *3895:CLK *838:12 7.54569e-05
23 *3945:CLK *3341:A 9.71197e-05
24 *3945:CLK *1000:8 7.77751e-05
25 *3961:CLK *3684:A1 5.52302e-05
26 *3961:CLK *3685:A1 5.52302e-05
27 *4019:CLK *3342:A 0
28 *4019:CLK *3451:B1 0
29 *4019:CLK *902:66 0.000166416
30 *616:10 *3341:A 0.000122101
31 *616:10 *1003:12 9.87983e-06
32 *616:10 *1003:18 3.79773e-05
33 *616:10 *1003:42 2.6949e-05
34 *616:21 *1003:42 7.79781e-06
35 *616:21 *1003:53 5.4061e-05
36 *616:23 *3953:D 3.18676e-05
37 *616:23 *3953:RESET_B 0.000118441
38 *616:23 *4251:A 0.000235164
39 *616:29 *3342:A 0
40 *616:29 *3953:D 7.59512e-05
41 *616:29 *3953:RESET_B 0.000105163
42 *616:72 *3341:A 7.43578e-06
43 *616:76 *3518:A1 0.000196276
44 *616:76 *838:12 6.85604e-05
45 *616:78 *3518:A1 0.000250193
46 *616:78 *3518:A2 0
47 *616:78 *838:12 8.58088e-05
48 *3454:A1 *3945:CLK 1.38323e-05
49 *3454:A1 *616:23 0.000116507
50 *3454:A1 *616:58 9.31893e-05
51 *3518:B1 *616:10 0.000125057
52 *3518:B1 *616:72 0.000114655
53 *3950:D *3945:CLK 0.000122101
54 *3950:D *616:58 7.29851e-05
55 *4019:D *4019:CLK 7.77652e-05
56 *4019:RESET_B *4019:CLK 0
57 *111:10 *616:10 0
58 *111:10 *616:21 0
59 *365:16 *4019:CLK 5.91452e-05
60 *603:13 *4019:CLK 0.000261199
61 *603:13 *616:29 7.49332e-05
62 *605:12 *616:78 0.000153054
63 *605:46 *3893:CLK 0.000112995
*RES
1 *4088:X *616:4 9.3 
2 *616:4 *616:10 9.23214 
3 *616:10 *3948:CLK 13.8 
4 *616:10 *616:21 7.05357 
5 *616:21 *616:23 7.10714 
6 *616:23 *616:29 8.82143 
7 *616:29 *3914:CLK 13.8 
8 *616:29 *4019:CLK 24.8714 
9 *616:23 *3953:CLK 9.3 
10 *616:21 *616:58 1.76786 
11 *616:58 *3950:CLK 9.3 
12 *616:58 *3945:CLK 13.1214 
13 *616:4 *616:72 2.17857 
14 *616:72 *616:76 7.05357 
15 *616:76 *616:78 4.98214 
16 *616:78 *3895:CLK 17.0143 
17 *616:78 *3961:CLK 14.3357 
18 *616:76 *3893:CLK 15.9786 
19 *616:72 *3976:CLK 9.3 
*END

*D_NET *617 0.0127901
*CONN
*I *3896:CLK I *D sky130_fd_sc_hd__dfrtp_2
*I *4017:CLK I *D sky130_fd_sc_hd__dfrtp_2
*I *3956:CLK I *D sky130_fd_sc_hd__dfrtp_2
*I *3974:CLK I *D sky130_fd_sc_hd__dfrtp_2
*I *3955:CLK I *D sky130_fd_sc_hd__dfstp_2
*I *4107:A I *D sky130_fd_sc_hd__clkbuf_8
*I *3954:CLK I *D sky130_fd_sc_hd__dfrtp_2
*I *3983:CLK I *D sky130_fd_sc_hd__dfrtp_2
*I *4060:CLK I *D sky130_fd_sc_hd__dfrtp_2
*I *4061:CLK I *D sky130_fd_sc_hd__dfrtp_2
*I *4089:X O *D sky130_fd_sc_hd__clkbuf_8
*CAP
1 *3896:CLK 0.000196794
2 *4017:CLK 7.65823e-05
3 *3956:CLK 0.000126951
4 *3974:CLK 0
5 *3955:CLK 6.40263e-05
6 *4107:A 0
7 *3954:CLK 5.47135e-05
8 *3983:CLK 0.000225034
9 *4060:CLK 0
10 *4061:CLK 0.000527034
11 *4089:X 0.000121394
12 *617:124 0.00113125
13 *617:107 0.00119163
14 *617:40 0.000718779
15 *617:36 0.00061129
16 *617:32 0.00039483
17 *617:26 0.00020279
18 *617:24 0.000278913
19 *617:18 0.000690695
20 *617:6 0.0008612
21 *3896:CLK *3896:RESET_B 9.23015e-05
22 *3896:CLK *651:75 0
23 *3954:CLK *3979:RESET_B 0.000113456
24 *3955:CLK *3450:A1 0.00012401
25 *3955:CLK *936:33 0.000175519
26 *3956:CLK *3679:B1 0.000201127
27 *3956:CLK *3956:D 5.52302e-05
28 *3983:CLK *4249:A 3.67142e-05
29 *3983:CLK *905:20 7.48091e-05
30 *3983:CLK *961:22 9.7659e-05
31 *4017:CLK *3468:B2 0
32 *4061:CLK *4060:RESET_B 0
33 *4061:CLK *965:8 0.00010353
34 *4061:CLK *968:8 1.40306e-05
35 *617:18 *905:16 6.5185e-05
36 *617:26 *3444:A 6.87574e-05
37 *617:32 *3444:A 0.000167988
38 *617:32 *3444:B 0.000271345
39 *617:32 *3979:RESET_B 9.08751e-05
40 *617:32 *755:12 2.59093e-05
41 *617:36 *3757:A0 0.000218734
42 *617:36 *3979:RESET_B 4.1331e-06
43 *617:36 *755:12 5.74562e-05
44 *617:36 *907:40 0
45 *617:40 *961:22 0.00024425
46 *617:107 *3468:B1 4.87854e-05
47 *617:107 *4301:A 9.41642e-05
48 *617:124 *3679:B1 0.000470969
49 *617:124 *3896:RESET_B 0.000174361
50 *617:124 *978:10 0.000290592
51 *617:124 *978:18 0.00017309
52 *617:124 *993:14 0.000446751
53 *3450:A2 *3955:CLK 2.8266e-06
54 *3450:B1 *3955:CLK 0
55 *3954:D *617:32 0.000200413
56 *3974:D *617:18 0.000389464
57 *4019:D *617:124 0.000299981
58 *4060:D *4061:CLK 1.41706e-05
59 *4060:D *617:36 0
60 *4302:A *3956:CLK 0
61 *4302:A *617:124 0
62 *109:14 *617:18 1.58163e-05
63 *109:14 *617:24 0.000143004
64 *109:14 *617:26 9.46929e-05
65 *109:14 *617:32 2.14658e-05
66 *353:10 *4061:CLK 6.5185e-05
67 *603:13 *4017:CLK 6.74911e-05
*RES
1 *4089:X *617:6 11.0679 
2 *617:6 *617:18 17.375 
3 *617:18 *617:24 3.55357 
4 *617:24 *617:26 1.76786 
5 *617:26 *617:32 10.6607 
6 *617:32 *617:36 8.875 
7 *617:36 *617:40 4.66071 
8 *617:40 *4061:CLK 26.3893 
9 *617:40 *4060:CLK 9.3 
10 *617:36 *3983:CLK 13.9429 
11 *617:32 *3954:CLK 15.175 
12 *617:26 *4107:A 9.3 
13 *617:24 *3955:CLK 20.55 
14 *617:18 *3974:CLK 9.3 
15 *617:6 *617:107 7.91071 
16 *617:107 *3956:CLK 16.8893 
17 *617:107 *617:124 23.25 
18 *617:124 *4017:CLK 19.9429 
19 *617:124 *3896:CLK 12.2107 
*END

*D_NET *618 0.0133182
*CONN
*I *3972:CLK I *D sky130_fd_sc_hd__dfrtp_2
*I *3947:CLK I *D sky130_fd_sc_hd__dfrtp_2
*I *3965:CLK I *D sky130_fd_sc_hd__dfrtp_2
*I *3867:CLK I *D sky130_fd_sc_hd__dfrtp_2
*I *3962:CLK I *D sky130_fd_sc_hd__dfrtp_2
*I *3949:CLK I *D sky130_fd_sc_hd__dfrtp_2
*I *3897:CLK I *D sky130_fd_sc_hd__dfrtp_2
*I *3904:CLK I *D sky130_fd_sc_hd__dfrtp_2
*I *3866:CLK I *D sky130_fd_sc_hd__dfrtp_2
*I *3977:CLK I *D sky130_fd_sc_hd__dfrtp_2
*I *3862:CLK I *D sky130_fd_sc_hd__dfrtp_2
*I *4090:X O *D sky130_fd_sc_hd__clkbuf_8
*CAP
1 *3972:CLK 0.000259582
2 *3947:CLK 0.000167932
3 *3965:CLK 3.85858e-05
4 *3867:CLK 0
5 *3962:CLK 7.61397e-05
6 *3949:CLK 0.000465472
7 *3897:CLK 0
8 *3904:CLK 9.24037e-05
9 *3866:CLK 2.65188e-05
10 *3977:CLK 0.000106012
11 *3862:CLK 0.000437637
12 *4090:X 0.000389901
13 *618:134 0.000697284
14 *618:109 0.000309306
15 *618:105 0.000812181
16 *618:95 0.000830886
17 *618:68 0.000563605
18 *618:57 0.00065465
19 *618:20 0.000748877
20 *618:18 0.000355882
21 *618:12 0.000957463
22 *3862:CLK *3474:A 3.51442e-05
23 *3862:CLK *3861:RESET_B 0.00016135
24 *3862:CLK *846:23 0.00020042
25 *3862:CLK *988:6 3.14163e-05
26 *3862:CLK *988:12 3.32631e-05
27 *3866:CLK *924:27 5.23822e-05
28 *3904:CLK *3904:RESET_B 0.000227971
29 *3947:CLK *3448:B 4.13496e-05
30 *3947:CLK *3453:A1 5.52302e-05
31 *3949:CLK *3688:A1 0
32 *3962:CLK *3962:D 4.57352e-05
33 *3962:CLK *981:10 0
34 *3972:CLK *3459:A1 0.000148196
35 *3972:CLK *3524:A3 0.000292708
36 *3972:CLK *646:41 0
37 *3972:CLK *948:12 9.17495e-05
38 *3977:CLK *3475:B 2.50566e-05
39 *618:12 *3445:A 0.000132766
40 *618:12 *3687:B1 7.983e-06
41 *618:20 *3474:A 0.000142797
42 *618:20 *646:41 0
43 *618:57 *3445:B 0.000104905
44 *618:57 *3904:RESET_B 0.000473844
45 *618:57 *1004:26 2.8266e-06
46 *618:95 *3445:A 5.49995e-05
47 *618:105 *3638:A0 7.63907e-05
48 *618:105 *908:10 7.83587e-05
49 *618:105 *924:19 2.64731e-05
50 *618:105 *924:51 4.68532e-05
51 *618:109 *3639:A1 0
52 *618:109 *3639:S 0
53 *618:109 *3862:RESET_B 8.27403e-05
54 *618:109 *908:16 0
55 *618:109 *981:10 0
56 *618:109 *981:27 0
57 *618:134 *3445:A 0.000195263
58 *618:134 *3448:A 0
59 *618:134 *3452:B 0.000239603
60 *618:134 *924:51 2.97906e-05
61 *618:134 *1002:45 0.000114061
62 *3453:A2 *3972:CLK 5.84438e-05
63 *3453:A2 *618:134 3.47641e-06
64 *3457:A1 *3949:CLK 0
65 *3457:A1 *618:68 0
66 *3458:C *3947:CLK 0.000222666
67 *3524:A2 *3972:CLK 6.54116e-05
68 *3524:A2 *618:134 0.000111164
69 *3687:C1 *618:12 4.45153e-05
70 *3866:D *3862:CLK 0
71 *3866:D *618:20 0
72 *3867:D *618:109 3.79467e-05
73 *3897:D *618:68 6.58289e-05
74 *3952:D *618:134 7.5779e-05
75 *3972:D *3972:CLK 2.97074e-05
76 *4090:A *618:12 9.75679e-05
77 *4345:A *3962:CLK 0.00020212
78 *106:18 *3866:CLK 3.4689e-05
79 *106:18 *3965:CLK 8.66063e-05
80 *106:18 *618:105 0.000277473
81 *109:28 *618:134 0
82 *114:10 *3949:CLK 0
83 *426:16 *3947:CLK 4.88515e-05
84 *427:12 *618:12 1.16543e-05
85 *427:12 *618:57 7.80059e-05
86 *427:20 *618:18 0.00011448
87 *427:20 *618:20 0.000105903
88 *427:20 *618:57 4.73355e-05
89 *428:12 *618:57 0.00014852
90 *428:30 *618:57 5.533e-05
91 *428:30 *618:68 0
92 *431:10 *618:134 0
93 *434:12 *618:57 5.28196e-05
*RES
1 *4090:X *618:12 20.6393 
2 *618:12 *618:18 2.30357 
3 *618:18 *618:20 4.67857 
4 *618:20 *3862:CLK 22.5321 
5 *618:20 *3977:CLK 15.5857 
6 *618:18 *3866:CLK 14.7464 
7 *618:12 *618:57 15.0357 
8 *618:57 *3904:CLK 11.4786 
9 *618:57 *618:68 6.75 
10 *618:68 *3897:CLK 13.8 
11 *618:68 *3949:CLK 21.7821 
12 *4090:X *618:95 14.3357 
13 *618:95 *618:105 15.1607 
14 *618:105 *618:109 9.48214 
15 *618:109 *3962:CLK 16.3536 
16 *618:109 *3867:CLK 13.8 
17 *618:105 *3965:CLK 10.2464 
18 *618:95 *618:134 7.41071 
19 *618:134 *3947:CLK 17.6214 
20 *618:134 *3972:CLK 20.9071 
*END

*D_NET *619 0.0100291
*CONN
*I *3907:CLK I *D sky130_fd_sc_hd__dfrtp_2
*I *4106:A I *D sky130_fd_sc_hd__clkinv_2
*I *3911:CLK I *D sky130_fd_sc_hd__dfrtp_2
*I *3913:CLK I *D sky130_fd_sc_hd__dfrtp_2
*I *3912:CLK I *D sky130_fd_sc_hd__dfrtp_2
*I *3870:CLK I *D sky130_fd_sc_hd__dfrtp_2
*I *3910:CLK I *D sky130_fd_sc_hd__dfrtp_2
*I *3908:CLK I *D sky130_fd_sc_hd__dfrtp_2
*I *4063:CLK I *D sky130_fd_sc_hd__dfrtp_2
*I *4091:X O *D sky130_fd_sc_hd__clkbuf_8
*CAP
1 *3907:CLK 0.000142333
2 *4106:A 2.23854e-05
3 *3911:CLK 0
4 *3913:CLK 0
5 *3912:CLK 0
6 *3870:CLK 0.000571519
7 *3910:CLK 0.00018642
8 *3908:CLK 0
9 *4063:CLK 0.000858304
10 *4091:X 1.55834e-05
11 *619:87 0.000183951
12 *619:59 0.00105744
13 *619:53 0.000567224
14 *619:51 0.000551364
15 *619:34 0.000742416
16 *619:14 0.00133181
17 *619:8 0.000559442
18 *619:6 3.48153e-05
19 *3870:CLK *3642:A1 2.79092e-05
20 *3870:CLK *3645:A1 0
21 *3870:CLK *4303:A 6.21562e-05
22 *3870:CLK *909:63 0
23 *3907:CLK *3732:A 1.24368e-05
24 *3907:CLK *916:32 0.00059244
25 *4063:CLK *632:12 0
26 *4063:CLK *632:22 0
27 *619:6 *3732:A 5.52238e-05
28 *619:14 *3731:A1 0.000150618
29 *619:34 *3731:A1 3.17148e-05
30 *619:34 *3911:RESET_B 3.4846e-06
31 *619:34 *916:32 3.38504e-05
32 *619:34 *973:25 0.000187012
33 *619:51 *3911:RESET_B 2.84749e-05
34 *619:51 *973:25 0.000176234
35 *619:51 *975:10 0.000212202
36 *619:59 *3645:A1 0
37 *619:59 *977:6 0.000285619
38 *619:59 *977:25 9.61553e-05
39 *619:87 *3732:A 5.33005e-05
40 *3727:C *3907:CLK 4.87669e-06
41 *3732:C *3907:CLK 9.74698e-05
42 *3732:C *4106:A 0
43 *3732:C *619:6 1.92789e-05
44 *3732:C *619:87 1.21258e-05
45 *3870:D *3870:CLK 4.94245e-05
46 *3907:D *3907:CLK 6.05161e-06
47 *3908:D *3907:CLK 5.33005e-05
48 *3910:D *3910:CLK 3.72841e-05
49 *3910:D *619:14 0.000106542
50 *3910:D *619:34 5.51406e-05
51 *3911:D *619:51 0.000135894
52 *4063:D *4063:CLK 5.52302e-05
53 *4333:A *3870:CLK 0
54 *4372:A *3870:CLK 0.000109809
55 *4372:A *619:59 0.000120402
56 *4373:A *3870:CLK 0
57 *580:10 *619:14 0.000136028
58 *588:16 *4063:CLK 5.35516e-05
59 *588:16 *619:14 0
60 *588:29 *619:14 0
61 *588:33 *3907:CLK 0.00014285
*RES
1 *4091:X *619:6 9.83571 
2 *619:6 *619:8 4.5 
3 *619:8 *619:14 14.0179 
4 *619:14 *4063:CLK 32.925 
5 *619:14 *3908:CLK 9.3 
6 *619:8 *619:34 2.85714 
7 *619:34 *3910:CLK 16.8179 
8 *619:34 *619:51 14.6786 
9 *619:51 *619:53 1.35714 
10 *619:53 *619:59 15.2857 
11 *619:59 *3870:CLK 25.7643 
12 *619:59 *3912:CLK 13.8 
13 *619:53 *3913:CLK 9.3 
14 *619:51 *3911:CLK 9.3 
15 *619:6 *619:87 0.535714 
16 *619:87 *4106:A 9.72857 
17 *619:87 *3907:CLK 15.175 
*END

*D_NET *620 0.0107941
*CONN
*I *3899:CLK I *D sky130_fd_sc_hd__dfrtp_2
*I *3900:CLK I *D sky130_fd_sc_hd__dfrtp_2
*I *3898:CLK I *D sky130_fd_sc_hd__dfrtp_2
*I *3861:CLK I *D sky130_fd_sc_hd__dfrtp_2
*I *3858:CLK I *D sky130_fd_sc_hd__dfrtp_2
*I *3860:CLK I *D sky130_fd_sc_hd__dfrtp_2
*I *3856:CLK I *D sky130_fd_sc_hd__dfrtp_2
*I *3857:CLK I *D sky130_fd_sc_hd__dfrtp_2
*I *3859:CLK I *D sky130_fd_sc_hd__dfrtp_2
*I *4108:A I *D sky130_fd_sc_hd__clkbuf_8
*I *4092:X O *D sky130_fd_sc_hd__clkbuf_8
*CAP
1 *3899:CLK 0.000216459
2 *3900:CLK 0
3 *3898:CLK 0.000113316
4 *3861:CLK 0.000639459
5 *3858:CLK 0
6 *3860:CLK 3.98048e-05
7 *3856:CLK 0
8 *3857:CLK 0.000293971
9 *3859:CLK 8.41164e-05
10 *4108:A 0.000128712
11 *4092:X 0
12 *620:90 0.000278645
13 *620:79 0.000274438
14 *620:58 0.000834221
15 *620:54 0.000518538
16 *620:32 0.000478981
17 *620:21 0.00103967
18 *620:6 0.000997156
19 *620:4 0.000362547
20 *3857:CLK *3627:A1 0
21 *3857:CLK *852:22 0.000154762
22 *3861:CLK *3858:RESET_B 1.68581e-05
23 *3898:CLK *3696:A1 8.95645e-05
24 *3899:CLK *3622:A2 3.51314e-05
25 *3899:CLK *3700:A1 0.000177313
26 *3899:CLK *632:12 0.000217361
27 *620:6 *3697:A1 1.24368e-05
28 *620:6 *909:29 0.000116049
29 *620:21 *3472:A 0.000177194
30 *620:21 *3697:A0 1.21258e-05
31 *620:21 *3697:A1 0.000387497
32 *620:21 *3859:RESET_B 9.16671e-05
33 *620:21 *841:6 5.96516e-05
34 *620:21 *909:29 0.000273821
35 *620:21 *985:6 1.21258e-05
36 *620:32 *3627:A1 0
37 *620:32 *3691:A1 9.50291e-05
38 *620:32 *852:22 0.000217478
39 *620:54 *909:29 0.000299364
40 *620:58 *3482:B 0.00016792
41 *620:58 *3631:A0 0.000305372
42 *620:58 *3631:S 1.50087e-05
43 *620:58 *632:12 9.25014e-06
44 *620:79 *632:12 0.000192327
45 *620:90 *632:12 0.000199782
46 *3696:A2 *3898:CLK 1.55917e-05
47 *3697:S *4108:A 7.10921e-05
48 *3700:B2 *3899:CLK 4.40513e-06
49 *3700:B2 *620:58 9.53044e-05
50 *3700:B2 *620:79 5.94886e-05
51 *3700:B2 *620:90 6.4934e-05
52 *3856:D *3857:CLK 6.58289e-05
53 *3859:D *3859:CLK 6.05161e-06
54 *3859:D *620:21 1.98839e-05
55 *3859:D *620:32 5.66157e-05
56 *4356:A *4108:A 0
57 *4356:A *620:21 5.52238e-05
58 *4357:A *3861:CLK 0.000269428
59 *435:14 *3899:CLK 7.14668e-05
60 *569:24 *3898:CLK 0.000303705
*RES
1 *4092:X *620:4 9.3 
2 *620:4 *620:6 2.17857 
3 *620:6 *4108:A 20.2464 
4 *620:6 *620:21 16.1607 
5 *620:21 *3859:CLK 10.6571 
6 *620:21 *620:32 9.48214 
7 *620:32 *3857:CLK 19.6571 
8 *620:32 *3856:CLK 13.8 
9 *620:4 *620:54 9.96429 
10 *620:54 *620:58 9.17857 
11 *620:58 *3860:CLK 9.83571 
12 *620:58 *3858:CLK 9.3 
13 *620:58 *3861:CLK 19.6929 
14 *620:54 *620:79 2.55357 
15 *620:79 *3898:CLK 16.8 
16 *620:79 *620:90 2.55357 
17 *620:90 *3900:CLK 13.8 
18 *620:90 *3899:CLK 19.2464 
*END

*D_NET *621 0.0103937
*CONN
*I *3958:CLK I *D sky130_fd_sc_hd__dfrtp_2
*I *3927:CLK I *D sky130_fd_sc_hd__dfrtp_2
*I *3934:CLK I *D sky130_fd_sc_hd__dfrtp_2
*I *3998:CLK I *D sky130_fd_sc_hd__dfrtp_2
*I *3984:CLK I *D sky130_fd_sc_hd__dfrtp_2
*I *3909:CLK I *D sky130_fd_sc_hd__dfrtp_2
*I *3957:CLK I *D sky130_fd_sc_hd__dfstp_2
*I *3981:CLK I *D sky130_fd_sc_hd__dfrtp_2
*I *3906:CLK I *D sky130_fd_sc_hd__dfrtp_2
*I *3979:CLK I *D sky130_fd_sc_hd__dfrtp_2
*I *4093:X O *D sky130_fd_sc_hd__clkbuf_8
*CAP
1 *3958:CLK 0
2 *3927:CLK 5.68661e-05
3 *3934:CLK 0.000741452
4 *3998:CLK 0
5 *3984:CLK 0
6 *3909:CLK 0.000543701
7 *3957:CLK 0
8 *3981:CLK 0
9 *3906:CLK 3.72704e-05
10 *3979:CLK 0.000293597
11 *4093:X 0.000747263
12 *621:103 0.00107928
13 *621:97 0.000499044
14 *621:91 0.000626071
15 *621:49 0.000801725
16 *621:35 0.000195593
17 *621:29 0.000726366
18 *621:23 0.00031002
19 *621:10 0.000519139
20 *3909:CLK *907:32 2.8266e-06
21 *3934:CLK *4122:A 0.00025442
22 *3934:CLK *4192:A 6.13757e-06
23 *3934:CLK *646:43 5.58941e-05
24 *3934:CLK *880:59 9.76689e-05
25 *3934:CLK *894:32 0.000207769
26 *3934:CLK *894:51 0.000103267
27 *3979:CLK *3343:A 0
28 *3979:CLK *3444:B 0
29 *3979:CLK *3979:RESET_B 6.05161e-06
30 *3979:CLK *907:40 0.000212841
31 *3979:CLK *933:12 0
32 *621:10 *3343:A 0.000225616
33 *621:10 *907:40 9.12446e-05
34 *621:29 *3981:D 8.37335e-05
35 *621:29 *3984:RESET_B 0.000119135
36 *621:29 *4182:A 1.24368e-05
37 *621:35 *3981:D 5.56943e-05
38 *621:35 *4182:A 9.34004e-05
39 *621:35 *915:10 0
40 *621:49 *915:10 0
41 *621:91 *3470:A2 0.000158137
42 *621:91 *3806:A1 7.34187e-06
43 *621:91 *3958:D 2.59355e-05
44 *621:91 *3958:RESET_B 7.17094e-05
45 *621:91 *894:32 0.000148903
46 *621:91 *936:33 5.48488e-05
47 *621:91 *938:12 2.87631e-05
48 *621:97 *880:38 0.000148605
49 *621:103 *646:43 0.000392297
50 *621:103 *894:32 3.51442e-05
51 *3363:A2 *621:103 0.000101444
52 *3469:A1 *621:97 0
53 *3471:A2 *621:10 0.000112754
54 *3717:B1 *3909:CLK 0
55 *3954:D *3979:CLK 6.05161e-06
56 *3957:D *621:10 2.89114e-05
57 *3979:D *3979:CLK 5.04589e-05
58 *3984:D *3979:CLK 2.8266e-06
59 *3984:D *621:10 6.04162e-05
60 *4093:A *621:91 5.30637e-06
61 *11:14 *3909:CLK 0.000148304
62 *353:10 *3909:CLK 0
63 *353:10 *621:35 0
64 *353:10 *621:49 0
*RES
1 *4093:X *621:10 19.8714 
2 *621:10 *3979:CLK 20.55 
3 *621:10 *621:23 4.5 
4 *621:23 *621:29 10.3929 
5 *621:29 *621:35 7.89286 
6 *621:35 *3906:CLK 9.83571 
7 *621:35 *3981:CLK 9.3 
8 *621:29 *621:49 4.67857 
9 *621:49 *3957:CLK 13.8 
10 *621:49 *3909:CLK 23.5321 
11 *621:23 *3984:CLK 9.3 
12 *4093:X *621:91 28.4429 
13 *621:91 *621:97 11.5536 
14 *621:97 *621:103 11.6607 
15 *621:103 *3998:CLK 13.8 
16 *621:103 *3934:CLK 25.3 
17 *621:97 *3927:CLK 10.2464 
18 *621:91 *3958:CLK 9.3 
*END

*D_NET *622 0.0117498
*CONN
*I *4041:CLK I *D sky130_fd_sc_hd__dfrtp_2
*I *3916:CLK I *D sky130_fd_sc_hd__dfrtp_2
*I *4016:CLK I *D sky130_fd_sc_hd__dfstp_2
*I *4052:CLK I *D sky130_fd_sc_hd__dfrtp_2
*I *3883:CLK I *D sky130_fd_sc_hd__dfstp_2
*I *3982:CLK I *D sky130_fd_sc_hd__dfstp_2
*I *4042:CLK I *D sky130_fd_sc_hd__dfrtp_2
*I *4053:CLK I *D sky130_fd_sc_hd__dfrtp_2
*I *4049:CLK I *D sky130_fd_sc_hd__dfrtp_2
*I *4054:CLK I *D sky130_fd_sc_hd__dfrtp_2
*I *3884:CLK I *D sky130_fd_sc_hd__dfxtp_2
*I *4094:X O *D sky130_fd_sc_hd__clkbuf_8
*CAP
1 *4041:CLK 0.000157964
2 *3916:CLK 0.000327249
3 *4016:CLK 0.000421894
4 *4052:CLK 0.000125541
5 *3883:CLK 0.000162616
6 *3982:CLK 0.000151702
7 *4042:CLK 0.000566136
8 *4053:CLK 0
9 *4049:CLK 0.000155887
10 *4054:CLK 0.00015164
11 *3884:CLK 3.44045e-05
12 *4094:X 0.000232067
13 *622:126 0.000747399
14 *622:82 0.00042922
15 *622:80 0.000320888
16 *622:78 0.000741279
17 *622:76 0.000573329
18 *622:29 0.000623146
19 *622:27 0.000706195
20 *622:17 0.00108719
21 *622:6 0.000324742
22 *3883:CLK *643:43 3.69047e-06
23 *3916:CLK *3849:A2 0.00010096
24 *3982:CLK *907:32 0
25 *4016:CLK *3402:B 0.000227532
26 *4016:CLK *3748:A0 0.000317082
27 *4016:CLK *3748:A1 2.14757e-05
28 *4016:CLK *4228:A 9.41642e-05
29 *4016:CLK *939:16 0.000116412
30 *4042:CLK *3749:A1 3.93893e-05
31 *4042:CLK *934:26 0.000141985
32 *4049:CLK *4049:D 3.47737e-05
33 *4049:CLK *4208:A 5.57914e-05
34 *4049:CLK *641:37 0
35 *4049:CLK *646:61 0.000391208
36 *4052:CLK *4052:D 2.89016e-05
37 *4052:CLK *907:26 0.000268396
38 *622:6 *4073:A 0.00018372
39 *622:17 *4053:RESET_B 0.000224826
40 *622:76 *4073:A 0.000139907
41 *622:78 *3748:A1 0.000169252
42 *622:78 *3748:S 0
43 *622:78 *4073:A 5.74562e-05
44 *622:78 *4118:A 1.88048e-05
45 *622:78 *643:67 0
46 *622:80 *3748:S 0
47 *622:82 *907:32 0
48 *622:126 *3748:A1 0.000110017
49 *622:126 *4073:A 3.50758e-05
50 *622:126 *943:21 5.5782e-05
51 *3359:A *4042:CLK 4.03318e-05
52 *3359:A *622:17 6.87834e-06
53 *3664:A0 *4016:CLK 1.97865e-05
54 *4053:D *4042:CLK 0
55 *4053:D *622:17 0
56 *4053:D *622:27 5.52302e-05
57 *4094:A *4041:CLK 0
58 *4094:A *622:126 0
59 *4229:A *3883:CLK 0.000142856
60 *4229:A *3982:CLK 1.02504e-05
61 *4229:A *622:80 8.98585e-05
62 *4229:A *622:82 0.00021262
63 *11:10 *3982:CLK 1.39484e-05
64 *11:10 *4041:CLK 1.16344e-05
65 *11:10 *4042:CLK 0
66 *11:10 *622:78 3.17508e-06
67 *11:10 *622:80 1.99913e-06
68 *354:20 *3883:CLK 0.000264154
*RES
1 *4094:X *622:6 12.3 
2 *622:6 *3884:CLK 9.83571 
3 *622:6 *622:17 7.66071 
4 *622:17 *622:27 9.71429 
5 *622:27 *622:29 4.64286 
6 *622:29 *4054:CLK 11.4786 
7 *622:29 *4049:CLK 23.2821 
8 *622:27 *4053:CLK 9.3 
9 *622:17 *4042:CLK 22.3536 
10 *4094:X *622:76 15.1571 
11 *622:76 *622:78 4.98214 
12 *622:78 *622:80 1.64286 
13 *622:80 *622:82 2.85714 
14 *622:82 *3982:CLK 16.3536 
15 *622:82 *3883:CLK 18.4429 
16 *622:80 *4052:CLK 16.8179 
17 *622:78 *4016:CLK 22.5679 
18 *622:76 *622:126 6.125 
19 *622:126 *3916:CLK 19.2643 
20 *622:126 *4041:CLK 16.7107 
*END

*D_NET *623 0.012742
*CONN
*I *3890:CLK I *D sky130_fd_sc_hd__dfxtp_2
*I *3891:CLK I *D sky130_fd_sc_hd__dfxtp_2
*I *3905:CLK I *D sky130_fd_sc_hd__dfrtp_2
*I *3888:CLK I *D sky130_fd_sc_hd__dfxtp_2
*I *3885:CLK I *D sky130_fd_sc_hd__dfxtp_2
*I *3889:CLK I *D sky130_fd_sc_hd__dfxtp_2
*I *3871:CLK I *D sky130_fd_sc_hd__dfrtp_2
*I *3875:CLK I *D sky130_fd_sc_hd__dfrtp_2
*I *3873:CLK I *D sky130_fd_sc_hd__dfrtp_2
*I *3869:CLK I *D sky130_fd_sc_hd__dfrtp_2
*I *4095:X O *D sky130_fd_sc_hd__clkbuf_8
*CAP
1 *3890:CLK 0
2 *3891:CLK 0
3 *3905:CLK 0.000274056
4 *3888:CLK 3.62326e-05
5 *3885:CLK 5.33308e-05
6 *3889:CLK 0.000242705
7 *3871:CLK 0
8 *3875:CLK 0
9 *3873:CLK 9.25936e-05
10 *3869:CLK 0.000233287
11 *4095:X 0
12 *623:107 0.000641091
13 *623:101 0.000818783
14 *623:77 0.000480406
15 *623:60 0.00104408
16 *623:33 0.000254088
17 *623:27 0.000464151
18 *623:25 0.000943307
19 *623:8 0.000664471
20 *623:4 0.000652813
21 *3869:CLK *3707:A 0
22 *3869:CLK *3871:RESET_B 6.51946e-05
23 *3869:CLK *4310:A 0.000256708
24 *3885:CLK *3672:A1 0.000200413
25 *3885:CLK *3674:A1 0.000200413
26 *3905:CLK *3712:B 0
27 *3905:CLK *641:10 0
28 *3905:CLK *646:53 2.44318e-05
29 *3905:CLK *646:61 0.000496309
30 *623:8 *4305:A 0
31 *623:8 *4310:A 0.000173816
32 *623:25 *3871:RESET_B 0.00018713
33 *623:25 *928:8 0.000227532
34 *623:60 *3643:A0 0.000103305
35 *623:60 *3643:A1 0
36 *623:60 *3647:A0 0
37 *623:60 *3647:S 0.000117629
38 *623:60 *4204:A 0
39 *623:60 *4396:A 0
40 *623:60 *909:72 8.23597e-06
41 *623:60 *909:89 8.68445e-05
42 *623:77 *3666:A1 5.33882e-05
43 *623:77 *3672:A1 1.09026e-05
44 *623:101 *3750:A1 0.000137983
45 *623:101 *3750:S 7.56943e-05
46 *623:101 *4390:A 0.000192762
47 *623:101 *640:28 7.9053e-05
48 *623:107 *3641:A1 0
49 *623:107 *4300:A 0
50 *623:107 *640:14 0.000310051
51 *623:107 *640:28 0.000174835
52 *623:107 *646:61 0
53 *623:107 *926:8 0.000318101
54 o_receive_data[0] *623:60 1.94945e-05
55 o_receive_data[5] *3889:CLK 0.000118391
56 o_receive_data[6] *623:33 4.47395e-05
57 *3674:S *623:60 0
58 *3676:S *623:101 1.02504e-05
59 *3676:S *623:107 0.000153054
60 *3869:D *3869:CLK 6.8646e-06
61 *3885:D *623:77 0.00010326
62 *3888:D *623:77 1.64343e-05
63 *3889:D *3889:CLK 0.000278574
64 *3889:D *623:60 3.5707e-05
65 *3891:D *3905:CLK 4.57445e-05
66 *4095:A *623:101 5.49544e-05
67 *4286:A *623:101 0
68 *4372:A *3873:CLK 0.000199556
69 *4372:A *623:33 0.000115485
70 *4374:A *3873:CLK 0.000201264
71 *4374:A *623:33 0.000189809
72 *359:67 *623:60 0.000175036
73 *359:67 *623:77 0.00021532
74 *579:10 *3905:CLK 0.000361914
*RES
1 *4095:X *623:4 9.3 
2 *623:4 *623:8 8.875 
3 *623:8 *3869:CLK 19.0679 
4 *623:8 *623:25 9.96429 
5 *623:25 *623:27 4.64286 
6 *623:27 *623:33 8.41071 
7 *623:33 *3873:CLK 16.8893 
8 *623:33 *3875:CLK 13.8 
9 *623:27 *3871:CLK 9.3 
10 *623:25 *623:60 14.0357 
11 *623:60 *3889:CLK 18.8536 
12 *623:60 *623:77 11.375 
13 *623:77 *3885:CLK 20.8536 
14 *623:77 *3888:CLK 9.83571 
15 *623:4 *623:101 13.8571 
16 *623:101 *623:107 14.9464 
17 *623:107 *3905:CLK 27.1036 
18 *623:107 *3891:CLK 9.3 
19 *623:101 *3890:CLK 13.8 
*END

*D_NET *624 0.0126701
*CONN
*I *3917:CLK I *D sky130_fd_sc_hd__dfrtp_2
*I *4050:CLK I *D sky130_fd_sc_hd__dfrtp_2
*I *4056:CLK I *D sky130_fd_sc_hd__dfrtp_2
*I *3989:CLK I *D sky130_fd_sc_hd__dfrtp_2
*I *3988:CLK I *D sky130_fd_sc_hd__dfrtp_2
*I *3990:CLK I *D sky130_fd_sc_hd__dfrtp_2
*I *3987:CLK I *D sky130_fd_sc_hd__dfrtp_2
*I *4109:A I *D sky130_fd_sc_hd__clkbuf_4
*I *3886:CLK I *D sky130_fd_sc_hd__dfxtp_2
*I *3887:CLK I *D sky130_fd_sc_hd__dfxtp_2
*I *4055:CLK I *D sky130_fd_sc_hd__dfrtp_2
*I *4051:CLK I *D sky130_fd_sc_hd__dfrtp_2
*I *4096:X O *D sky130_fd_sc_hd__clkbuf_8
*CAP
1 *3917:CLK 0.000745001
2 *4050:CLK 0
3 *4056:CLK 0.000169047
4 *3989:CLK 0
5 *3988:CLK 0
6 *3990:CLK 0.000570655
7 *3987:CLK 0.000150433
8 *4109:A 0.000332676
9 *3886:CLK 5.78525e-05
10 *3887:CLK 0
11 *4055:CLK 0.000213894
12 *4051:CLK 0.000281843
13 *4096:X 0.000104742
14 *624:106 0.0012483
15 *624:91 0.00111513
16 *624:83 0.00050406
17 *624:63 0.000412914
18 *624:59 0.000514588
19 *624:46 0.00050882
20 *624:44 0.000657182
21 *624:38 0.000254515
22 *624:16 0.00065706
23 *624:12 0.000295399
24 *624:10 0.000983819
25 *3917:CLK *3746:A0 0.000353079
26 *3917:CLK *4287:A 5.52302e-05
27 *3917:CLK *1041:10 7.43578e-06
28 *3990:CLK *3506:B 0.000105347
29 *3990:CLK *641:84 0
30 *3990:CLK *641:99 0
31 *4051:CLK *4051:RESET_B 7.20217e-06
32 *4051:CLK *4056:RESET_B 0.000173738
33 *4051:CLK *889:97 1.92905e-05
34 *4055:CLK *4050:RESET_B 5.03175e-05
35 *4055:CLK *4276:A 3.67257e-05
36 *4055:CLK *940:12 0.000216862
37 *4056:CLK *4395:A 1.41642e-05
38 *4056:CLK *869:10 8.84979e-05
39 *4056:CLK *940:12 1.93007e-05
40 *624:16 *4056:RESET_B 4.87327e-05
41 *624:44 *3752:A0 8.9622e-05
42 *624:44 *3752:A1 9.7688e-05
43 *624:44 *3752:S 3.38463e-05
44 *624:44 *4200:A 4.25176e-05
45 *624:46 *3669:A 2.59355e-05
46 *624:46 *3674:A1 5.91452e-05
47 *624:46 *4200:A 9.66977e-05
48 *624:59 *3669:A 2.77108e-05
49 *624:59 *3672:A1 2.82057e-05
50 *624:83 *3666:A1 0
51 *624:83 *3670:A1 7.04538e-05
52 *624:83 *3672:A1 4.75812e-05
53 *624:91 *3405:A 0.000125724
54 *624:91 *3405:B 5.26091e-05
55 *624:91 *3670:A1 0.000126439
56 *624:91 *4392:A 0
57 o_receive_data[5] *624:59 2.56694e-05
58 *3668:S *4055:CLK 5.41609e-05
59 *3668:S *4056:CLK 2.84109e-05
60 *3668:S *624:10 6.19181e-05
61 *3668:S *624:12 0.000132442
62 *3668:S *624:16 3.16039e-05
63 *3670:A0 *624:59 0
64 *3670:A0 *624:83 0
65 *3886:D *624:59 0.000153047
66 *3887:D *624:59 7.01199e-06
67 *3987:RESET_B *3990:CLK 0
68 *3988:D *3990:CLK 6.26673e-05
69 *3989:D *624:91 0
70 *3990:D *3990:CLK 4.82456e-05
71 *4050:D *3917:CLK 2.22891e-05
72 *4277:A *624:44 5.12625e-05
73 *162:6 *3987:CLK 3.55443e-05
74 *162:6 *624:106 2.51343e-06
75 *606:45 *624:10 5.52302e-05
*RES
1 *4096:X *624:10 15.9786 
2 *624:10 *624:12 3.16071 
3 *624:12 *624:16 3.08929 
4 *624:16 *4051:CLK 19.05 
5 *624:16 *4055:CLK 19.2643 
6 *624:12 *624:38 4.5 
7 *624:38 *624:44 5.60714 
8 *624:44 *624:46 4.23214 
9 *624:46 *3887:CLK 9.3 
10 *624:46 *624:59 9.14286 
11 *624:59 *624:63 4.92857 
12 *624:63 *3886:CLK 10.675 
13 *624:63 *4109:A 14.3536 
14 *624:59 *624:83 8.875 
15 *624:83 *624:91 14.8393 
16 *624:91 *3987:CLK 11.3893 
17 *624:91 *624:106 8.375 
18 *624:106 *3990:CLK 29.0679 
19 *624:106 *3988:CLK 9.3 
20 *624:83 *3989:CLK 9.3 
21 *624:44 *4056:CLK 21.3893 
22 *624:38 *4050:CLK 9.3 
23 *624:10 *3917:CLK 26.3893 
*END

*D_NET *625 0.0157644
*CONN
*I *3920:CLK I *D sky130_fd_sc_hd__dfrtp_2
*I *3921:CLK I *D sky130_fd_sc_hd__dfrtp_2
*I *3997:CLK I *D sky130_fd_sc_hd__dfrtp_2
*I *3919:CLK I *D sky130_fd_sc_hd__dfrtp_2
*I *3918:CLK I *D sky130_fd_sc_hd__dfrtp_2
*I *3994:CLK I *D sky130_fd_sc_hd__dfrtp_2
*I *3995:CLK I *D sky130_fd_sc_hd__dfrtp_2
*I *3992:CLK I *D sky130_fd_sc_hd__dfrtp_2
*I *3993:CLK I *D sky130_fd_sc_hd__dfrtp_2
*I *3991:CLK I *D sky130_fd_sc_hd__dfrtp_2
*I *4097:X O *D sky130_fd_sc_hd__clkbuf_8
*CAP
1 *3920:CLK 0
2 *3921:CLK 0.000273877
3 *3997:CLK 0.000150826
4 *3919:CLK 0.000390397
5 *3918:CLK 0.000139605
6 *3994:CLK 0.00037275
7 *3995:CLK 0.000123161
8 *3992:CLK 0
9 *3993:CLK 0.000344352
10 *3991:CLK 0.00047757
11 *4097:X 0.00136506
12 *625:92 0.000888815
13 *625:86 0.000591793
14 *625:82 0.000356031
15 *625:80 0.000473517
16 *625:53 0.000677921
17 *625:29 0.000748204
18 *625:21 0.000795991
19 *625:8 0.00157924
20 *3918:CLK *3365:D 8.00806e-05
21 *3918:CLK *876:20 0.000216304
22 *3918:CLK *877:31 4.038e-06
23 *3919:CLK *877:31 0.00025664
24 *3919:CLK *890:27 8.08022e-05
25 *3921:CLK *1045:16 0.00012401
26 *3991:CLK *631:10 1.40306e-05
27 *3993:CLK *3415:A1 0.00022
28 *3993:CLK *673:8 1.76039e-05
29 *3994:CLK *3420:A 0
30 *3995:CLK *3420:A 0.00027218
31 *3995:CLK *3800:A1 4.71426e-05
32 *3995:CLK *3800:B1 5.49489e-05
33 *3997:CLK *3381:A1 0.000263989
34 *625:8 *3799:B1 2.07462e-05
35 *625:8 *890:79 0.000480057
36 *625:8 *1057:12 0.00014631
37 *625:21 *3799:B1 3.38773e-05
38 *625:21 *890:92 0
39 *625:92 *3383:A1 0
40 *3381:A2 *3997:CLK 9.90431e-05
41 *3416:A *3993:CLK 5.04841e-06
42 *3420:B *3993:CLK 0.000224879
43 *3515:A_N *625:80 0.000137983
44 *3515:B *625:80 0.000197098
45 *3515:C *625:80 3.13015e-05
46 *3918:D *3918:CLK 6.92626e-05
47 *3991:D *3991:CLK 0.000130718
48 *3991:RESET_B *625:21 7.54868e-05
49 *3992:D *3993:CLK 2.89114e-05
50 *3992:D *625:29 5.83781e-05
51 *3992:RESET_B *3995:CLK 3.05522e-05
52 *3992:RESET_B *625:53 3.19595e-05
53 *3993:D *3993:CLK 7.61932e-05
54 *3994:D *3994:CLK 7.77652e-05
55 *3995:D *3995:CLK 6.37089e-05
56 *3997:D *3997:CLK 0.000381775
57 *3997:D *625:92 7.02611e-05
58 *4097:A *625:80 0.000236765
59 *11:10 *3918:CLK 0
60 *11:10 *3921:CLK 0.00031625
61 *11:10 *625:86 9.40168e-05
62 *392:10 *3918:CLK 2.1527e-05
63 *392:10 *625:92 8.45386e-05
64 *392:25 *3997:CLK 0.000170385
65 *392:25 *625:92 1.33343e-05
66 *396:20 *625:80 5.03772e-05
67 *396:24 *625:86 6.19181e-05
68 *396:24 *625:92 0.000417891
69 *396:32 *3918:CLK 3.92854e-05
70 *396:32 *625:92 0.000125674
71 *396:57 *3921:CLK 0.000230862
72 *396:57 *625:86 2.94103e-05
73 *412:12 *625:21 0
*RES
1 *4097:X *625:8 20.9429 
2 *625:8 *3991:CLK 15.4964 
3 *625:8 *625:21 7.96429 
4 *625:21 *625:29 10 
5 *625:29 *3993:CLK 26.6214 
6 *625:29 *3992:CLK 9.3 
7 *625:21 *625:53 3.46429 
8 *625:53 *3995:CLK 17.6214 
9 *625:53 *3994:CLK 20.1393 
10 *4097:X *625:80 19.6929 
11 *625:80 *625:82 4.5 
12 *625:82 *625:86 6.75 
13 *625:86 *625:92 14.1786 
14 *625:92 *3918:CLK 17.8714 
15 *625:92 *3919:CLK 28.4786 
16 *625:86 *3997:CLK 15.9964 
17 *625:82 *3921:CLK 21.2107 
18 *625:80 *3920:CLK 9.3 
*END

*D_NET *626 0.0102619
*CONN
*I *3996:CLK I *D sky130_fd_sc_hd__dfstp_2
*I *4110:A I *D sky130_fd_sc_hd__clkbuf_8
*I *3924:CLK I *D sky130_fd_sc_hd__dfrtp_2
*I *3925:CLK I *D sky130_fd_sc_hd__dfrtp_2
*I *3922:CLK I *D sky130_fd_sc_hd__dfrtp_2
*I *3923:CLK I *D sky130_fd_sc_hd__dfrtp_2
*I *3926:CLK I *D sky130_fd_sc_hd__dfrtp_2
*I *3938:CLK I *D sky130_fd_sc_hd__dfstp_2
*I *3941:CLK I *D sky130_fd_sc_hd__dfrtp_2
*I *3986:CLK I *D sky130_fd_sc_hd__dfrtp_2
*I *4098:X O *D sky130_fd_sc_hd__clkbuf_8
*CAP
1 *3996:CLK 0.000209702
2 *4110:A 0
3 *3924:CLK 0
4 *3925:CLK 0.00012521
5 *3922:CLK 0.000297059
6 *3923:CLK 0
7 *3926:CLK 0
8 *3938:CLK 3.42566e-05
9 *3941:CLK 0.00048874
10 *3986:CLK 0
11 *4098:X 0
12 *626:81 0.00050803
13 *626:70 0.000286734
14 *626:64 0.000355685
15 *626:56 0.000357515
16 *626:23 0.000608363
17 *626:21 0.000436233
18 *626:10 0.000498691
19 *626:8 0.000376712
20 *626:4 0.000235787
21 *3922:CLK *3505:A 0.000254059
22 *3925:CLK *3375:A1 1.92789e-05
23 *3925:CLK *1049:8 1.57523e-05
24 *3938:CLK *3527:A1 5.59965e-05
25 *3941:CLK *3435:B2 2.59355e-05
26 *3941:CLK *3527:A2 9.68931e-05
27 *3941:CLK *645:101 8.359e-05
28 *3941:CLK *993:58 0.000171375
29 *3996:CLK *3369:A 0.000322132
30 *3996:CLK *3794:A2 9.41642e-05
31 *3996:CLK *3794:B1 0.000400867
32 *3996:CLK *1051:10 0.000173328
33 *3996:CLK *1051:16 3.98559e-05
34 *626:8 *1051:10 0.000186669
35 *626:10 *645:114 0
36 *626:21 *3774:A1 0
37 *626:21 *3805:A1 0
38 *626:21 *645:114 0
39 *626:21 *993:58 0.000249479
40 *626:23 *645:101 8.2395e-05
41 *626:23 *993:58 0.000220448
42 *626:56 *3773:B1 0
43 *626:56 *1047:76 0.000228558
44 *626:64 *3772:B1 7.77652e-05
45 *626:64 *644:77 0
46 *626:64 *1048:10 2.77173e-05
47 *626:70 *3370:A 0.000197262
48 *626:70 *3772:B1 6.71854e-05
49 *626:70 *644:77 5.66157e-05
50 *626:70 *644:83 2.59355e-05
51 *626:70 *1048:10 1.74352e-05
52 *626:70 *1048:35 0.000139907
53 *626:70 *1048:69 3.46786e-05
54 *626:81 *3370:A 0.000173076
55 *3363:A2 *626:21 2.11362e-05
56 *3363:A3 *626:23 0
57 *3374:A *626:56 0
58 *3374:B *626:56 0.000230475
59 *3375:A2 *3925:CLK 6.12927e-05
60 *3375:A2 *626:70 1.18064e-05
61 *3375:B1 *3922:CLK 5.52302e-05
62 *3375:B1 *626:81 6.19181e-05
63 *3376:B1 *3922:CLK 6.05161e-06
64 *3376:B1 *3925:CLK 2.05612e-05
65 *3528:B1 *3938:CLK 3.17684e-05
66 *3924:D *626:64 0.000149223
67 *3925:D *3922:CLK 0.000113083
68 *3925:D *3925:CLK 0.000260574
69 *3926:D *626:21 4.52937e-05
70 *3926:D *626:23 4.1331e-06
71 *3941:RESET_B *3941:CLK 0.00016135
72 *3986:D *626:21 0.000111469
73 *396:14 *3996:CLK 0.000144773
74 *396:14 *626:8 0.000186669
75 *396:96 *626:70 0.000202079
76 *396:96 *626:81 2.58997e-05
*RES
1 *4098:X *626:4 9.3 
2 *626:4 *626:8 6.26786 
3 *626:8 *626:10 2.55357 
4 *626:10 *3986:CLK 13.8 
5 *626:10 *626:21 7.94643 
6 *626:21 *626:23 2.85714 
7 *626:23 *3941:CLK 23.9786 
8 *626:23 *3938:CLK 14.7464 
9 *626:21 *3926:CLK 13.8 
10 *626:8 *626:56 9.53571 
11 *626:56 *626:64 12.6071 
12 *626:64 *626:70 11.25 
13 *626:70 *3923:CLK 13.8 
14 *626:70 *626:81 6.75 
15 *626:81 *3922:CLK 16.4071 
16 *626:81 *3925:CLK 12.7464 
17 *626:64 *3924:CLK 9.3 
18 *626:56 *4110:A 9.3 
19 *626:4 *3996:CLK 16.8179 
*END

*D_NET *627 0.0101015
*CONN
*I *3929:CLK I *D sky130_fd_sc_hd__dfrtp_2
*I *3985:CLK I *D sky130_fd_sc_hd__dfrtp_2
*I *3943:CLK I *D sky130_fd_sc_hd__dfrtp_2
*I *3944:CLK I *D sky130_fd_sc_hd__dfrtp_2
*I *4111:A I *D sky130_fd_sc_hd__clkinv_2
*I *3942:CLK I *D sky130_fd_sc_hd__dfstp_2
*I *4038:CLK I *D sky130_fd_sc_hd__dfstp_2
*I *4040:CLK I *D sky130_fd_sc_hd__dfrtp_2
*I *3931:CLK I *D sky130_fd_sc_hd__dfstp_2
*I *3936:CLK I *D sky130_fd_sc_hd__dfrtp_2
*I *4099:X O *D sky130_fd_sc_hd__clkbuf_8
*CAP
1 *3929:CLK 0.000183556
2 *3985:CLK 7.86208e-05
3 *3943:CLK 0
4 *3944:CLK 7.5916e-05
5 *4111:A 2.23854e-05
6 *3942:CLK 3.71736e-05
7 *4038:CLK 7.65741e-05
8 *4040:CLK 0.00076067
9 *3931:CLK 6.17285e-05
10 *3936:CLK 0.000332028
11 *4099:X 1.99379e-05
12 *627:98 0.000553727
13 *627:77 0.000135572
14 *627:59 0.000190174
15 *627:55 0.000249743
16 *627:44 0.000984502
17 *627:42 0.000287974
18 *627:40 0.000870678
19 *627:10 0.000623315
20 *627:8 0.000628437
21 *3929:CLK *4152:A 5.52302e-05
22 *3936:CLK *3931:D 6.97972e-05
23 *3936:CLK *993:14 4.79842e-05
24 *3936:CLK *993:23 1.41706e-05
25 *3936:CLK *1093:12 4.88212e-05
26 *3942:CLK *889:34 8.76257e-05
27 *3985:CLK *3793:A2 0.000128146
28 *3985:CLK *4153:A 1.0945e-05
29 *3985:CLK *894:83 9.30125e-05
30 *4038:CLK *889:34 0.000185643
31 *4040:CLK *4040:D 7.48091e-05
32 *4040:CLK *4227:A 0.000351638
33 *4040:CLK *993:46 0.000166407
34 *4111:A *4226:A 0
35 *627:8 *3625:B 9.90367e-05
36 *627:10 *993:23 5.85135e-05
37 *627:10 *993:46 7.41547e-05
38 *627:40 *878:33 0.000148903
39 *627:40 *993:46 5.4763e-05
40 *627:40 *1035:12 0
41 *627:42 *892:8 7.49615e-05
42 *627:42 *993:46 0.000183334
43 *627:44 *993:46 0.000110029
44 *627:55 *3440:A2 0.000198698
45 *627:59 *763:10 5.16583e-05
46 *627:98 *3793:A2 4.88515e-05
47 *627:98 *4217:A 3.18676e-05
48 *627:98 *892:8 0.00016191
49 *3441:B *627:55 0.000128154
50 *3936:RESET_B *3936:CLK 7.79781e-06
51 *3936:RESET_B *627:10 4.57538e-05
52 *3942:SET_B *627:40 9.65075e-05
53 *3943:D *627:42 6.26276e-05
54 *3943:D *627:44 9.0145e-05
55 *3944:D *3944:CLK 4.87953e-05
56 *3944:D *627:55 9.97744e-05
57 *3944:D *627:59 3.17067e-05
58 *3985:RESET_B *627:40 0.000419613
59 *4040:RESET_B *4040:CLK 2.29097e-05
60 *360:14 *627:8 5.33334e-05
61 *360:33 *627:55 9.13669e-05
62 *360:33 *627:59 7.58664e-05
63 *603:55 *3985:CLK 1.03245e-05
64 *603:105 *3985:CLK 1.31511e-05
*RES
1 *4099:X *627:8 14.7464 
2 *627:8 *627:10 4.98214 
3 *627:10 *3936:CLK 20.1393 
4 *627:10 *3931:CLK 14.7464 
5 *627:8 *627:40 14.3393 
6 *627:40 *627:42 4.64286 
7 *627:42 *627:44 2.17857 
8 *627:44 *4040:CLK 23.3893 
9 *627:44 *627:55 9.48214 
10 *627:55 *627:59 7.05357 
11 *627:59 *4038:CLK 11.0679 
12 *627:59 *3942:CLK 10.2464 
13 *627:55 *627:77 5.03571 
14 *627:77 *4111:A 9.72857 
15 *627:77 *3944:CLK 10.6571 
16 *627:42 *3943:CLK 9.3 
17 *627:40 *627:98 5.875 
18 *627:98 *3985:CLK 20.8536 
19 *627:98 *3929:CLK 12.3 
*END

*D_NET *628 0.01258
*CONN
*I *4043:CLK I *D sky130_fd_sc_hd__dfrtp_2
*I *4021:CLK I *D sky130_fd_sc_hd__dfrtp_2
*I *4039:CLK I *D sky130_fd_sc_hd__dfrtp_2
*I *4037:CLK I *D sky130_fd_sc_hd__dfrtp_2
*I *3930:CLK I *D sky130_fd_sc_hd__dfrtp_2
*I *3915:CLK I *D sky130_fd_sc_hd__dfrtp_2
*I *4045:CLK I *D sky130_fd_sc_hd__dfrtp_2
*I *4035:CLK I *D sky130_fd_sc_hd__dfrtp_2
*I *4036:CLK I *D sky130_fd_sc_hd__dfrtp_2
*I *4044:CLK I *D sky130_fd_sc_hd__dfrtp_2
*I *3939:CLK I *D sky130_fd_sc_hd__dfrtp_2
*I *3940:CLK I *D sky130_fd_sc_hd__dfrtp_2
*I *4100:X O *D sky130_fd_sc_hd__clkbuf_8
*CAP
1 *4043:CLK 0
2 *4021:CLK 0.000517504
3 *4039:CLK 0
4 *4037:CLK 0.000456846
5 *3930:CLK 0.000714848
6 *3915:CLK 0
7 *4045:CLK 0.000265611
8 *4035:CLK 0
9 *4036:CLK 0.000157601
10 *4044:CLK 0
11 *3939:CLK 0.000218209
12 *3940:CLK 0
13 *4100:X 0.000117745
14 *628:127 0.000559249
15 *628:97 0.00129804
16 *628:93 0.000230714
17 *628:91 0.000364255
18 *628:53 0.000888824
19 *628:46 0.000988454
20 *628:42 0.000974945
21 *628:27 0.000894826
22 *628:16 0.000408427
23 *628:14 0.000557388
24 *628:12 0.000792851
25 *3930:CLK *3422:A1_N 0
26 *3930:CLK *658:114 9.91086e-05
27 *3930:CLK *911:10 0
28 *3930:CLK *1096:8 0
29 *3930:CLK *1096:29 3.23322e-05
30 *3939:CLK *879:8 1.07719e-05
31 *3939:CLK *879:25 7.73184e-05
32 *4021:CLK *885:62 9.5623e-05
33 *4036:CLK *3853:A1 0
34 *4036:CLK *887:82 0.00010096
35 *4045:CLK *3761:A 0
36 *4045:CLK *4071:A 0
37 *628:12 *4043:D 0
38 *628:12 *911:10 0.000175526
39 *628:12 *1030:8 0
40 *628:12 *1030:16 5.52302e-05
41 *628:42 *3996:D 0
42 *628:42 *879:25 0.00019196
43 *628:91 *3845:B1 5.33005e-05
44 *628:91 *659:47 0.000165269
45 *628:91 *659:58 3.17148e-05
46 *628:91 *899:82 0.00015234
47 *628:93 *659:16 3.12463e-05
48 *628:93 *659:47 8.32242e-05
49 *628:93 *899:82 0.000175519
50 *628:97 *659:16 9.87983e-06
51 *628:97 *911:10 0
52 *628:127 *885:62 3.67142e-05
53 *628:127 *899:82 5.52302e-05
54 *3939:RESET_B *3939:CLK 0.000181796
55 *3940:D *628:27 5.33433e-05
56 *3940:RESET_B *3939:CLK 4.57538e-05
57 *3996:SET_B *628:42 0
58 *4035:D *4036:CLK 5.57914e-05
59 *4036:D *4036:CLK 0
60 *4037:D *4037:CLK 7.13131e-05
61 *4037:RESET_B *3930:CLK 1.19309e-05
62 *4037:RESET_B *628:93 5.41797e-06
63 *4037:RESET_B *628:97 4.8476e-05
64 *4037:RESET_B *628:127 9.87983e-06
65 *4039:D *3930:CLK 0
66 *4039:D *4021:CLK 2.89114e-05
67 *4043:RESET_B *628:91 1.46624e-05
68 *4149:A *3930:CLK 1.31516e-05
*RES
1 *4100:X *628:12 21.0857 
2 *628:12 *628:14 5.875 
3 *628:14 *628:16 3 
4 *628:16 *3940:CLK 9.3 
5 *628:16 *628:27 7.41071 
6 *628:27 *3939:CLK 18.8536 
7 *628:27 *628:42 9.23214 
8 *628:42 *628:46 8.73214 
9 *628:46 *4044:CLK 9.3 
10 *628:46 *628:53 11.625 
11 *628:53 *4036:CLK 21.8 
12 *628:53 *4035:CLK 9.3 
13 *628:42 *4045:CLK 18.4786 
14 *628:14 *3915:CLK 9.3 
15 *628:12 *628:91 10.875 
16 *628:91 *628:93 2.40179 
17 *628:93 *628:97 2.63393 
18 *628:97 *3930:CLK 24.1571 
19 *628:97 *4037:CLK 19.5857 
20 *628:93 *628:127 5.72321 
21 *628:127 *4039:CLK 9.3 
22 *628:127 *4021:CLK 18.05 
23 *628:91 *4043:CLK 13.8 
*END

*D_NET *629 0.000621493
*CONN
*I *4071:A I *D sky130_fd_sc_hd__ebufn_2
*I *4072:LO O *D sky130_fd_sc_hd__conb_1
*CAP
1 *4071:A 0.000281465
2 *4072:LO 0.000281465
3 *4071:A *3761:A 0
4 *4071:A *4044:D 0
5 *4045:CLK *4071:A 0
6 *4045:D *4071:A 3.92854e-05
7 *4071:TE_B *4071:A 1.92789e-05
8 *50:8 *4071:A 0
*RES
1 *4072:LO *4071:A 32.5107 
*END

*D_NET *630 0.000504025
*CONN
*I *3640:A1 I *D sky130_fd_sc_hd__mux2_1
*I *4333:X O *D sky130_fd_sc_hd__clkdlybuf4s25_1
*CAP
1 *3640:A1 0.000104451
2 *4333:X 0.000104451
3 *3640:A1 *3640:A0 5.33005e-05
4 *3640:A1 *909:48 5.41794e-05
5 *3640:A1 *909:63 0.000128161
6 *3640:A1 *916:77 5.9483e-05
*RES
1 *4333:X *3640:A1 30.3857 
*END

*D_NET *631 0.00466314
*CONN
*I *3406:A2 I *D sky130_fd_sc_hd__a21o_2
*I *3410:A2 I *D sky130_fd_sc_hd__a2111o_2
*I *3407:A I *D sky130_fd_sc_hd__nand2_2
*I *3405:B I *D sky130_fd_sc_hd__xor2_2
*I *4334:X O *D sky130_fd_sc_hd__clkdlybuf4s25_1
*CAP
1 *3406:A2 0.000213141
2 *3410:A2 7.61652e-06
3 *3407:A 0.000105616
4 *3405:B 0.000221606
5 *4334:X 0.000288589
6 *631:27 0.000489131
7 *631:12 0.000858166
8 *631:10 0.000762392
9 *3405:B *3405:A 0
10 *3406:A2 *3406:B1 5.52238e-05
11 *3406:A2 *3414:A 5.52238e-05
12 *3407:A *3407:B 3.46677e-05
13 *3410:A2 *3407:B 2.08464e-05
14 *631:10 *664:10 5.52238e-05
15 *631:12 *3410:D1 0.000364974
16 *631:12 *664:10 0.000150618
17 *631:27 *3407:B 9.95593e-05
18 *631:27 *3410:A1 3.17578e-05
19 *631:27 *906:12 0.000181796
20 *3408:A1 *3405:B 3.34672e-05
21 *3408:A1 *631:12 1.77672e-05
22 *3408:B1 *631:12 0.000245349
23 *3989:D *3405:B 0
24 *3991:CLK *631:10 1.40306e-05
25 *4337:A *631:10 3.18676e-05
26 *4375:A *3410:A2 0
27 *4375:A *631:27 0.000116374
28 *412:12 *3406:A2 0
29 *412:12 *631:12 0
30 *412:22 *631:12 0.000145518
31 *413:22 *3407:A 1.00073e-05
32 *414:23 *3406:A2 0
33 *624:91 *3405:B 5.26091e-05
*RES
1 *4334:X *631:10 18.4607 
2 *631:10 *631:12 7.41071 
3 *631:12 *3405:B 8.875 
4 *631:12 *631:27 10.1071 
5 *631:27 *3407:A 11.0857 
6 *631:27 *3410:A2 9.72857 
7 *631:10 *3406:A2 17.4964 
*END

*D_NET *632 0.013219
*CONN
*I *4170:A I *D sky130_fd_sc_hd__clkdlybuf4s25_1
*I *4171:A I *D sky130_fd_sc_hd__clkdlybuf4s25_1
*I *3909:RESET_B I *D sky130_fd_sc_hd__dfrtp_2
*I *4172:A I *D sky130_fd_sc_hd__clkdlybuf4s25_1
*I *3908:RESET_B I *D sky130_fd_sc_hd__dfrtp_2
*I *4113:X O *D sky130_fd_sc_hd__clkdlybuf4s25_1
*CAP
1 *4170:A 0.000470868
2 *4171:A 0
3 *3909:RESET_B 0.000243249
4 *4172:A 0.000887254
5 *3908:RESET_B 6.25893e-05
6 *4113:X 0
7 *632:22 0.00142854
8 *632:12 0.00247445
9 *632:6 0.0021426
10 *632:4 0.000499652
11 *3909:RESET_B *973:66 0
12 *4170:A *3703:A1 0
13 *4170:A *854:26 0
14 *4170:A *909:29 4.58194e-05
15 *4170:A *987:10 3.38136e-05
16 *4172:A *3712:B 0
17 *632:6 *909:29 2.59355e-05
18 *632:12 *3620:B1 0.000168217
19 *632:12 *3620:B2 2.66026e-05
20 *632:12 *3622:A2 1.33248e-05
21 *632:12 *3631:S 1.76135e-05
22 *632:12 *3694:A1 0.000154486
23 *632:12 *3759:A1 0
24 *632:12 *4058:D 0
25 *632:12 *774:10 0
26 *632:12 *909:29 0.000665909
27 *632:12 *954:10 8.71069e-05
28 *632:12 *962:10 0
29 *632:12 *962:16 0
30 *632:12 *970:23 0
31 *3485:A *4170:A 8.10997e-05
32 *3485:D *4170:A 8.64443e-05
33 *3619:A *632:12 4.71964e-05
34 *3696:A2 *632:12 0.000127939
35 *3704:B2 *4170:A 0.000222878
36 *3715:A1 *4172:A 3.48705e-05
37 *3715:A2 *4172:A 0.00044366
38 *3717:A2 *3909:RESET_B 2.26424e-05
39 *3720:B *632:12 0
40 *3721:C *4172:A 6.00733e-05
41 *3722:A2 *4172:A 1.02504e-05
42 *3724:C *632:22 0.000267107
43 *3727:B *632:22 0.00010326
44 *3730:B *3909:RESET_B 0.000127446
45 *3730:C *3909:RESET_B 4.43046e-05
46 *3899:CLK *632:12 0.000217361
47 *3900:D *632:12 3.20477e-05
48 *3906:D *4172:A 5.41494e-05
49 *3907:D *632:22 0.000195555
50 *3908:D *632:22 1.91418e-05
51 *3909:D *3909:RESET_B 7.96359e-05
52 *4063:CLK *632:12 0
53 *4063:CLK *632:22 0
54 *4092:A *632:12 0
55 *4274:A *632:12 0
56 *434:43 *632:12 0.000383868
57 *564:14 *632:12 0
58 *569:24 *4170:A 0.000128154
59 *579:10 *3909:RESET_B 0
60 *580:10 *3909:RESET_B 1.17968e-05
61 *580:10 *632:22 0.000176353
62 *582:23 *3909:RESET_B 0.000133487
63 *582:23 *632:22 8.98801e-05
64 *582:29 *632:22 7.25296e-05
65 *587:8 *632:12 3.5707e-05
66 *587:8 *632:22 6.07532e-05
67 *588:16 *632:22 0
68 *620:58 *632:12 9.25014e-06
69 *620:79 *632:12 0.000192327
70 *620:90 *632:12 0.000199782
*RES
1 *4113:X *632:4 9.3 
2 *632:4 *632:6 0.535714 
3 *632:6 *632:12 49.9464 
4 *632:12 *3908:RESET_B 5.38393 
5 *632:12 *632:22 9.53571 
6 *632:22 *4172:A 36.7286 
7 *632:22 *3909:RESET_B 10.75 
8 *632:6 *4171:A 9.3 
9 *632:4 *4170:A 29.0857 
*END

*D_NET *633 0.0032378
*CONN
*I *3962:RESET_B I *D sky130_fd_sc_hd__dfrtp_2
*I *4376:A I *D sky130_fd_sc_hd__clkbuf_4
*I *3867:RESET_B I *D sky130_fd_sc_hd__dfrtp_2
*I *4114:X O *D sky130_fd_sc_hd__clkdlybuf4s25_1
*CAP
1 *3962:RESET_B 0.000159091
2 *4376:A 4.80306e-05
3 *3867:RESET_B 0.000440633
4 *4114:X 0.000534839
5 *633:10 0.000864411
6 *3867:RESET_B *981:10 0.000104974
7 *3867:RESET_B *981:27 0.000434783
8 *3962:RESET_B *3960:D 0
9 *3962:RESET_B *981:10 0
10 *4376:A *638:26 3.69047e-06
11 *4376:A *646:18 9.41642e-05
12 *4376:A *909:23 6.05161e-06
13 *633:10 *4114:A 7.62323e-05
14 *633:10 *638:26 0.000137005
15 *633:10 *646:12 0
16 *633:10 *981:27 0.000333898
*RES
1 *4114:X *633:10 23.2286 
2 *633:10 *3867:RESET_B 11.3036 
3 *633:10 *4376:A 14.7464 
4 *3867:RESET_B *3962:RESET_B 11.8571 
*END

*D_NET *634 0.0137636
*CONN
*I *3897:RESET_B I *D sky130_fd_sc_hd__dfrtp_2
*I *4063:RESET_B I *D sky130_fd_sc_hd__dfrtp_2
*I *3861:RESET_B I *D sky130_fd_sc_hd__dfrtp_2
*I *3952:RESET_B I *D sky130_fd_sc_hd__dfrtp_2
*I *3949:RESET_B I *D sky130_fd_sc_hd__dfrtp_2
*I *3904:RESET_B I *D sky130_fd_sc_hd__dfrtp_2
*I *3866:RESET_B I *D sky130_fd_sc_hd__dfrtp_2
*I *3862:RESET_B I *D sky130_fd_sc_hd__dfrtp_2
*I *4376:X O *D sky130_fd_sc_hd__clkbuf_4
*CAP
1 *3897:RESET_B 0.000111041
2 *4063:RESET_B 0.000766244
3 *3861:RESET_B 0.000382756
4 *3952:RESET_B 0.000186202
5 *3949:RESET_B 0.000323848
6 *3904:RESET_B 0.000791903
7 *3866:RESET_B 2.80706e-05
8 *3862:RESET_B 0.00104605
9 *4376:X 0.000172528
10 *634:110 0.000990549
11 *634:42 0.00140146
12 *634:34 0.000810719
13 *634:24 0.000373757
14 *634:8 0.000955967
15 *3861:RESET_B *987:10 3.60365e-05
16 *3862:RESET_B *3639:A1 0.000186669
17 *3862:RESET_B *3639:S 0
18 *3862:RESET_B *3977:RESET_B 0.000125717
19 *3862:RESET_B *908:10 0
20 *3862:RESET_B *908:16 0
21 *3862:RESET_B *909:8 0
22 *3862:RESET_B *988:6 0.000138106
23 *3866:RESET_B *924:8 2.48941e-05
24 *3904:RESET_B *3447:B 5.33005e-05
25 *3904:RESET_B *1002:45 4.63219e-05
26 *3904:RESET_B *1002:51 0.000116011
27 *3904:RESET_B *1007:10 0
28 *3904:RESET_B *1007:14 0.00012788
29 *3949:RESET_B *646:41 0.000583353
30 *3949:RESET_B *1004:12 0
31 *3952:RESET_B *3445:A 4.41329e-06
32 *3952:RESET_B *4306:A 4.47354e-05
33 *3952:RESET_B *1007:10 6.05161e-06
34 *4063:RESET_B *3621:B1 6.8646e-06
35 *4063:RESET_B *3623:B2 0.000267915
36 *4063:RESET_B *3753:A1 0
37 *4063:RESET_B *4058:RESET_B 0
38 *4063:RESET_B *4242:A 9.76491e-05
39 *4063:RESET_B *4271:A 0.000137855
40 *4063:RESET_B *875:58 0.000146953
41 *4063:RESET_B *961:26 0
42 *4063:RESET_B *968:21 0.000117144
43 *634:8 *909:23 0.000274294
44 *634:34 *3445:A 3.59945e-05
45 *634:42 *3447:B 0.000208361
46 *634:42 *3448:A 2.77693e-05
47 *634:42 *3452:C 2.83425e-05
48 *634:42 *3687:A2 9.67754e-05
49 *634:42 *646:41 4.49007e-05
50 *634:42 *981:27 1.46689e-05
51 *634:42 *1002:20 4.2538e-05
52 *634:110 *3621:A2 0.000252347
53 *634:110 *3688:A1 0
54 *3466:B *3952:RESET_B 0.000100248
55 *3524:A2 *3952:RESET_B 3.41939e-05
56 *3524:A2 *634:42 5.66971e-05
57 *3524:B1 *3949:RESET_B 6.59765e-05
58 *3621:C1 *4063:RESET_B 7.83366e-05
59 *3623:C1 *4063:RESET_B 0.000183384
60 *3862:CLK *3861:RESET_B 0.00016135
61 *3866:D *3862:RESET_B 4.37999e-05
62 *3904:CLK *3904:RESET_B 0.000227971
63 *3972:D *3949:RESET_B 0
64 *106:18 *3862:RESET_B 7.53623e-05
65 *106:18 *634:24 3.20387e-05
66 *109:28 *3904:RESET_B 0.000204189
67 *431:10 *3949:RESET_B 0.000105286
68 *431:10 *634:42 0.000146485
69 *435:8 *634:42 5.66971e-05
70 *618:57 *3904:RESET_B 0.000473844
71 *618:109 *3862:RESET_B 8.27403e-05
*RES
1 *4376:X *634:8 16.3893 
2 *634:8 *3862:RESET_B 17.9911 
3 *634:8 *634:24 2.25 
4 *634:24 *3866:RESET_B 4.97321 
5 *634:24 *634:34 4.07143 
6 *634:34 *634:42 17.2143 
7 *634:42 *3904:RESET_B 19.6696 
8 *634:42 *3949:RESET_B 12.875 
9 *634:34 *3952:RESET_B 8.34821 
10 *3862:RESET_B *3861:RESET_B 6.44643 
11 *3904:RESET_B *634:110 12.1607 
12 *634:110 *4063:RESET_B 26.6964 
13 *634:110 *3897:RESET_B 1.70536 
*END

*D_NET *635 0.00151518
*CONN
*I *4377:A I *D sky130_fd_sc_hd__buf_2
*I *4060:RESET_B I *D sky130_fd_sc_hd__dfrtp_2
*I *4061:RESET_B I *D sky130_fd_sc_hd__dfrtp_2
*I *4115:X O *D sky130_fd_sc_hd__clkdlybuf4s25_1
*CAP
1 *4377:A 0.000257271
2 *4060:RESET_B 6.92993e-05
3 *4061:RESET_B 0.000169054
4 *4115:X 0
5 *635:6 0.000386584
6 *635:4 0.000405502
7 *4060:RESET_B *3757:A0 0.000128161
8 *4061:RESET_B *965:8 7.70134e-05
9 *4377:A *936:33 2.22999e-05
10 *4060:D *4060:RESET_B 0
11 *4061:CLK *4060:RESET_B 0
*RES
1 *4115:X *635:4 9.3 
2 *635:4 *635:6 2.17857 
3 *635:6 *4061:RESET_B 2.9375 
4 *635:6 *4060:RESET_B 10.6429 
5 *635:4 *4377:A 13.1393 
*END

*D_NET *636 0.00976387
*CONN
*I *3775:B1 I *D sky130_fd_sc_hd__o21a_2
*I *3806:B1 I *D sky130_fd_sc_hd__o21a_2
*I *3905:RESET_B I *D sky130_fd_sc_hd__dfrtp_2
*I *3957:SET_B I *D sky130_fd_sc_hd__dfstp_2
*I *3984:RESET_B I *D sky130_fd_sc_hd__dfrtp_2
*I *3981:RESET_B I *D sky130_fd_sc_hd__dfrtp_2
*I *3979:RESET_B I *D sky130_fd_sc_hd__dfrtp_2
*I *3954:RESET_B I *D sky130_fd_sc_hd__dfrtp_2
*I *4377:X O *D sky130_fd_sc_hd__buf_2
*CAP
1 *3775:B1 0.000212296
2 *3806:B1 0
3 *3905:RESET_B 0.000542506
4 *3957:SET_B 0
5 *3984:RESET_B 0.000573394
6 *3981:RESET_B 0
7 *3979:RESET_B 0.000779878
8 *3954:RESET_B 0.0011525
9 *4377:X 0.000507051
10 *636:109 0.000443253
11 *636:74 0.000738517
12 *636:64 0.000613633
13 *636:57 0.000209616
14 *3775:B1 *3806:A1 0.000218685
15 *3775:B1 *880:21 0.000335636
16 *3775:B1 *894:22 0.000560551
17 *3905:RESET_B *3402:B 0
18 *3905:RESET_B *3715:B1 0.000100625
19 *3905:RESET_B *646:53 0.000231651
20 *3905:RESET_B *907:40 0.000159858
21 *3905:RESET_B *936:21 0.000264134
22 *3954:RESET_B *4115:A 0
23 *3954:RESET_B *4211:A 0.000127446
24 *3954:RESET_B *936:33 9.90431e-05
25 *3979:RESET_B *907:40 0.00020304
26 *636:57 *907:40 0.000108209
27 *636:64 *907:40 4.57445e-05
28 *636:74 *907:40 0.000143503
29 *636:109 *3470:B1 1.08359e-05
30 *636:109 *3470:B2 9.25014e-06
31 *636:109 *3806:A1 9.66977e-05
32 *636:109 *894:22 2.6269e-05
33 *636:109 *894:32 5.59013e-05
34 *636:109 *933:12 9.91812e-05
35 *636:109 *936:33 0
36 *3954:CLK *3979:RESET_B 0.000113456
37 *3954:D *3979:RESET_B 0
38 *3957:D *3905:RESET_B 7.79781e-06
39 *3957:D *636:74 4.57538e-05
40 *3979:CLK *3979:RESET_B 6.05161e-06
41 *3982:D *3905:RESET_B 5.33005e-05
42 *3983:D *3954:RESET_B 0.000216304
43 *4093:A *3954:RESET_B 3.17067e-05
44 *4093:A *636:109 0.000230761
45 *109:14 *3954:RESET_B 0.000175694
46 *353:10 *3905:RESET_B 0
47 *353:10 *636:57 0
48 *353:10 *636:64 0
49 *353:10 *636:74 0
50 *617:32 *3979:RESET_B 9.08751e-05
51 *617:36 *3979:RESET_B 4.1331e-06
52 *621:29 *3984:RESET_B 0.000119135
*RES
1 *4377:X *3954:RESET_B 29.7732 
2 *3954:RESET_B *3979:RESET_B 20.4286 
3 *3979:RESET_B *636:57 7.96429 
4 *636:57 *3981:RESET_B 4.5 
5 *636:57 *636:64 1.64286 
6 *636:64 *3984:RESET_B 9.90179 
7 *636:64 *636:74 4.98214 
8 *636:74 *3957:SET_B 4.5 
9 *636:74 *3905:RESET_B 18.8661 
10 *3984:RESET_B *636:109 15.1696 
11 *636:109 *3806:B1 9.3 
12 *636:109 *3775:B1 16.55 
*END

*D_NET *637 0.00479621
*CONN
*I *3958:RESET_B I *D sky130_fd_sc_hd__dfrtp_2
*I *3955:SET_B I *D sky130_fd_sc_hd__dfstp_2
*I *3974:RESET_B I *D sky130_fd_sc_hd__dfrtp_2
*I *3956:RESET_B I *D sky130_fd_sc_hd__dfrtp_2
*I *3983:RESET_B I *D sky130_fd_sc_hd__dfrtp_2
*I *4116:X O *D sky130_fd_sc_hd__clkdlybuf4s25_1
*CAP
1 *3958:RESET_B 0.000302806
2 *3955:SET_B 0.000379872
3 *3974:RESET_B 0
4 *3956:RESET_B 0
5 *3983:RESET_B 0.000199506
6 *4116:X 0.000452731
7 *637:12 0.000416683
8 *637:10 0.00030023
9 *637:6 0.000612851
10 *3958:RESET_B *3470:B1 0.000335922
11 *3958:RESET_B *4323:A 9.25014e-06
12 *3958:RESET_B *646:41 4.64597e-05
13 *3958:RESET_B *646:43 0.0004011
14 *3958:RESET_B *938:12 9.19474e-05
15 *3983:RESET_B *646:41 0
16 *3983:RESET_B *749:12 0
17 *3983:RESET_B *905:16 8.91726e-05
18 *3983:RESET_B *905:20 1.20135e-05
19 *637:6 *3468:A2 3.45806e-05
20 *637:6 *4301:A 5.19842e-06
21 *637:10 *646:41 0
22 *637:10 *905:16 0
23 *637:12 *646:41 0
24 *637:12 *905:16 0.000198305
25 *3363:A2 *3958:RESET_B 0.000104534
26 *3451:A1 *637:6 0.000136898
27 *3469:B1 *3958:RESET_B 0.000254337
28 *3955:D *3958:RESET_B 0.000128161
29 *4093:A *3958:RESET_B 0.000149647
30 *362:25 *637:6 6.22969e-05
31 *621:91 *3958:RESET_B 7.17094e-05
*RES
1 *4116:X *637:6 14.7643 
2 *637:6 *637:10 5.83929 
3 *637:10 *637:12 4.98214 
4 *637:12 *3983:RESET_B 8.4375 
5 *637:12 *3956:RESET_B 4.5 
6 *637:10 *3974:RESET_B 4.5 
7 *637:6 *3955:SET_B 1.3125 
8 *3955:SET_B *3958:RESET_B 20.2589 
*END

*D_NET *638 0.0095545
*CONN
*I *4115:A I *D sky130_fd_sc_hd__clkdlybuf4s25_1
*I *4116:A I *D sky130_fd_sc_hd__clkdlybuf4s25_1
*I *3972:RESET_B I *D sky130_fd_sc_hd__dfrtp_2
*I *4114:A I *D sky130_fd_sc_hd__clkdlybuf4s25_1
*I *3977:RESET_B I *D sky130_fd_sc_hd__dfrtp_2
*I *4117:X O *D sky130_fd_sc_hd__clkdlybuf4s25_1
*CAP
1 *4115:A 0.000166901
2 *4116:A 0.000399252
3 *3972:RESET_B 0.00084531
4 *4114:A 5.55214e-05
5 *3977:RESET_B 0.000397992
6 *4117:X 0.000664388
7 *638:37 0.00162201
8 *638:26 0.000866264
9 *3972:RESET_B *3679:A1 0.000138881
10 *3972:RESET_B *936:47 0.000166485
11 *3972:RESET_B *949:25 2.14658e-05
12 *3977:RESET_B *646:18 0.000526401
13 *4115:A *905:28 0
14 *4115:A *936:33 8.32242e-05
15 *4116:A *3451:A2 0.00033153
16 *4116:A *3462:B2 0.000214485
17 *4116:A *3468:B2 9.25014e-06
18 *4116:A *4197:A 0.000603353
19 *4116:A *978:18 1.58163e-05
20 *4116:A *1008:10 0.000242372
21 *638:26 *646:18 2.47833e-05
22 *638:26 *981:27 1.78393e-05
23 *638:37 *3462:A1 3.5707e-05
24 *638:37 *3462:B2 0.000187893
25 *638:37 *4197:A 0.000153047
26 *638:37 *981:27 2.47755e-05
27 *638:37 *1002:16 0
28 *3451:A1 *4116:A 5.33005e-05
29 *3466:A *638:37 0.000101336
30 *3862:RESET_B *3977:RESET_B 0.000125717
31 *3946:D *638:37 0.000503278
32 *3947:D *638:37 0
33 *3954:RESET_B *4115:A 0
34 *4302:A *4116:A 0.000398043
35 *4376:A *638:26 3.69047e-06
36 *106:18 *3977:RESET_B 0.000127439
37 *109:14 *4115:A 0
38 *114:10 *4115:A 0
39 *364:45 *3972:RESET_B 2.65105e-05
40 *603:27 *4115:A 0.000104092
41 *604:70 *4115:A 8.2912e-05
42 *633:10 *4114:A 7.62323e-05
43 *633:10 *638:26 0.000137005
*RES
1 *4117:X *3977:RESET_B 24.9964 
2 *4117:X *638:26 18.8179 
3 *638:26 *4114:A 15.1571 
4 *638:26 *638:37 14.3929 
5 *638:37 *3972:RESET_B 15.9375 
6 *638:37 *4116:A 29.3357 
7 *3972:RESET_B *4115:A 22.4518 
*END

*D_NET *639 0.00328045
*CONN
*I *4053:RESET_B I *D sky130_fd_sc_hd__dfrtp_2
*I *4378:A I *D sky130_fd_sc_hd__clkbuf_4
*I *4118:X O *D sky130_fd_sc_hd__clkdlybuf4s25_1
*CAP
1 *4053:RESET_B 0.000235376
2 *4378:A 6.76435e-05
3 *4118:X 0.000586677
4 *639:8 0.000889696
5 *4053:RESET_B *3677:B 4.25523e-05
6 *4378:A *3677:B 4.43046e-05
7 *4378:A *3745:A1 8.88635e-05
8 *639:8 *4118:A 0.000569213
9 *639:8 *889:57 0.000168057
10 *3359:A *4053:RESET_B 1.01912e-05
11 *3664:A0 *4378:A 1.92905e-05
12 *3678:S *4053:RESET_B 4.73656e-05
13 *3678:S *4378:A 0.000152333
14 *3884:D *4053:RESET_B 0
15 *11:10 *4053:RESET_B 0
16 *51:12 *4053:RESET_B 0.000134064
17 *622:17 *4053:RESET_B 0.000224826
*RES
1 *4118:X *639:8 22.1393 
2 *639:8 *4378:A 16.2821 
3 *639:8 *4053:RESET_B 10.6964 
*END

*D_NET *640 0.0087751
*CONN
*I *3873:RESET_B I *D sky130_fd_sc_hd__dfrtp_2
*I *3875:RESET_B I *D sky130_fd_sc_hd__dfrtp_2
*I *4050:RESET_B I *D sky130_fd_sc_hd__dfrtp_2
*I *3871:RESET_B I *D sky130_fd_sc_hd__dfrtp_2
*I *4049:RESET_B I *D sky130_fd_sc_hd__dfrtp_2
*I *4051:RESET_B I *D sky130_fd_sc_hd__dfrtp_2
*I *4056:RESET_B I *D sky130_fd_sc_hd__dfrtp_2
*I *4054:RESET_B I *D sky130_fd_sc_hd__dfrtp_2
*I *3869:RESET_B I *D sky130_fd_sc_hd__dfrtp_2
*I *4378:X O *D sky130_fd_sc_hd__clkbuf_4
*CAP
1 *3873:RESET_B 0.000182275
2 *3875:RESET_B 0
3 *4050:RESET_B 0.000147363
4 *3871:RESET_B 0.000370609
5 *4049:RESET_B 0.000151794
6 *4051:RESET_B 6.18474e-05
7 *4056:RESET_B 0.000358431
8 *4054:RESET_B 0
9 *3869:RESET_B 0.000430737
10 *4378:X 4.94848e-05
11 *640:105 0.000248206
12 *640:35 0.00056595
13 *640:28 0.0007521
14 *640:14 0.0012762
15 *640:8 0.000892354
16 *3869:RESET_B *926:8 3.77053e-05
17 *3871:RESET_B *928:8 1.46231e-05
18 *3873:RESET_B *3711:A 0
19 *3873:RESET_B *4396:A 0
20 *3873:RESET_B *909:72 9.40388e-05
21 *4049:RESET_B *3664:A1 0
22 *4049:RESET_B *3745:A1 3.67364e-05
23 *4049:RESET_B *4285:A 0
24 *4050:RESET_B *3667:A 4.66203e-05
25 *4050:RESET_B *3746:S 0.000103267
26 *4050:RESET_B *3752:A0 9.25014e-06
27 *4050:RESET_B *3752:S 1.27739e-05
28 *640:8 *3745:A0 5.33005e-05
29 *640:8 *3745:A1 9.71197e-05
30 *640:14 *3745:A0 0.00012401
31 *640:14 *3745:A1 1.08359e-05
32 *640:14 *907:26 0.000315158
33 *640:14 *926:8 2.95641e-05
34 *640:28 *3641:A1 0
35 *640:28 *3750:A0 0.000242451
36 *640:35 *3747:A1 0.000123495
37 *640:35 *3750:A0 0.000222231
38 *640:35 *3750:S 4.22387e-05
39 *640:105 *4396:A 0
40 *640:105 *909:72 6.97972e-05
41 *3664:A0 *640:8 0.000181803
42 *3869:CLK *3871:RESET_B 6.51946e-05
43 *3869:D *3871:RESET_B 5.33005e-05
44 *3884:D *4049:RESET_B 7.73758e-05
45 *3890:D *640:28 0.000148449
46 *3891:D *640:14 1.64343e-05
47 *3905:D *640:14 2.89114e-05
48 *4051:CLK *4051:RESET_B 7.20217e-06
49 *4051:CLK *4056:RESET_B 0.000173738
50 *4051:D *4056:RESET_B 0
51 *4055:CLK *4050:RESET_B 5.03175e-05
52 *4095:A *640:28 0
53 *4095:A *640:35 0
54 *359:61 *640:28 0
55 *623:25 *3871:RESET_B 0.00018713
56 *623:101 *640:28 7.9053e-05
57 *623:107 *640:14 0.000310051
58 *623:107 *640:28 0.000174835
59 *624:16 *4056:RESET_B 4.87327e-05
*RES
1 *4378:X *640:8 15.5679 
2 *640:8 *640:14 18.0714 
3 *640:14 *3869:RESET_B 2.11607 
4 *640:14 *640:28 15 
5 *640:28 *4054:RESET_B 4.5 
6 *640:28 *640:35 6.19643 
7 *640:35 *4056:RESET_B 8.80357 
8 *640:35 *4051:RESET_B 5.40179 
9 *640:8 *4049:RESET_B 7.35714 
10 *3869:RESET_B *3871:RESET_B 14.9375 
11 *4056:RESET_B *4050:RESET_B 12.125 
12 *3871:RESET_B *640:105 6.14286 
13 *640:105 *3875:RESET_B 4.5 
14 *640:105 *3873:RESET_B 8.66964 
*END

*D_NET *641 0.0176354
*CONN
*I *3797:B1 I *D sky130_fd_sc_hd__o21a_2
*I *3802:B1 I *D sky130_fd_sc_hd__o21a_2
*I *3801:B1 I *D sky130_fd_sc_hd__o21a_2
*I *3800:B1 I *D sky130_fd_sc_hd__o21a_2
*I *3799:B1 I *D sky130_fd_sc_hd__o21a_2
*I *3798:B1 I *D sky130_fd_sc_hd__o21a_2
*I *3795:B1 I *D sky130_fd_sc_hd__o21a_2
*I *3796:B1 I *D sky130_fd_sc_hd__o21a_2
*I *4055:RESET_B I *D sky130_fd_sc_hd__dfrtp_2
*I *4118:A I *D sky130_fd_sc_hd__clkdlybuf4s25_1
*I *4119:X O *D sky130_fd_sc_hd__clkdlybuf4s25_1
*CAP
1 *3797:B1 0
2 *3802:B1 0.000259736
3 *3801:B1 2.98886e-05
4 *3800:B1 3.40919e-05
5 *3799:B1 0.000257532
6 *3798:B1 0.000113079
7 *3795:B1 0.000213234
8 *3796:B1 4.74141e-05
9 *4055:RESET_B 0
10 *4118:A 0.000622133
11 *4119:X 0.000542403
12 *641:139 0.000479371
13 *641:124 0.000697497
14 *641:99 0.000980555
15 *641:84 0.000712043
16 *641:58 0.000718996
17 *641:54 0.00118795
18 *641:37 0.0017417
19 *641:10 0.00182703
20 *3795:B1 *3507:B 4.4873e-05
21 *3795:B1 *3795:A2 1.32056e-05
22 *3795:B1 *876:30 1.65946e-05
23 *3796:B1 *3507:B 2.14658e-05
24 *3796:B1 *3795:A2 1.24368e-05
25 *3796:B1 *876:30 8.40486e-05
26 *3796:B1 *890:37 4.27935e-05
27 *3798:B1 *3798:A2 0.000142856
28 *3799:B1 *3406:A1 0
29 *3799:B1 *3799:A1 0.000122531
30 *3799:B1 *890:79 9.79845e-05
31 *3799:B1 *890:92 1.08528e-05
32 *3799:B1 *1057:12 5.52238e-05
33 *3801:B1 *890:113 6.05161e-06
34 *3801:B1 *1059:10 1.83136e-05
35 *3802:B1 *3420:A 0.000330667
36 *3802:B1 *3802:A1 0
37 *3802:B1 *3802:A2 0
38 *4118:A *643:67 0
39 *4118:A *889:57 0.000525394
40 *4118:A *889:66 3.9004e-05
41 *4118:A *947:28 0.000300221
42 *641:10 *3712:B 0
43 *641:10 *646:61 0.000105163
44 *641:10 *907:18 0.000115474
45 *641:10 *907:26 0.000149904
46 *641:37 *3751:A1 0.000222878
47 *641:37 *4049:D 3.47737e-05
48 *641:37 *4055:D 0
49 *641:37 *4208:A 5.57914e-05
50 *641:37 *646:61 0
51 *641:37 *785:10 0
52 *641:37 *889:81 0.000509322
53 *641:37 *889:91 8.54718e-05
54 *641:37 *907:18 0.000120787
55 *641:37 *907:102 7.57869e-05
56 *641:37 *934:26 0
57 *641:54 *3364:B 3.34295e-05
58 *641:54 *3364:C 2.59355e-05
59 *641:54 *3667:B 0.000377025
60 *641:54 *3751:A1 0.000118095
61 *641:54 *785:10 0
62 *641:54 *946:21 6.5185e-05
63 *641:54 *1041:10 0
64 *641:58 *3797:A2 7.45867e-05
65 *641:84 *3797:A2 2.21639e-05
66 *641:84 *890:29 0.000115511
67 *641:84 *890:37 2.01732e-05
68 *641:84 *890:60 0.000152262
69 *641:99 *3799:A1 0.00025884
70 *641:99 *876:87 3.12359e-05
71 *641:99 *890:60 1.6271e-05
72 *641:99 *890:79 0.000151293
73 *641:99 *1057:12 0.000270257
74 *641:124 *3799:A1 0.000105546
75 *641:124 *876:87 0
76 *641:124 *890:92 0.000230275
77 *641:139 *3420:A 0.000150618
78 *641:139 *3800:A2 3.62749e-05
79 *641:139 *3802:A2 0
80 *641:139 *876:100 0
81 *641:139 *890:113 0.000200688
82 *3388:B1 *641:54 5.5782e-05
83 *3668:S *641:54 5.52302e-05
84 *3678:A0 *641:10 0
85 *3891:D *641:10 7.92879e-05
86 *3905:CLK *641:10 0
87 *3990:CLK *641:84 0
88 *3990:CLK *641:99 0
89 *3991:D *3799:B1 0
90 *3991:RESET_B *3799:B1 9.91224e-05
91 *3992:RESET_B *3800:B1 6.05161e-06
92 *3992:RESET_B *641:124 0.000101363
93 *3994:RESET_B *3802:B1 0.000179656
94 *3995:CLK *3800:B1 5.49489e-05
95 *4042:D *641:37 0
96 *4049:CLK *641:37 0
97 *4282:A *641:37 6.5185e-05
98 *391:10 *641:54 5.74499e-06
99 *416:24 *641:124 1.01912e-05
100 *622:78 *4118:A 1.88048e-05
101 *625:8 *3799:B1 2.07462e-05
102 *625:21 *3799:B1 3.38773e-05
103 *639:8 *4118:A 0.000569213
*RES
1 *4119:X *641:10 23.8893 
2 *641:10 *4118:A 35.7107 
3 *641:10 *641:37 17.1071 
4 *641:37 *4055:RESET_B 4.5 
5 *641:37 *641:54 23.4643 
6 *641:54 *641:58 6.75 
7 *641:58 *3796:B1 15.175 
8 *641:58 *3795:B1 16.5321 
9 *641:58 *641:84 7.71429 
10 *641:84 *3798:B1 15.9786 
11 *641:84 *641:99 11.7679 
12 *641:99 *3799:B1 23.6393 
13 *641:99 *641:124 22.5446 
14 *641:124 *3800:B1 14.6125 
15 *641:124 *641:139 4.0625 
16 *641:139 *3801:B1 14.3357 
17 *641:139 *3802:B1 20.1393 
18 *641:54 *3797:B1 9.3 
*END

*D_NET *642 0.00292672
*CONN
*I *3406:B1 I *D sky130_fd_sc_hd__a21o_2
*I *3410:B1 I *D sky130_fd_sc_hd__a2111o_2
*I *3407:B I *D sky130_fd_sc_hd__nand2_2
*I *4335:X O *D sky130_fd_sc_hd__clkdlybuf4s25_1
*CAP
1 *3406:B1 0.000285246
2 *3410:B1 0
3 *3407:B 7.66083e-05
4 *4335:X 7.301e-05
5 *642:14 0.000440807
6 *642:6 0.000722454
7 *3406:B1 *3406:A1 9.90431e-05
8 *3406:B1 *3414:A 8.21467e-05
9 *3406:B1 *3414:B 8.27184e-06
10 *3407:B *3410:A1 6.89313e-05
11 *642:6 *3414:B 3.80953e-06
12 *642:14 *3410:A1 4.46186e-06
13 *642:14 *4391:A 6.42502e-05
14 *3406:A2 *3406:B1 5.52238e-05
15 *3407:A *3407:B 3.46677e-05
16 *3408:A1 *642:14 0
17 *3410:A2 *3407:B 2.08464e-05
18 *3414:C *3406:B1 5.1863e-05
19 *4335:A *642:14 0
20 *4336:A *642:14 0.000261786
21 *4337:A *642:14 0
22 *4338:A *3406:B1 0
23 *4338:A *642:6 5.71472e-05
24 *4375:A *642:14 1.31653e-05
25 *413:22 *3407:B 5.17614e-05
26 *414:10 *642:14 0.000158736
27 *414:23 *642:14 0.000192922
28 *631:27 *3407:B 9.95593e-05
*RES
1 *4335:X *642:6 10.2464 
2 *642:6 *642:14 18.7679 
3 *642:14 *3407:B 12.05 
4 *642:14 *3410:B1 9.3 
5 *642:6 *3406:B1 14.5143 
*END

*D_NET *643 0.0142762
*CONN
*I *3848:B1 I *D sky130_fd_sc_hd__o21a_2
*I *3790:B1 I *D sky130_fd_sc_hd__o21a_2
*I *3764:B1 I *D sky130_fd_sc_hd__o21a_2
*I *3765:B1 I *D sky130_fd_sc_hd__o21a_2
*I *3850:B1 I *D sky130_fd_sc_hd__o21a_2
*I *3849:B1 I *D sky130_fd_sc_hd__o21a_2
*I *4052:RESET_B I *D sky130_fd_sc_hd__dfrtp_2
*I *3982:SET_B I *D sky130_fd_sc_hd__dfstp_2
*I *3782:B1 I *D sky130_fd_sc_hd__o21a_2
*I *3883:SET_B I *D sky130_fd_sc_hd__dfstp_2
*I *4120:X O *D sky130_fd_sc_hd__clkdlybuf4s25_1
*CAP
1 *3848:B1 0
2 *3790:B1 0.0012834
3 *3764:B1 0
4 *3765:B1 0.000365263
5 *3850:B1 0.000313135
6 *3849:B1 0
7 *4052:RESET_B 2.80096e-05
8 *3982:SET_B 0.000103779
9 *3782:B1 0.000264224
10 *3883:SET_B 0.000674782
11 *4120:X 8.8054e-05
12 *643:107 0.0013602
13 *643:98 0.000249184
14 *643:89 0.000665299
15 *643:76 0.000714386
16 *643:67 0.000937143
17 *643:58 0.000872239
18 *643:43 0.000597426
19 *643:6 0.000714097
20 *3765:B1 *3765:A2 0.000227532
21 *3765:B1 *3850:A1 4.43256e-05
22 *3765:B1 *4138:A 9.76946e-05
23 *3782:B1 *3824:B1 8.63034e-05
24 *3782:B1 *4016:D 0.000171368
25 *3782:B1 *4122:A 1.5942e-05
26 *3782:B1 *4192:A 0.000315887
27 *3782:B1 *880:59 0.000114111
28 *3782:B1 *911:62 0.00018427
29 *3790:B1 *3434:A 2.21972e-05
30 *3790:B1 *3440:A2 0.00022267
31 *3790:B1 *3790:A1 3.99614e-06
32 *3790:B1 *3791:A2 0
33 *3790:B1 *4138:A 2.06112e-05
34 *3790:B1 *4151:A 0
35 *3790:B1 *878:33 6.11902e-05
36 *3790:B1 *878:43 9.64407e-05
37 *3790:B1 *1030:28 2.16719e-05
38 *3850:B1 *3850:A2 5.71472e-05
39 *3850:B1 *4041:D 7.84126e-05
40 *3883:SET_B *3824:A1 5.33005e-05
41 *3883:SET_B *3824:B1 8.00358e-05
42 *3982:SET_B *3402:B 5.01117e-05
43 *3982:SET_B *907:32 0
44 *643:6 *3430:A2 0.000248505
45 *643:6 *3824:B1 0.000290265
46 *643:6 *4120:A 0.000128496
47 *643:6 *911:48 3.5285e-05
48 *643:58 *3402:B 0.000109501
49 *643:58 *907:32 0
50 *643:67 *3402:B 4.57352e-05
51 *643:67 *3748:S 0
52 *643:67 *3846:A2 0
53 *643:67 *3849:A1 4.79842e-05
54 *643:67 *4073:A 0
55 *643:67 *907:32 0
56 *643:76 *3846:A2 0
57 *643:76 *3849:A1 4.1331e-06
58 *643:76 *892:68 0
59 *643:89 *3789:A2 0
60 *643:89 *892:68 0
61 *643:98 *3789:A1 0.000178459
62 *643:98 *4138:A 9.58624e-05
63 *643:98 *878:64 7.03295e-05
64 *643:98 *892:62 9.90367e-05
65 *643:98 *892:66 0.000405733
66 *643:107 *878:62 0.000167997
67 *643:107 *878:64 6.05161e-06
68 *643:107 *892:62 0.000308494
69 *3430:B2 *3883:SET_B 1.97695e-05
70 *3430:B2 *643:6 8.14134e-05
71 *3883:CLK *643:43 3.69047e-06
72 *3883:D *643:43 2.27416e-05
73 *3883:D *643:67 0
74 *3934:RESET_B *3782:B1 8.14342e-05
75 *3942:SET_B *3790:B1 0.000108516
76 *4041:RESET_B *643:76 9.4736e-05
77 *4073:TE_B *643:67 0
78 *4094:A *643:67 0
79 *4094:A *643:76 0
80 *4094:A *643:89 0
81 *4118:A *643:67 0
82 *4236:A *3782:B1 0.0001399
83 *354:20 *3883:SET_B 0.000143147
84 *354:20 *643:43 3.21895e-05
85 *603:105 *3790:B1 5.09887e-05
86 *622:78 *643:67 0
*RES
1 *4120:X *643:6 13.9429 
2 *643:6 *3883:SET_B 6.54464 
3 *643:6 *3782:B1 27.425 
4 *3883:SET_B *643:43 8.40179 
5 *643:43 *3982:SET_B 6.375 
6 *643:43 *643:58 4.125 
7 *643:58 *4052:RESET_B 5.03571 
8 *643:58 *643:67 11.9643 
9 *643:67 *3849:B1 13.8 
10 *643:67 *643:76 5.28571 
11 *643:76 *3850:B1 19.2643 
12 *643:76 *643:89 6.75 
13 *643:89 *3765:B1 16.4071 
14 *643:89 *643:98 6.69643 
15 *643:98 *3764:B1 9.3 
16 *643:98 *643:107 3.42857 
17 *643:107 *3790:B1 30.8992 
18 *643:107 *3848:B1 9.3 
*END

*D_NET *644 0.0146887
*CONN
*I *3772:B1 I *D sky130_fd_sc_hd__o21a_2
*I *3771:B1 I *D sky130_fd_sc_hd__o21a_2
*I *3770:B1 I *D sky130_fd_sc_hd__o21a_2
*I *3769:B1 I *D sky130_fd_sc_hd__o21a_2
*I *3768:B1 I *D sky130_fd_sc_hd__o21a_2
*I *3805:B1 I *D sky130_fd_sc_hd__o21a_2
*I *3774:B1 I *D sky130_fd_sc_hd__o21a_2
*I *3766:B1 I *D sky130_fd_sc_hd__o21a_2
*I *3767:B1 I *D sky130_fd_sc_hd__o21a_2
*I *3789:B1 I *D sky130_fd_sc_hd__o21a_2
*I *4121:X O *D sky130_fd_sc_hd__clkdlybuf4s25_1
*CAP
1 *3772:B1 0.000869369
2 *3771:B1 0.000623574
3 *3770:B1 0.000310337
4 *3769:B1 0
5 *3768:B1 7.244e-05
6 *3805:B1 0
7 *3774:B1 3.52685e-05
8 *3766:B1 0
9 *3767:B1 0.000537815
10 *3789:B1 0
11 *4121:X 0.000214516
12 *644:103 0.00120965
13 *644:89 0.000121605
14 *644:83 0.000645827
15 *644:77 0.00155289
16 *644:66 0.000645491
17 *644:55 0.000850012
18 *644:27 0.000968019
19 *644:14 0.000652356
20 *644:10 0.000968524
21 *3767:B1 *3388:A1 0.00023229
22 *3767:B1 *3766:A2 8.69386e-05
23 *3767:B1 *877:14 0.000128154
24 *3767:B1 *891:34 4.02462e-05
25 *3767:B1 *1041:21 4.57445e-05
26 *3768:B1 *3768:A1 2.44318e-05
27 *3768:B1 *3768:A2 0.000229456
28 *3768:B1 *3769:A2 4.27935e-05
29 *3768:B1 *3770:A2 9.90367e-05
30 *3770:B1 *3770:A1 0.000402784
31 *3770:B1 *3770:A2 2.44318e-05
32 *3771:B1 *3770:A1 2.24646e-05
33 *3772:B1 *893:80 0.000151071
34 *3772:B1 *1048:10 7.58967e-05
35 *3774:B1 *3363:A1 9.90431e-05
36 *644:10 *3434:A 0
37 *644:10 *3789:A1 0
38 *644:14 *3789:A1 9.90367e-05
39 *644:27 *3789:A1 7.27536e-05
40 *644:27 *891:34 4.66096e-05
41 *644:27 *1041:10 9.90431e-05
42 *644:55 *3434:A 0
43 *644:55 *3434:B 5.38886e-05
44 *644:55 *4137:A 0
45 *644:55 *645:101 0
46 *644:55 *877:48 0
47 *644:55 *891:49 0
48 *644:66 *3774:A2 0
49 *644:66 *3805:A1 0
50 *644:66 *877:48 0
51 *644:77 *3805:A1 0
52 *644:77 *877:48 0
53 *644:77 *1047:76 6.19181e-05
54 *644:77 *1048:69 4.02462e-05
55 *644:83 *3320:A 7.84126e-05
56 *644:83 *877:48 6.09572e-05
57 *644:83 *891:62 3.93893e-05
58 *644:83 *1048:35 2.88018e-06
59 *644:89 *3768:A2 4.38128e-05
60 *644:89 *3769:A2 5.71472e-05
61 *644:103 *3370:A 0
62 *644:103 *3770:A1 0.000507757
63 *644:103 *877:48 1.76039e-05
64 *644:103 *891:62 6.8646e-06
65 *3363:A3 *644:55 0
66 *3374:A *644:77 0.000127439
67 *3375:B1 *644:103 0
68 *3376:B1 *3771:B1 0
69 *3376:B1 *644:103 0
70 *3378:A *3771:B1 0.000206919
71 *3923:RESET_B *3771:B1 2.89016e-05
72 *3924:D *644:77 0
73 *3924:RESET_B *3772:B1 5.91352e-05
74 *3925:D *644:103 8.00806e-05
75 *3926:RESET_B *3774:B1 1.58163e-05
76 *3926:RESET_B *644:55 0.000177934
77 *3941:D *644:14 0.000102197
78 *3941:D *644:55 0
79 *3997:RESET_B *644:77 0.00010326
80 *4078:A *644:10 5.38218e-05
81 *394:12 *3768:B1 7.41433e-05
82 *396:14 *644:77 0.000101545
83 *396:96 *644:77 5.01112e-05
84 *396:96 *644:103 0
85 *424:12 *644:55 0
86 *603:105 *644:10 9.09664e-06
87 *626:64 *3772:B1 7.77652e-05
88 *626:64 *644:77 0
89 *626:70 *3772:B1 6.71854e-05
90 *626:70 *644:77 5.66157e-05
91 *626:70 *644:83 2.59355e-05
*RES
1 *4121:X *644:10 17.1036 
2 *644:10 *644:14 9.14286 
3 *644:14 *3789:B1 9.3 
4 *644:14 *644:27 12.3393 
5 *644:27 *3767:B1 31.4786 
6 *644:27 *3766:B1 13.8 
7 *644:10 *644:55 9.83929 
8 *644:55 *3774:B1 14.7464 
9 *644:55 *644:66 4.98214 
10 *644:66 *3805:B1 13.8 
11 *644:66 *644:77 12.5179 
12 *644:77 *644:83 9.14286 
13 *644:83 *644:89 5.57143 
14 *644:89 *3768:B1 12.3 
15 *644:89 *3769:B1 9.3 
16 *644:83 *644:103 7.10714 
17 *644:103 *3770:B1 19.6929 
18 *644:103 *3771:B1 25.4071 
19 *644:77 *3772:B1 22.3179 
*END

*D_NET *645 0.0178773
*CONN
*I *3791:B1 I *D sky130_fd_sc_hd__o21a_2
*I *3773:B1 I *D sky130_fd_sc_hd__o21a_2
*I *3794:B1 I *D sky130_fd_sc_hd__o21a_2
*I *3786:B1 I *D sky130_fd_sc_hd__o21a_2
*I *4121:A I *D sky130_fd_sc_hd__clkdlybuf4s25_1
*I *3792:B1 I *D sky130_fd_sc_hd__o21a_2
*I *3846:B1 I *D sky130_fd_sc_hd__o21a_2
*I *4120:A I *D sky130_fd_sc_hd__clkdlybuf4s25_1
*I *3824:B1 I *D sky130_fd_sc_hd__o21a_2
*I *4122:X O *D sky130_fd_sc_hd__clkdlybuf4s25_1
*CAP
1 *3791:B1 0.000282894
2 *3773:B1 0.000267989
3 *3794:B1 0.000224287
4 *3786:B1 2.89625e-05
5 *4121:A 2.06081e-05
6 *3792:B1 0
7 *3846:B1 0.000303534
8 *4120:A 0.000175521
9 *3824:B1 0.00034251
10 *4122:X 0
11 *645:114 0.00101024
12 *645:101 0.0011067
13 *645:78 0.00104094
14 *645:70 0.000905784
15 *645:59 0.000482408
16 *645:42 0.000831492
17 *645:10 0.00071796
18 *645:6 0.000407805
19 *3773:B1 *3373:B1 5.57914e-05
20 *3773:B1 *3768:A1 2.28598e-05
21 *3773:B1 *3768:A2 9.60939e-05
22 *3773:B1 *1047:68 0.000315179
23 *3786:B1 *3527:B1 2.32013e-05
24 *3786:B1 *3786:A1 1.82029e-05
25 *3791:B1 *3439:B 0.00022266
26 *3791:B1 *3440:A1 1.38323e-05
27 *3791:B1 *3791:A2 0.000511853
28 *3791:B1 *878:33 7.79781e-06
29 *3791:B1 *1035:12 0.000350136
30 *3794:B1 *4291:A 2.84398e-05
31 *3824:B1 *3824:A1 5.33005e-05
32 *3824:B1 *3824:A2 5.33005e-05
33 *3846:B1 *3428:B1 0.000463599
34 *4120:A *3430:A2 0.000223831
35 *4120:A *1093:18 0.00010096
36 *645:10 *686:10 0.00041717
37 *645:10 *911:62 0
38 *645:42 *4016:D 0
39 *645:42 *686:10 8.00806e-05
40 *645:42 *753:12 3.65544e-05
41 *645:42 *763:10 0.000145753
42 *645:42 *894:72 3.34672e-05
43 *645:42 *911:62 0
44 *645:59 *3428:B1 6.42095e-05
45 *645:59 *753:12 0.000546879
46 *645:59 *993:46 0
47 *645:70 *753:12 0.000408231
48 *645:78 *3434:A 0
49 *645:78 *3440:A1 0.000183403
50 *645:78 *878:53 0.000306317
51 *645:78 *993:46 6.98864e-05
52 *645:78 *993:58 9.25014e-06
53 *645:101 *3434:A 0.000153272
54 *645:101 *3435:B2 0.000150625
55 *645:101 *3527:A2 6.19181e-05
56 *645:101 *3527:B1 0.00024494
57 *645:101 *3786:A1 3.00516e-05
58 *645:101 *3786:A2 9.60939e-05
59 *645:101 *993:58 0.000142439
60 *645:114 *3373:B1 2.05938e-05
61 *645:114 *993:58 0
62 *645:114 *1051:20 0.000215736
63 *3363:A3 *645:101 1.76135e-05
64 *3373:A3 *3773:B1 0.000410973
65 *3428:A1 *3846:B1 0.000126639
66 *3428:A1 *645:42 0
67 *3527:C1 *645:101 4.78056e-05
68 *3528:B1 *645:114 8.59056e-05
69 *3782:B1 *3824:B1 8.63034e-05
70 *3883:SET_B *3824:B1 8.00358e-05
71 *3934:D *3824:B1 5.52238e-05
72 *3934:D *4120:A 9.60939e-05
73 *3941:CLK *645:101 8.359e-05
74 *3942:D *645:59 0.000367403
75 *3942:D *645:70 0.000421375
76 *3943:RESET_B *3791:B1 9.91086e-05
77 *3986:D *645:114 0
78 *3996:CLK *3794:B1 0.000400867
79 *4038:SET_B *3846:B1 2.89016e-05
80 *4193:A *3846:B1 5.52238e-05
81 *4193:A *645:59 8.36572e-05
82 *4236:A *3846:B1 3.97677e-05
83 *354:20 *3824:B1 1.32056e-05
84 *354:20 *4121:A 2.59355e-05
85 *354:20 *645:78 0.000100474
86 *360:14 *3846:B1 0.000119193
87 *360:14 *645:59 0.000114587
88 *367:20 *3786:B1 2.86259e-05
89 *367:20 *645:101 0.000231651
90 *603:105 *4121:A 2.84026e-05
91 *626:10 *645:114 0
92 *626:21 *645:114 0
93 *626:23 *645:101 8.2395e-05
94 *626:56 *3773:B1 0
95 *643:6 *3824:B1 0.000290265
96 *643:6 *4120:A 0.000128496
97 *644:55 *645:101 0
*RES
1 *4122:X *645:6 13.8 
2 *645:6 *645:10 9.78571 
3 *645:10 *3824:B1 16.6036 
4 *645:10 *4120:A 14.3893 
5 *645:6 *645:42 8.875 
6 *645:42 *3846:B1 17.2286 
7 *645:42 *645:59 14.4464 
8 *645:59 *3792:B1 13.8 
9 *645:59 *645:70 10.0893 
10 *645:70 *645:78 13.2679 
11 *645:78 *4121:A 14.3357 
12 *645:78 *645:101 19.6786 
13 *645:101 *3786:B1 10.5679 
14 *645:101 *645:114 14.3393 
15 *645:114 *3794:B1 27.3536 
16 *645:114 *3773:B1 21.55 
17 *645:70 *3791:B1 26.1214 
*END

*D_NET *646 0.0309485
*CONN
*I *4117:A I *D sky130_fd_sc_hd__clkdlybuf4s25_1
*I *4122:A I *D sky130_fd_sc_hd__clkdlybuf4s25_1
*I *4119:A I *D sky130_fd_sc_hd__clkdlybuf4s25_1
*I *3803:B1 I *D sky130_fd_sc_hd__o21a_2
*I *4113:A I *D sky130_fd_sc_hd__clkdlybuf4s25_1
*I *4123:X O *D sky130_fd_sc_hd__clkdlybuf4s25_1
*CAP
1 *4117:A 0
2 *4122:A 0.000212112
3 *4119:A 0
4 *3803:B1 0.00138438
5 *4113:A 0.000289179
6 *4123:X 0.000141372
7 *646:61 0.00267616
8 *646:53 0.00326347
9 *646:43 0.00253976
10 *646:41 0.0020046
11 *646:18 0.00254258
12 *646:12 0.000746124
13 *3803:B1 *3364:B 0
14 *3803:B1 *3508:A 0
15 *3803:B1 *3510:B2 0
16 *3803:B1 *3667:A 0
17 *3803:B1 *3667:B 0
18 *3803:B1 *3752:S 0
19 *3803:B1 *3797:A1 0
20 *3803:B1 *4276:A 0.000359127
21 *3803:B1 *876:26 0.000106403
22 *3803:B1 *876:55 0.000557552
23 *3803:B1 *876:70 0.000313458
24 *3803:B1 *946:21 0
25 *3803:B1 *1057:12 0.000198698
26 *4113:A *3474:A 0.000227526
27 *4113:A *4295:A 0.000440711
28 *4113:A *909:29 0.00117375
29 *4113:A *987:23 4.88637e-05
30 *4113:A *987:32 6.09899e-05
31 *4122:A *3396:A 9.60939e-05
32 *4122:A *4016:D 9.60939e-05
33 *4122:A *880:38 0.00012401
34 *4122:A *880:59 0.000188734
35 *4122:A *894:51 0.000227493
36 *646:12 *989:20 0
37 *646:18 *3970:D 0
38 *646:18 *908:10 0.00022459
39 *646:18 *909:23 0.000191474
40 *646:18 *909:29 0.000188031
41 *646:41 *3447:B 0.000144732
42 *646:41 *3469:A2 0
43 *646:41 *4249:A 0.000151333
44 *646:41 *749:12 0
45 *646:43 *3470:A2 0.000459677
46 *646:43 *4323:A 0.000121456
47 *646:43 *880:38 0.000538197
48 *646:43 *894:32 0
49 *646:53 *3661:A1 0.000102197
50 *646:53 *3661:B1_N 4.61137e-05
51 *646:53 *3715:B1 2.03532e-05
52 *646:53 *3998:D 0.000178425
53 *646:53 *936:21 5.03878e-05
54 *646:61 *3665:B 0.000154762
55 *646:61 *3707:B 0
56 *646:61 *3712:A 6.58195e-05
57 *646:61 *3746:S 0
58 *646:61 *3752:S 0
59 *646:61 *4055:D 5.85229e-05
60 *646:61 *4276:A 7.86904e-05
61 *646:61 *4300:A 7.41547e-05
62 *646:61 *889:91 0
63 *3363:A2 *646:43 0.000236112
64 *3469:A1 *646:41 0
65 *3469:A1 *646:43 0
66 *3469:B1 *646:41 0.000753559
67 *3483:A1 *4113:A 2.59355e-05
68 *3483:B1 *4113:A 2.14658e-05
69 *3509:C1 *3803:B1 0.000182169
70 *3510:B1 *3803:B1 0.000120261
71 *3512:A1 *3803:B1 6.81083e-05
72 *3513:A1 *3803:B1 0.000154762
73 *3662:B1 *646:53 0.000265453
74 *3666:S *646:61 7.95581e-05
75 *3676:S *646:61 0
76 *3713:D *646:61 0
77 *3782:B1 *4122:A 1.5942e-05
78 *3866:D *646:41 0.000171215
79 *3891:D *646:61 0
80 *3905:CLK *646:53 2.44318e-05
81 *3905:CLK *646:61 0.000496309
82 *3905:RESET_B *646:53 0.000231651
83 *3934:CLK *4122:A 0.00025442
84 *3934:CLK *646:43 5.58941e-05
85 *3934:RESET_B *4122:A 0.000148189
86 *3949:RESET_B *646:41 0.000583353
87 *3958:RESET_B *646:41 4.64597e-05
88 *3958:RESET_B *646:43 0.0004011
89 *3972:CLK *646:41 0
90 *3972:D *646:41 0
91 *3977:RESET_B *646:18 0.000526401
92 *3982:D *646:53 2.59355e-05
93 *3983:RESET_B *646:41 0
94 *3995:RESET_B *3803:B1 0.000118365
95 *4049:CLK *646:61 0.000391208
96 *4090:A *646:41 0.00102686
97 *4270:A *646:61 0.000316738
98 *4286:A *646:61 0.000167266
99 *4376:A *646:18 9.41642e-05
100 *362:25 *646:41 0
101 *387:14 *3803:B1 0.000162116
102 *579:10 *646:61 7.32955e-05
103 *604:89 *646:41 0.000274514
104 *618:20 *646:41 0
105 *621:103 *646:43 0.000392297
106 *623:107 *646:61 0
107 *633:10 *646:12 0
108 *634:42 *646:41 4.49007e-05
109 *637:10 *646:41 0
110 *637:12 *646:41 0
111 *638:26 *646:18 2.47833e-05
112 *641:10 *646:61 0.000105163
113 *641:37 *646:61 0
*RES
1 *4123:X *646:12 20.7821 
2 *646:12 *646:18 14.8393 
3 *646:18 *4113:A 20.9429 
4 *646:18 *646:41 44.6875 
5 *646:41 *646:43 13.9375 
6 *646:43 *646:53 30.25 
7 *646:53 *646:61 36.5804 
8 *646:61 *3803:B1 47.3089 
9 *646:53 *4119:A 9.3 
10 *646:43 *4122:A 21.6571 
11 *646:12 *4117:A 9.3 
*END

*D_NET *647 0.00779391
*CONN
*I *3878:RESET_B I *D sky130_fd_sc_hd__dfrtp_2
*I *3877:RESET_B I *D sky130_fd_sc_hd__dfrtp_2
*I *4379:A I *D sky130_fd_sc_hd__clkbuf_2
*I *3882:RESET_B I *D sky130_fd_sc_hd__dfrtp_2
*I *3881:RESET_B I *D sky130_fd_sc_hd__dfrtp_2
*I *4124:X O *D sky130_fd_sc_hd__clkdlybuf4s25_1
*CAP
1 *3878:RESET_B 7.60311e-05
2 *3877:RESET_B 0.000310948
3 *4379:A 0.000769582
4 *3882:RESET_B 0.000256048
5 *3881:RESET_B 0.000945653
6 *4124:X 0.000862877
7 *647:28 0.00087349
8 *3877:RESET_B *3394:B2 0.000223814
9 *3877:RESET_B *1018:8 0.000137983
10 *3878:RESET_B *3654:A1 0.000131212
11 *3878:RESET_B *4388:A 0.000248509
12 *3881:RESET_B *4385:A 2.16391e-05
13 *3881:RESET_B *4388:A 0.00163501
14 *3881:RESET_B *728:14 2.13687e-05
15 *3882:RESET_B *3394:B2 4.85567e-05
16 *4379:A *3395:A 5.49995e-05
17 *4379:A *3649:A_N 0.000102283
18 *4379:A *3656:A1 7.58841e-05
19 *4379:A *4068:A 0.000117065
20 *4379:A *4218:A 6.65398e-05
21 *4379:A *4266:A 0.000147155
22 *4379:A *4385:A 8.86448e-05
23 *4379:A *745:10 0
24 *4379:A *1015:8 3.75333e-05
25 *647:28 *4385:A 2.51963e-05
26 *3964:CLK *3881:RESET_B 2.11419e-05
27 *4086:A *4379:A 0.000123178
28 *409:22 *647:28 3.27359e-05
29 *410:12 *4379:A 0.000191767
30 *410:12 *647:28 2.86908e-05
31 *614:29 *3877:RESET_B 0.000118373
*RES
1 *4124:X *3881:RESET_B 28.5465 
2 *3881:RESET_B *647:28 6.14286 
3 *647:28 *3882:RESET_B 4.97321 
4 *647:28 *4379:A 30.8 
5 *3882:RESET_B *3877:RESET_B 5.33929 
6 *3877:RESET_B *3878:RESET_B 12.1607 
*END

*D_NET *648 0.00391111
*CONN
*I *3961:RESET_B I *D sky130_fd_sc_hd__dfrtp_2
*I *3895:RESET_B I *D sky130_fd_sc_hd__dfrtp_2
*I *3894:RESET_B I *D sky130_fd_sc_hd__dfrtp_2
*I *3879:RESET_B I *D sky130_fd_sc_hd__dfrtp_2
*I *3880:RESET_B I *D sky130_fd_sc_hd__dfrtp_2
*I *3959:RESET_B I *D sky130_fd_sc_hd__dfrtp_2
*I *4379:X O *D sky130_fd_sc_hd__clkbuf_2
*CAP
1 *3961:RESET_B 0.000122984
2 *3895:RESET_B 3.59957e-05
3 *3894:RESET_B 5.09254e-05
4 *3879:RESET_B 0
5 *3880:RESET_B 0.000168287
6 *3959:RESET_B 0.000488155
7 *4379:X 0
8 *648:45 0.000244749
9 *648:35 0.000270232
10 *648:16 0.000363495
11 *648:4 0.000549825
12 *3880:RESET_B *992:16 0.000207918
13 *3894:RESET_B *3657:B 5.33433e-05
14 *3894:RESET_B *4189:A 7.77652e-05
15 *3894:RESET_B *682:8 9.50011e-06
16 *3959:RESET_B *3657:A_N 0.000130112
17 *3961:RESET_B *4183:A 0.000138015
18 *648:16 *992:16 0.000181113
19 *648:35 *3655:B 0.000134306
20 *648:35 *3657:B 0
21 *648:45 *3655:B 5.01213e-05
22 *648:45 *4183:A 1.17968e-05
23 *3973:D *3894:RESET_B 0.000267621
24 *55:18 *3880:RESET_B 0.000207918
25 *55:18 *648:16 7.70015e-05
26 *410:12 *648:16 6.99312e-05
*RES
1 *4379:X *648:4 9.3 
2 *648:4 *3959:RESET_B 5.40179 
3 *648:4 *648:16 9.71429 
4 *648:16 *3880:RESET_B 9.78571 
5 *648:16 *3879:RESET_B 4.5 
6 *3959:RESET_B *648:35 7.66071 
7 *648:35 *3894:RESET_B 7.02679 
8 *648:35 *648:45 1.64286 
9 *648:45 *3895:RESET_B 4.97321 
10 *648:45 *3961:RESET_B 7.66071 
*END

*D_NET *649 0.00328313
*CONN
*I *3970:RESET_B I *D sky130_fd_sc_hd__dfrtp_2
*I *3978:RESET_B I *D sky130_fd_sc_hd__dfrtp_2
*I *3965:RESET_B I *D sky130_fd_sc_hd__dfrtp_2
*I *3960:RESET_B I *D sky130_fd_sc_hd__dfrtp_2
*I *4380:A I *D sky130_fd_sc_hd__clkbuf_2
*I *3971:RESET_B I *D sky130_fd_sc_hd__dfrtp_2
*I *4125:X O *D sky130_fd_sc_hd__clkdlybuf4s25_1
*CAP
1 *3970:RESET_B 8.19001e-05
2 *3978:RESET_B 4.73718e-05
3 *3965:RESET_B 0.000291452
4 *3960:RESET_B 3.35512e-05
5 *4380:A 0.000176445
6 *3971:RESET_B 0.000124659
7 *4125:X 0.000166326
8 *649:48 0.000338824
9 *649:46 0.000213814
10 *649:36 0.000290124
11 *649:10 0.000342771
12 *3965:RESET_B *872:16 0.000112297
13 *3965:RESET_B *989:20 5.33334e-05
14 *3970:RESET_B *3978:D 3.97543e-05
15 *3970:RESET_B *4177:A 0
16 *3970:RESET_B *4297:A 0
17 *3978:RESET_B *872:16 2.27662e-05
18 *4380:A *3971:D 4.76575e-05
19 *4380:A *4398:A 0
20 *4380:A *872:16 0.000230482
21 *4380:A *990:10 3.61696e-05
22 *649:10 *3970:D 0
23 *649:10 *3971:D 5.80706e-06
24 *649:10 *4398:A 0
25 *649:10 *990:10 2.19778e-05
26 *649:36 *3970:D 0
27 *649:36 *4068:A 0.000149298
28 *649:36 *990:10 7.70134e-05
29 *649:46 *3970:D 0
30 *649:46 *3978:D 2.19684e-05
31 *649:46 *4068:A 0.000177366
32 *649:46 *4177:A 0
33 *649:46 *981:65 0
34 *3971:CLK *649:36 0.000180002
*RES
1 *4125:X *649:10 16.5857 
2 *649:10 *3971:RESET_B 4.5 
3 *649:10 *4380:A 17.6214 
4 *3971:RESET_B *649:36 8.15179 
5 *649:36 *3960:RESET_B 4.97321 
6 *649:36 *649:46 3.16071 
7 *649:46 *649:48 4.5 
8 *649:48 *3965:RESET_B 4.99107 
9 *649:48 *3978:RESET_B 0.883929 
10 *649:46 *3970:RESET_B 6.14286 
*END

*D_NET *650 0.0054569
*CONN
*I *3892:RESET_B I *D sky130_fd_sc_hd__dfrtp_2
*I *3947:RESET_B I *D sky130_fd_sc_hd__dfrtp_2
*I *3946:RESET_B I *D sky130_fd_sc_hd__dfrtp_2
*I *3963:RESET_B I *D sky130_fd_sc_hd__dfrtp_2
*I *3966:RESET_B I *D sky130_fd_sc_hd__dfrtp_2
*I *4380:X O *D sky130_fd_sc_hd__clkbuf_2
*CAP
1 *3892:RESET_B 0.000246451
2 *3947:RESET_B 0.000113237
3 *3946:RESET_B 0.000904362
4 *3963:RESET_B 0
5 *3966:RESET_B 0
6 *4380:X 0.000401066
7 *650:41 0.000359688
8 *650:17 0.000989827
9 *650:10 0.000486531
10 *3892:RESET_B *3744:B1 0
11 *3892:RESET_B *949:25 6.14123e-05
12 *3946:RESET_B *3685:A1 5.33005e-05
13 *3946:RESET_B *3685:B2 0.000546948
14 *3946:RESET_B *838:12 0
15 *3946:RESET_B *1001:8 5.39166e-06
16 *3947:RESET_B *1002:8 0.000138106
17 *650:10 *872:16 4.30953e-05
18 *650:10 *990:10 0
19 *650:17 *990:10 0
20 *3654:A2 *3946:RESET_B 1.90223e-05
21 *3654:A2 *650:10 0.000151445
22 *3654:A2 *650:17 7.54988e-05
23 *3878:CLK *650:10 0.000151726
24 *3878:D *650:10 0
25 *3892:CLK *3892:RESET_B 0.000308351
26 *3894:CLK *3946:RESET_B 6.58289e-05
27 *3894:D *3946:RESET_B 5.01117e-05
28 *426:10 *3947:RESET_B 0.000101445
29 *615:97 *3892:RESET_B 5.83233e-05
30 *615:97 *3947:RESET_B 0.000125731
*RES
1 *4380:X *650:10 21.8536 
2 *650:10 *3966:RESET_B 4.5 
3 *650:10 *650:17 1.94643 
4 *650:17 *3963:RESET_B 4.5 
5 *650:17 *3946:RESET_B 20.0982 
6 *3946:RESET_B *650:41 4.5 
7 *650:41 *3947:RESET_B 7.84821 
8 *650:41 *3892:RESET_B 10.3661 
*END

*D_NET *651 0.0123654
*CONN
*I *3914:RESET_B I *D sky130_fd_sc_hd__dfrtp_2
*I *3953:RESET_B I *D sky130_fd_sc_hd__dfrtp_2
*I *3980:RESET_B I *D sky130_fd_sc_hd__dfrtp_2
*I *3827:B1 I *D sky130_fd_sc_hd__o21a_2
*I *3896:RESET_B I *D sky130_fd_sc_hd__dfrtp_2
*I *3828:B1 I *D sky130_fd_sc_hd__o21a_2
*I *3781:B1 I *D sky130_fd_sc_hd__o21a_2
*I *3823:B1 I *D sky130_fd_sc_hd__o21a_2
*I *3825:B1 I *D sky130_fd_sc_hd__o21a_2
*I *3950:RESET_B I *D sky130_fd_sc_hd__dfrtp_2
*I *4126:X O *D sky130_fd_sc_hd__clkdlybuf4s25_1
*CAP
1 *3914:RESET_B 0.000121526
2 *3953:RESET_B 0.000407368
3 *3980:RESET_B 0.000168343
4 *3827:B1 0
5 *3896:RESET_B 0.000446916
6 *3828:B1 9.62095e-05
7 *3781:B1 0.000453122
8 *3823:B1 0.000381204
9 *3825:B1 0
10 *3950:RESET_B 0.000504413
11 *4126:X 7.79657e-05
12 *651:75 0.000694712
13 *651:69 0.000508064
14 *651:36 0.000834327
15 *651:34 0.000327903
16 *651:27 0.000231693
17 *651:25 0.000254042
18 *651:8 0.000458653
19 *3781:B1 *888:43 0
20 *3781:B1 *898:78 0.000167266
21 *3781:B1 *898:126 0
22 *3781:B1 *980:12 0
23 *3781:B1 *1070:10 0
24 *3823:B1 *3467:A1 0
25 *3823:B1 *3680:B1 0
26 *3823:B1 *3823:A2 0
27 *3823:B1 *3951:RESET_B 0.00011224
28 *3828:B1 *4263:A 4.72917e-05
29 *3828:B1 *902:66 0.000295784
30 *3896:RESET_B *3896:D 5.29708e-05
31 *3914:RESET_B *3451:A2 0.000200413
32 *3914:RESET_B *3744:A1 7.92879e-05
33 *3914:RESET_B *1008:8 3.02581e-06
34 *3914:RESET_B *1008:10 5.66157e-05
35 *3950:RESET_B *3451:B2 1.08359e-05
36 *3950:RESET_B *3461:B1 0.000170341
37 *3950:RESET_B *3461:B2 4.20462e-05
38 *3950:RESET_B *4251:A 0.000125731
39 *3980:RESET_B *3522:B 0.000250201
40 *3980:RESET_B *898:18 2.23987e-05
41 *651:8 *3451:B2 2.40379e-05
42 *651:25 *3825:A2 1.76039e-05
43 *651:34 *3332:A 0.000117428
44 *651:34 *3455:A2 9.77274e-05
45 *651:34 *4263:A 0.000142053
46 *651:34 *902:66 0.00126829
47 *651:34 *1006:14 0.000181803
48 *651:69 *3825:A2 7.06957e-05
49 *651:69 *898:18 3.13225e-05
50 *651:75 *3827:A1 0.00030926
51 *651:75 *3827:A2 2.44318e-05
52 *3461:A2 *3950:RESET_B 0.000213074
53 *3896:CLK *3896:RESET_B 9.23015e-05
54 *3896:CLK *651:75 0
55 *3914:D *3914:RESET_B 1.91512e-05
56 *3951:CLK *3823:B1 0.000105163
57 *3951:D *3823:B1 6.05161e-06
58 *3951:D *651:25 0
59 *3980:D *3950:RESET_B 0.000199691
60 *3980:D *3980:RESET_B 0.000362324
61 *3980:D *651:25 0.000336382
62 *3980:D *651:69 0.000206919
63 *4015:RESET_B *3781:B1 0.000117994
64 *4015:RESET_B *3823:B1 5.26184e-05
65 *4019:RESET_B *3896:RESET_B 5.52302e-05
66 *4020:D *3980:RESET_B 0.000103267
67 *4020:D *651:69 9.25014e-06
68 *4216:A *3781:B1 0
69 *111:10 *3950:RESET_B 0
70 *111:10 *651:25 0
71 *365:6 *651:34 1.74352e-05
72 *365:16 *651:34 0.000183047
73 *603:13 *3914:RESET_B 0
74 *616:23 *3953:RESET_B 0.000118441
75 *616:29 *3953:RESET_B 0.000105163
76 *617:124 *3896:RESET_B 0.000174361
*RES
1 *4126:X *651:8 14.7464 
2 *651:8 *3950:RESET_B 12.0179 
3 *651:8 *651:25 4.375 
4 *651:25 *651:27 4.5 
5 *651:27 *3825:B1 9.3 
6 *651:27 *651:34 12.0357 
7 *651:34 *651:36 4.5 
8 *651:36 *3823:B1 21.1214 
9 *651:36 *3781:B1 23.3357 
10 *651:34 *3828:B1 12.3 
11 *651:25 *651:69 2.85714 
12 *651:69 *651:75 9.16071 
13 *651:75 *3896:RESET_B 9.66964 
14 *651:75 *3827:B1 9.3 
15 *651:69 *3980:RESET_B 10.3661 
16 *3950:RESET_B *3953:RESET_B 5.33929 
17 *3953:RESET_B *3914:RESET_B 12.6339 
*END

*D_NET *652 0.00342905
*CONN
*I *3951:RESET_B I *D sky130_fd_sc_hd__dfrtp_2
*I *3945:SET_B I *D sky130_fd_sc_hd__dfstp_2
*I *3976:RESET_B I *D sky130_fd_sc_hd__dfrtp_2
*I *3893:RESET_B I *D sky130_fd_sc_hd__dfrtp_2
*I *3948:RESET_B I *D sky130_fd_sc_hd__dfrtp_2
*I *4127:X O *D sky130_fd_sc_hd__clkdlybuf4s25_1
*CAP
1 *3951:RESET_B 0.000640124
2 *3945:SET_B 0.000698486
3 *3976:RESET_B 6.03689e-05
4 *3893:RESET_B 0.000125068
5 *3948:RESET_B 0.0003116
6 *4127:X 0
7 *652:16 0.000362138
8 *652:14 0.000235064
9 *652:4 0.0003116
10 *3893:RESET_B *3680:A1_N 5.75103e-05
11 *3945:SET_B *3680:A1_N 3.79467e-05
12 *3948:RESET_B *3681:A 0.00014285
13 *3948:RESET_B *1003:12 4.17828e-05
14 *3951:RESET_B *3467:A1 0
15 *3951:RESET_B *3680:A1_N 0
16 *3951:RESET_B *3680:B1 0
17 *3951:RESET_B *3823:A2 0
18 *3951:RESET_B *4126:A 0
19 *652:16 *3680:A1_N 0.00010968
20 *3681:B *3945:SET_B 0
21 *3681:B *3951:RESET_B 6.42145e-05
22 *3681:B *652:16 0
23 *3823:B1 *3951:RESET_B 0.00011224
24 *3893:D *3893:RESET_B 0
25 *3893:D *652:16 0
26 *3945:D *3951:RESET_B 0
27 *3951:D *3951:RESET_B 0.000118373
*RES
1 *4127:X *652:4 9.3 
2 *652:4 *3948:RESET_B 5.41964 
3 *652:4 *652:14 4.5 
4 *652:14 *652:16 3.76786 
5 *652:16 *3893:RESET_B 6.80357 
6 *652:16 *3976:RESET_B 5.38393 
7 *652:14 *3945:SET_B 5.83929 
8 *3945:SET_B *3951:RESET_B 19.9107 
*END

*D_NET *653 0.00168022
*CONN
*I *3411:A1 I *D sky130_fd_sc_hd__o21ai_2
*I *3409:A I *D sky130_fd_sc_hd__xnor2_2
*I *3410:C1 I *D sky130_fd_sc_hd__a2111o_2
*I *4336:X O *D sky130_fd_sc_hd__clkdlybuf4s25_1
*CAP
1 *3411:A1 7.96194e-05
2 *3409:A 2.76557e-05
3 *3410:C1 0.000175094
4 *4336:X 0
5 *653:8 0.000305013
6 *653:4 0.000181882
7 *3410:C1 *3410:A1 2.78608e-05
8 *3410:C1 *3410:D1 0.000400831
9 *653:8 *3410:D1 0.000175526
10 *653:8 *664:10 2.31791e-05
11 *3408:A1 *3410:C1 8.50152e-05
12 *3412:A *3411:A1 6.86792e-05
13 *413:22 *3409:A 2.89016e-05
14 *414:10 *3410:C1 0.00010096
15 *414:10 *653:8 0
16 *414:23 *653:8 0
*RES
1 *4336:X *653:4 9.3 
2 *653:4 *653:8 7.05357 
3 *653:8 *3410:C1 18.6393 
4 *653:8 *3409:A 14.3357 
5 *653:4 *3411:A1 10.6571 
*END

*D_NET *654 0.0151509
*CONN
*I *4127:A I *D sky130_fd_sc_hd__clkdlybuf4s25_1
*I *4126:A I *D sky130_fd_sc_hd__clkdlybuf4s25_1
*I *3973:RESET_B I *D sky130_fd_sc_hd__dfrtp_2
*I *4124:A I *D sky130_fd_sc_hd__clkdlybuf4s25_1
*I *4125:A I *D sky130_fd_sc_hd__clkdlybuf4s25_1
*I *4128:X O *D sky130_fd_sc_hd__clkdlybuf4s25_1
*CAP
1 *4127:A 0
2 *4126:A 0.00111756
3 *3973:RESET_B 0.00142649
4 *4124:A 0.000323403
5 *4125:A 0
6 *4128:X 0.00137426
7 *654:72 0.00179049
8 *654:22 0.00242414
9 *654:10 0.00336824
10 *3973:RESET_B *3395:A 0.000288743
11 *3973:RESET_B *4128:A 0.000288164
12 *3973:RESET_B *745:10 1.55584e-05
13 *3973:RESET_B *919:10 5.33334e-05
14 *4124:A *3863:D 3.18676e-05
15 *4124:A *3863:RESET_B 0.000160582
16 *4126:A *3467:A1 0.000182085
17 *4126:A *3467:A2 1.46576e-05
18 *4126:A *3680:A1_N 0
19 *4126:A *3681:A 0.000128161
20 *4126:A *4329:A 4.57445e-05
21 *654:10 *3876:RESET_B 0
22 *654:10 *3964:RESET_B 0.000221631
23 *654:10 *4069:A 0.000154971
24 *654:10 *4387:A 0
25 *654:10 *655:111 0.000191298
26 *654:10 *1012:14 0
27 *654:22 *3964:RESET_B 9.14612e-05
28 *654:22 *4387:A 0
29 *654:22 *4398:A 1.02504e-05
30 *654:72 *3570:A1 0
31 *654:72 *3680:A1_N 0
32 *654:72 *992:16 0.000758403
33 o_start_ack *654:22 0
34 *3467:B2 *4126:A 0.000142856
35 *3572:A *654:72 0
36 *3951:RESET_B *4126:A 0
37 *3967:CLK *3973:RESET_B 7.74135e-05
38 *4012:CLK *4126:A 0
39 *4012:CLK *654:72 2.8266e-06
40 *4012:D *654:72 0
41 *4013:D *3973:RESET_B 0.000139907
42 *4014:D *654:72 0
43 *4085:A *3973:RESET_B 6.92966e-06
44 *4085:A *654:10 0.000141935
45 *4341:A *3973:RESET_B 4.68148e-05
46 *4341:A *654:10 0
47 *4341:A *654:22 0
48 *409:22 *4124:A 6.62983e-05
49 *503:18 *654:72 0
50 *503:24 *3973:RESET_B 6.4443e-05
51 *503:24 *654:72 0
52 *612:21 *4126:A 0
*RES
1 *4128:X *654:10 26.8179 
2 *654:10 *654:22 43.1607 
3 *654:22 *4125:A 9.3 
4 *654:10 *4124:A 20.5143 
5 *4128:X *3973:RESET_B 33.9339 
6 *3973:RESET_B *654:72 24.0536 
7 *654:72 *4126:A 38.9964 
8 *654:72 *4127:A 9.3 
*END

*D_NET *655 0.0115361
*CONN
*I *3969:RESET_B I *D sky130_fd_sc_hd__dfrtp_2
*I *3964:RESET_B I *D sky130_fd_sc_hd__dfrtp_2
*I *3817:B1 I *D sky130_fd_sc_hd__o21a_2
*I *3634:C_N I *D sky130_fd_sc_hd__or3b_2
*I *3818:B1 I *D sky130_fd_sc_hd__o21a_2
*I *3816:B1 I *D sky130_fd_sc_hd__o21a_2
*I *3822:B1 I *D sky130_fd_sc_hd__o21a_2
*I *3821:B1 I *D sky130_fd_sc_hd__o21a_2
*I *3967:RESET_B I *D sky130_fd_sc_hd__dfrtp_2
*I *3876:RESET_B I *D sky130_fd_sc_hd__dfrtp_2
*I *4129:X O *D sky130_fd_sc_hd__clkdlybuf4s25_1
*CAP
1 *3969:RESET_B 0
2 *3964:RESET_B 0.000443021
3 *3817:B1 2.52229e-05
4 *3634:C_N 0.00026465
5 *3818:B1 0
6 *3816:B1 0.000168051
7 *3822:B1 0.000128045
8 *3821:B1 0
9 *3967:RESET_B 0
10 *3876:RESET_B 0.000467804
11 *4129:X 0.00028789
12 *655:111 0.000651662
13 *655:84 0.000624649
14 *655:28 0.000456055
15 *655:20 0.000244544
16 *655:18 0.000421307
17 *655:16 0.000442634
18 *655:14 0.000561092
19 *655:6 0.00115479
20 *3634:C_N *3817:A1 4.46186e-06
21 *3634:C_N *3817:A2 1.76135e-05
22 *3634:C_N *4196:A 0
23 *3634:C_N *4383:A 0
24 *3634:C_N *910:20 0
25 *3816:B1 *3822:A1 9.19611e-06
26 *3816:B1 *881:23 9.58689e-05
27 *3816:B1 *881:29 1.50223e-05
28 *3816:B1 *896:31 2.83425e-05
29 *3816:B1 *896:39 6.56265e-05
30 *3817:B1 *3817:A2 5.52238e-05
31 *3822:B1 *3820:A2 2.31791e-05
32 *3822:B1 *896:45 3.17148e-05
33 *3822:B1 *896:56 0.00011891
34 *3876:RESET_B *4128:A 0.0002229
35 *3964:RESET_B *3863:D 0
36 *3964:RESET_B *1011:6 7.40572e-05
37 *3964:RESET_B *1011:10 0
38 *655:6 *4129:A 0.000137639
39 *655:6 *1086:8 8.43535e-06
40 *655:14 *1086:8 0.000133416
41 *655:18 *3818:A1 5.50052e-05
42 *655:18 *3818:A2 1.4796e-05
43 *655:18 *3821:A1 0.000473851
44 *655:18 *3821:A2 5.33005e-05
45 *655:20 *3821:A1 5.66971e-05
46 *655:20 *3821:A2 9.90367e-05
47 *655:28 *3650:A1 0.000270646
48 *655:28 *4128:A 0.000135573
49 *655:84 *3817:A1 7.48356e-05
50 *655:84 *3817:A2 0.000362419
51 *655:84 *4123:A 1.90936e-05
52 *655:84 *656:47 0.000383014
53 *655:84 *656:54 0.000398033
54 *655:84 *656:69 2.30648e-05
55 *655:84 *896:10 0.000117649
56 *655:111 *1012:14 0
57 *3554:A2 *3816:B1 6.30182e-05
58 *3635:C *3634:C_N 4.71919e-05
59 *4008:RESET_B *655:14 0.000145231
60 *4013:RESET_B *3822:B1 0
61 *4246:A *3816:B1 5.36422e-05
62 *4341:A *3876:RESET_B 0.000168592
63 *272:20 *655:20 6.42916e-05
64 *272:20 *655:28 0.00040015
65 *409:22 *3964:RESET_B 0.000131653
66 *409:22 *655:111 3.79467e-05
67 *654:10 *3876:RESET_B 0
68 *654:10 *3964:RESET_B 0.000221631
69 *654:10 *655:111 0.000191298
70 *654:22 *3964:RESET_B 9.14612e-05
*RES
1 *4129:X *655:6 13.9429 
2 *655:6 *655:14 9.73214 
3 *655:14 *655:16 0.535714 
4 *655:16 *655:18 5.875 
5 *655:18 *655:20 1.76786 
6 *655:20 *655:28 10.6964 
7 *655:28 *3876:RESET_B 10.4464 
8 *655:28 *3967:RESET_B 4.5 
9 *655:20 *3821:B1 9.3 
10 *655:18 *3822:B1 21.0857 
11 *655:16 *3816:B1 21.8 
12 *655:14 *3818:B1 9.3 
13 *655:6 *655:84 16.7679 
14 *655:84 *3634:C_N 18.0143 
15 *655:84 *3817:B1 14.3357 
16 *3876:RESET_B *655:111 9.48214 
17 *655:111 *3964:RESET_B 14.7768 
18 *655:111 *3969:RESET_B 4.5 
*END

*D_NET *656 0.017399
*CONN
*I *3811:B1 I *D sky130_fd_sc_hd__o21a_2
*I *3807:B1 I *D sky130_fd_sc_hd__o21a_2
*I *3810:B1 I *D sky130_fd_sc_hd__o21a_2
*I *3812:B1 I *D sky130_fd_sc_hd__o21a_2
*I *3813:B1 I *D sky130_fd_sc_hd__o21a_2
*I *4129:A I *D sky130_fd_sc_hd__clkdlybuf4s25_1
*I *4046:RESET_B I *D sky130_fd_sc_hd__dfrtp_2
*I *3968:RESET_B I *D sky130_fd_sc_hd__dfrtp_2
*I *4048:RESET_B I *D sky130_fd_sc_hd__dfrtp_2
*I *4047:RESET_B I *D sky130_fd_sc_hd__dfrtp_2
*I *4130:X O *D sky130_fd_sc_hd__clkdlybuf4s25_1
*CAP
1 *3811:B1 0
2 *3807:B1 0.000596994
3 *3810:B1 9.26228e-05
4 *3812:B1 0
5 *3813:B1 0
6 *4129:A 5.89083e-05
7 *4046:RESET_B 0
8 *3968:RESET_B 0.000222969
9 *4048:RESET_B 0.000227041
10 *4047:RESET_B 0.000362773
11 *4130:X 0.000107388
12 *656:109 0.00222521
13 *656:89 0.00174536
14 *656:78 0.000535446
15 *656:69 0.000995024
16 *656:54 0.000846232
17 *656:47 0.000285712
18 *656:10 0.000306498
19 *3807:B1 *3807:A1 2.89114e-05
20 *3807:B1 *3807:A2 4.45768e-06
21 *3810:B1 *3490:D_N 0.000247771
22 *3968:RESET_B *3964:D 0.000383216
23 *3968:RESET_B *4389:A 9.42929e-05
24 *3968:RESET_B *1011:10 0
25 *4129:A *1086:8 2.59355e-05
26 *656:10 *4047:D 0
27 *656:10 *4176:A 2.48421e-05
28 *656:10 *1118:14 7.74135e-05
29 *656:47 *3817:A1 0.000385465
30 *656:54 *3817:A1 0.00026876
31 *656:54 *881:10 0.000137695
32 *656:69 *3558:B 1.57149e-05
33 *656:69 *3813:A2 5.80706e-06
34 *656:69 *657:23 0
35 *656:69 *657:36 0.000561696
36 *656:69 *657:53 0.000150625
37 *656:69 *881:10 0.000225981
38 *656:69 *881:65 0.000231832
39 *656:69 *881:90 6.37408e-06
40 *656:69 *896:10 0.000275714
41 *656:69 *896:123 0.000609768
42 *656:69 *910:20 0
43 *656:69 *1085:19 2.04866e-05
44 *656:78 *3813:A2 0.000138005
45 *656:78 *897:17 0.00027236
46 *656:78 *897:26 1.41029e-05
47 *656:78 *1084:10 0
48 *656:78 *1084:27 0
49 *656:89 *897:26 0.000177823
50 *656:89 *897:39 1.17968e-05
51 *656:89 *1082:14 0
52 *656:109 *3490:D_N 7.6644e-05
53 *656:109 *3534:A2 1.33343e-05
54 *656:109 *3534:A3 7.46327e-05
55 *656:109 *3534:B1 2.6269e-05
56 *656:109 *3540:A 0.000315158
57 *656:109 *902:48 0.00022525
58 *656:109 *902:96 3.69047e-06
59 *656:109 *904:25 0.00036056
60 *656:109 *1071:38 8.42233e-05
61 *656:109 *1078:14 0.000159192
62 *656:109 *1078:16 8.87913e-05
63 *3487:A2 *656:109 2.28499e-05
64 *3487:B1 *656:109 5.33433e-05
65 *3540:B *656:109 0.000216075
66 *3541:C *656:109 3.48705e-05
67 *3543:A2 *656:109 0.000135028
68 *3555:A2 *656:69 0.000195547
69 *3557:B *656:69 0.000128161
70 *3863:CLK *3968:RESET_B 2.19684e-05
71 *4002:D *3807:B1 0.00014285
72 *4002:RESET_B *3810:B1 9.14786e-05
73 *4003:RESET_B *656:109 1.85616e-05
74 *4004:RESET_B *656:89 3.2534e-05
75 *4005:RESET_B *656:78 0.000367382
76 *4006:RESET_B *656:69 0
77 *4006:RESET_B *656:78 0
78 *4009:RESET_B *656:10 0
79 *4048:CLK *4047:RESET_B 0.000138257
80 *4048:CLK *4048:RESET_B 7.40572e-05
81 *4048:CLK *656:47 4.50675e-05
82 *142:12 *3807:B1 0.000145043
83 *451:10 *656:109 0.000111822
84 *479:10 *3810:B1 0
85 *479:21 *656:109 0
86 *613:35 *3968:RESET_B 4.96155e-05
87 *655:6 *4129:A 0.000137639
88 *655:84 *656:47 0.000383014
89 *655:84 *656:54 0.000398033
90 *655:84 *656:69 2.30648e-05
*RES
1 *4130:X *656:10 20.55 
2 *656:10 *4047:RESET_B 2.52679 
3 *656:10 *4048:RESET_B 1.29464 
4 *4047:RESET_B *3968:RESET_B 14.8661 
5 *4048:RESET_B *656:47 10.3661 
6 *656:47 *4046:RESET_B 4.5 
7 *656:47 *656:54 5.28571 
8 *656:54 *4129:A 15.1571 
9 *656:54 *656:69 22.9464 
10 *656:69 *3813:B1 13.8 
11 *656:69 *656:78 9.83929 
12 *656:78 *3812:B1 13.8 
13 *656:78 *656:89 9.17857 
14 *656:89 *656:109 31.7143 
15 *656:109 *3810:B1 16.9607 
16 *656:109 *3807:B1 21.6393 
17 *656:89 *3811:B1 9.3 
*END

*D_NET *657 0.0149005
*CONN
*I *3819:B1 I *D sky130_fd_sc_hd__o21a_2
*I *3820:B1 I *D sky130_fd_sc_hd__o21a_2
*I *4128:A I *D sky130_fd_sc_hd__clkdlybuf4s25_1
*I *3814:B1 I *D sky130_fd_sc_hd__o21a_2
*I *3815:B1 I *D sky130_fd_sc_hd__o21a_2
*I *4130:A I *D sky130_fd_sc_hd__clkdlybuf4s25_1
*I *4131:X O *D sky130_fd_sc_hd__clkdlybuf4s25_1
*CAP
1 *3819:B1 0
2 *3820:B1 4.15567e-05
3 *4128:A 0.000907282
4 *3814:B1 0
5 *3815:B1 4.97427e-05
6 *4130:A 5.11875e-05
7 *4131:X 0.000224275
8 *657:59 0.00143667
9 *657:53 0.00155293
10 *657:36 0.0012642
11 *657:23 0.00121378
12 *657:6 0.0012404
13 *3815:B1 *3815:A2 1.98839e-05
14 *3820:B1 *3820:A2 3.69047e-06
15 *4128:A *3491:C 0
16 *4128:A *3491:D 1.04114e-05
17 *4128:A *3568:B1 7.36162e-05
18 *4128:A *3571:A1 0
19 *4128:A *3650:A1 0
20 *4128:A *3820:A2 0.000211672
21 *4128:A *904:63 5.58757e-05
22 *4128:A *919:10 0
23 *4128:A *1076:12 0
24 *4128:A *1076:31 0.000199549
25 *4130:A *4176:A 3.11088e-05
26 *657:6 *4123:A 0.000219366
27 *657:23 *3558:B 8.64555e-05
28 *657:23 *3815:A1 8.25098e-05
29 *657:23 *4046:D 6.45351e-05
30 *657:23 *896:10 0.000167031
31 *657:23 *904:105 0
32 *657:23 *1073:10 0
33 *657:23 *1085:19 4.17741e-05
34 *657:23 *1086:21 0
35 *657:23 *1086:36 0
36 *657:23 *1086:74 2.04825e-05
37 *657:23 *1118:14 0
38 *657:36 *3550:B1 0.000250915
39 *657:36 *1085:19 0.000101545
40 *657:53 *3819:A2 0.000785316
41 *657:53 *3820:A1 0.000144773
42 *657:53 *881:107 0.000474126
43 *657:59 *3820:A1 5.52302e-05
44 *657:59 *904:57 0.000525844
45 *657:59 *904:63 0.000218726
46 *3549:B1 *657:53 0.00014285
47 *3552:B *657:23 0
48 *3555:A2 *3815:B1 1.24368e-05
49 *3555:A2 *657:23 5.96516e-05
50 *3572:B *4128:A 2.44318e-05
51 *3876:RESET_B *4128:A 0.0002229
52 *3967:CLK *4128:A 0.000146991
53 *3973:RESET_B *4128:A 0.000288164
54 *4005:RESET_B *657:53 1.40306e-05
55 *4006:RESET_B *657:53 3.34672e-05
56 *4009:RESET_B *657:23 0.000762762
57 *4012:RESET_B *3820:B1 9.71197e-05
58 *4013:RESET_B *4128:A 0
59 *4085:A *4128:A 0.000139344
60 *4341:A *4128:A 9.15842e-06
61 *503:10 *657:59 0.000106542
62 *503:16 *4128:A 8.15939e-05
63 *503:16 *657:59 8.47011e-05
64 *655:28 *4128:A 0.000135573
65 *656:69 *657:23 0
66 *656:69 *657:36 0.000561696
67 *656:69 *657:53 0.000150625
*RES
1 *4131:X *657:6 12.7107 
2 *657:6 *4130:A 10.2643 
3 *657:6 *657:23 29.9107 
4 *657:23 *3815:B1 10.2643 
5 *657:23 *657:36 11.6071 
6 *657:36 *3814:B1 13.8 
7 *657:36 *657:53 26.8393 
8 *657:53 *657:59 16.2143 
9 *657:59 *4128:A 43.4786 
10 *657:59 *3820:B1 14.7464 
11 *657:53 *3819:B1 9.3 
*END

*D_NET *658 0.01629
*CONN
*I *3780:B1 I *D sky130_fd_sc_hd__o21a_2
*I *3776:B1 I *D sky130_fd_sc_hd__o21a_2
*I *3778:B1 I *D sky130_fd_sc_hd__o21a_2
*I *3777:B1 I *D sky130_fd_sc_hd__o21a_2
*I *3783:B1 I *D sky130_fd_sc_hd__o21a_2
*I *3793:B1 I *D sky130_fd_sc_hd__o21a_2
*I *3779:B1 I *D sky130_fd_sc_hd__o21a_2
*I *3784:B1 I *D sky130_fd_sc_hd__o21a_2
*I *3826:B1 I *D sky130_fd_sc_hd__o21a_2
*I *3785:B1 I *D sky130_fd_sc_hd__o21a_2
*I *4132:X O *D sky130_fd_sc_hd__clkdlybuf4s25_1
*CAP
1 *3780:B1 0
2 *3776:B1 0
3 *3778:B1 0.000266092
4 *3777:B1 0.000391892
5 *3783:B1 0.000423854
6 *3793:B1 0.000256542
7 *3779:B1 0
8 *3784:B1 0.000140643
9 *3826:B1 0
10 *3785:B1 0.000255039
11 *4132:X 0.000233282
12 *658:114 0.00112161
13 *658:68 0.000280931
14 *658:64 0.000497637
15 *658:60 0.000618686
16 *658:56 0.000668812
17 *658:50 0.000385949
18 *658:36 0.000571984
19 *658:10 0.000355258
20 *658:8 0.000630699
21 *3777:B1 *3777:A2 8.39e-05
22 *3777:B1 *889:16 5.33005e-05
23 *3777:B1 *911:10 0
24 *3778:B1 *3422:A1_N 5.61763e-05
25 *3778:B1 *3422:A2_N 0.000136951
26 *3778:B1 *885:28 9.7049e-06
27 *3778:B1 *899:47 5.7661e-06
28 *3783:B1 *3423:A 4.25427e-05
29 *3783:B1 *3431:B 9.41642e-05
30 *3783:B1 *3779:A1 0.00035748
31 *3783:B1 *3783:A1 5.52302e-05
32 *3783:B1 *3935:D 0.000104974
33 *3783:B1 *911:24 0
34 *3783:B1 *1089:22 0.00012401
35 *3784:B1 *3779:A1 1.3701e-05
36 *3784:B1 *880:91 7.32955e-05
37 *3784:B1 *880:102 0.000357952
38 *3784:B1 *894:72 0.00010096
39 *3784:B1 *894:83 0.000315158
40 *3785:B1 *3780:A1 1.19402e-05
41 *3785:B1 *3785:A1 0.00014285
42 *3785:B1 *3785:A2 0.00010096
43 *3785:B1 *898:102 0
44 *3793:B1 *880:102 6.9253e-05
45 *3793:B1 *889:34 0.000397924
46 *3793:B1 *911:24 0
47 *658:10 *3780:A1 8.77116e-05
48 *658:36 *3780:A1 4.97555e-05
49 *658:36 *3975:RESET_B 0.000101143
50 *658:50 *3521:A 0.000402777
51 *658:50 *3776:A1 5.71472e-05
52 *658:50 *3975:RESET_B 0.000121375
53 *658:50 *1089:22 4.02462e-05
54 *658:56 *3521:A 0.00021081
55 *658:68 *880:102 0.000114121
56 *658:68 *911:24 0
57 *658:68 *911:30 0
58 *658:114 *3422:A1_N 0
59 *658:114 *3426:A2 0.000192204
60 *3422:B1 *3778:B1 0.000142856
61 *3422:B2 *3778:B1 6.97409e-05
62 *3431:A *3783:B1 0
63 *3431:A *658:56 5.58941e-05
64 *3431:A *658:114 2.24646e-05
65 *3930:CLK *658:114 9.91086e-05
66 *3930:D *3777:B1 0.000310286
67 *3930:D *3778:B1 8.36572e-05
68 *3931:SET_B *3784:B1 4.88637e-05
69 *3975:CLK *3783:B1 8.98801e-05
70 *3975:D *3783:B1 0
71 *4018:D *658:36 9.56968e-05
72 *4018:RESET_B *658:10 7.58571e-05
73 *4018:RESET_B *658:36 3.5707e-05
74 *4082:A *658:50 1.98839e-05
75 *4083:A *658:50 0.000195555
76 *4099:A *658:56 0.000186669
77 *4099:A *658:60 0.00033577
78 *4099:A *658:64 0.000660801
79 *4149:A *658:114 0.00105021
80 *360:14 *658:64 0.00044468
81 *360:61 *658:60 0.000307343
82 *360:61 *658:64 0.000216121
83 *423:38 *658:50 3.75052e-05
84 *603:63 *658:114 1.01912e-05
85 *607:12 *658:114 0
86 *607:16 *658:114 0
87 *607:27 *658:50 0.000160621
88 *607:27 *658:56 0.000213179
89 *611:10 *3783:B1 0.000114688
90 *611:52 *3783:B1 2.23987e-05
*RES
1 *4132:X *658:8 16.3893 
2 *658:8 *658:10 3.16071 
3 *658:10 *3785:B1 18.7464 
4 *658:10 *3826:B1 13.8 
5 *658:8 *658:36 11.1607 
6 *658:36 *658:50 17.5893 
7 *658:50 *658:56 9.05357 
8 *658:56 *658:60 7.91071 
9 *658:60 *658:64 10.7857 
10 *658:64 *658:68 7.35714 
11 *658:68 *3784:B1 15.1929 
12 *658:68 *3779:B1 9.3 
13 *658:64 *3793:B1 19.5679 
14 *658:60 *3783:B1 30.3536 
15 *658:56 *658:114 18.2857 
16 *658:114 *3777:B1 26.1214 
17 *658:114 *3778:B1 15.1929 
18 *658:50 *3776:B1 9.3 
19 *658:36 *3780:B1 9.3 
*END

*D_NET *659 0.0127657
*CONN
*I *3852:B1 I *D sky130_fd_sc_hd__o21a_2
*I *3843:B1 I *D sky130_fd_sc_hd__o21a_2
*I *3844:B1 I *D sky130_fd_sc_hd__o21a_2
*I *3853:B1 I *D sky130_fd_sc_hd__o21a_2
*I *3804:B1 I *D sky130_fd_sc_hd__o21a_2
*I *3851:B1 I *D sky130_fd_sc_hd__o21a_2
*I *3845:B1 I *D sky130_fd_sc_hd__o21a_2
*I *3763:B1 I *D sky130_fd_sc_hd__o21a_2
*I *3787:B1 I *D sky130_fd_sc_hd__o21a_2
*I *3788:B1 I *D sky130_fd_sc_hd__o21a_2
*I *4133:X O *D sky130_fd_sc_hd__clkdlybuf4s25_1
*CAP
1 *3852:B1 0
2 *3843:B1 0
3 *3844:B1 0.000158441
4 *3853:B1 3.72884e-05
5 *3804:B1 0.000447206
6 *3851:B1 0.000119191
7 *3845:B1 8.34974e-05
8 *3763:B1 0
9 *3787:B1 0
10 *3788:B1 0.000330774
11 *4133:X 0.000417687
12 *659:99 0.000643522
13 *659:90 0.000797085
14 *659:77 0.000898695
15 *659:75 0.000547661
16 *659:58 0.000559719
17 *659:47 0.000231894
18 *659:20 0.000522631
19 *659:16 0.00041147
20 *659:6 0.000716057
21 *3788:B1 *3788:A1 0
22 *3788:B1 *3939:D 4.884e-05
23 *3788:B1 *4213:A 0
24 *3804:B1 *879:25 8.57023e-05
25 *3804:B1 *879:29 0.00014183
26 *3804:B1 *893:25 0.000181796
27 *3804:B1 *893:27 9.90367e-05
28 *3844:B1 *3844:A1 0.000280157
29 *3844:B1 *3844:A2 0.000225261
30 *3844:B1 *885:104 1.19402e-05
31 *3844:B1 *899:116 1.52978e-05
32 *3845:B1 *899:82 0.000139913
33 *3851:B1 *901:69 0.000227532
34 *659:6 *4133:A 3.04498e-05
35 *659:6 *885:54 1.92905e-05
36 *659:16 *885:62 7.50473e-05
37 *659:16 *885:64 5.04705e-05
38 *659:16 *899:82 0.000217141
39 *659:16 *899:84 9.90431e-05
40 *659:16 *911:10 0
41 *659:20 *3787:A1 0.000232399
42 *659:20 *3787:A2 0.000318101
43 *659:20 *885:64 0.00014631
44 *659:20 *899:84 0.00034756
45 *659:47 *4043:D 0.000108848
46 *659:47 *911:10 0
47 *659:58 *4043:D 0.000103041
48 *659:58 *901:69 3.34295e-05
49 *659:75 *3391:A2 1.39726e-05
50 *659:75 *4043:D 7.57773e-05
51 *659:75 *4169:A 1.46624e-05
52 *659:75 *4190:A 0
53 *659:75 *887:82 3.99614e-06
54 *659:75 *901:69 0.000527443
55 *659:77 *3391:A2 0.000188586
56 *659:90 *3391:B1 3.34366e-05
57 *659:90 *3853:A2 0
58 *659:90 *4044:D 0
59 *659:90 *1028:8 0
60 *659:99 *3843:A2 9.90367e-05
61 *659:99 *3853:A1 0.000405727
62 *659:99 *3853:A2 0.000405727
63 *3392:B1 *3804:B1 2.89016e-05
64 *3616:A *659:99 4.43256e-05
65 *3939:RESET_B *3788:B1 1.92789e-05
66 *3940:RESET_B *3788:B1 6.97972e-05
67 *4036:D *659:99 9.60875e-05
68 *4043:RESET_B *659:6 3.88168e-05
69 *4043:RESET_B *659:16 2.40379e-05
70 *4043:RESET_B *659:58 0
71 *4044:RESET_B *659:90 0
72 *4100:A *3845:B1 7.61932e-05
73 *4100:A *659:58 6.39901e-05
74 *628:91 *3845:B1 5.33005e-05
75 *628:91 *659:47 0.000165269
76 *628:91 *659:58 3.17148e-05
77 *628:93 *659:16 3.12463e-05
78 *628:93 *659:47 8.32242e-05
79 *628:97 *659:16 9.87983e-06
*RES
1 *4133:X *659:6 14.3536 
2 *659:6 *659:16 14.5893 
3 *659:16 *659:20 7.53571 
4 *659:20 *3788:B1 24.3714 
5 *659:20 *3787:B1 9.3 
6 *659:16 *3763:B1 9.3 
7 *659:6 *659:47 7.66071 
8 *659:47 *3845:B1 15.9786 
9 *659:47 *659:58 2.55357 
10 *659:58 *3851:B1 16.3893 
11 *659:58 *659:75 12.1964 
12 *659:75 *659:77 3.41071 
13 *659:77 *3804:B1 18.4607 
14 *659:77 *659:90 13.9821 
15 *659:90 *3853:B1 9.83571 
16 *659:90 *659:99 11.625 
17 *659:99 *3844:B1 23.0321 
18 *659:99 *3843:B1 9.3 
19 *659:75 *3852:B1 9.3 
*END

*D_NET *660 0.015274
*CONN
*I *3835:B1 I *D sky130_fd_sc_hd__o21a_2
*I *3834:B1 I *D sky130_fd_sc_hd__o21a_2
*I *3833:B1 I *D sky130_fd_sc_hd__o21a_2
*I *3832:B1 I *D sky130_fd_sc_hd__o21a_2
*I *3831:B1 I *D sky130_fd_sc_hd__o21a_2
*I *3830:B1 I *D sky130_fd_sc_hd__o21a_2
*I *3626:B1 I *D sky130_fd_sc_hd__o21a_2
*I *3809:B1 I *D sky130_fd_sc_hd__o21a_2
*I *3808:B1 I *D sky130_fd_sc_hd__o21a_2
*I *3762:B1 I *D sky130_fd_sc_hd__o21a_2
*I *4134:X O *D sky130_fd_sc_hd__clkdlybuf4s25_1
*CAP
1 *3835:B1 0.000227781
2 *3834:B1 0
3 *3833:B1 0
4 *3832:B1 0
5 *3831:B1 0.000277511
6 *3830:B1 0.000203068
7 *3626:B1 0
8 *3809:B1 0.000350832
9 *3808:B1 0.000397172
10 *3762:B1 0.000181422
11 *4134:X 0
12 *660:104 0.000525669
13 *660:68 0.000537474
14 *660:64 0.000379794
15 *660:44 0.000350832
16 *660:31 0.000658617
17 *660:29 0.000584344
18 *660:27 0.000412173
19 *660:23 0.00108042
20 *660:4 0.000551779
21 *3762:B1 *4134:A 4.27437e-05
22 *3762:B1 *897:54 0.000179025
23 *3808:B1 *3496:B 0
24 *3808:B1 *3626:A1 0
25 *3808:B1 *3626:A2 8.16036e-05
26 *3808:B1 *897:54 0.00026711
27 *3808:B1 *897:58 4.87953e-05
28 *3808:B1 *1069:18 0
29 *3809:B1 *3626:A1 0.000230482
30 *3809:B1 *3809:A1 0.000315158
31 *3809:B1 *3809:A2 0.000271345
32 *3830:B1 *3830:A1 3.18676e-05
33 *3830:B1 *3830:A2 0.00014285
34 *3830:B1 *4132:A 3.69047e-06
35 *3830:B1 *886:18 6.57914e-05
36 *3830:B1 *900:20 9.90431e-05
37 *3830:B1 *900:33 7.60306e-05
38 *3835:B1 *661:30 0.000294051
39 *3835:B1 *886:74 0.000295963
40 *3835:B1 *902:96 9.25014e-06
41 *660:23 *3855:D 0.000150618
42 *660:23 *4134:A 9.77274e-05
43 *660:23 *4135:A 0.000234279
44 *660:23 *661:8 9.60875e-05
45 *660:23 *902:96 0.000629818
46 *660:23 *910:22 0
47 *660:27 *3355:A 0.000479652
48 *660:27 *3495:B 0.000136951
49 *660:27 *3516:B 0.000125057
50 *660:27 *886:16 6.25993e-05
51 *660:27 *900:18 0.000424983
52 *660:31 *3496:B 0
53 *660:64 *4145:A 0.00114863
54 *660:68 *900:33 2.39876e-05
55 *660:104 *4135:A 0.000234279
56 *660:104 *680:10 0.000123295
57 *660:104 *886:63 0.00036496
58 *660:104 *902:96 0.000456298
59 *3497:C1 *660:31 0
60 *3854:D *660:31 0
61 *3854:SET_B *660:31 5.56943e-05
62 *4025:RESET_B *660:64 7.8327e-05
63 *4082:A *3831:B1 0.00036193
64 *4082:A *660:64 0.000485681
65 *4103:A *660:64 0.000274288
66 *4188:A *660:27 5.52238e-05
67 *485:10 *3762:B1 0
68 *610:19 *660:31 0
69 *610:19 *660:64 0
70 *610:47 *660:68 0
*RES
1 *4134:X *660:4 9.3 
2 *660:4 *3762:B1 21.3 
3 *660:4 *660:23 15.1071 
4 *660:23 *660:27 16.125 
5 *660:27 *660:29 4.5 
6 *660:29 *660:31 4.67857 
7 *660:31 *3808:B1 21.8179 
8 *660:31 *660:44 4.5 
9 *660:44 *3809:B1 17.6571 
10 *660:44 *3626:B1 9.3 
11 *660:29 *660:64 18.1607 
12 *660:64 *660:68 5.53571 
13 *660:68 *3830:B1 18.7464 
14 *660:68 *3831:B1 17.9429 
15 *660:64 *3832:B1 9.3 
16 *660:27 *3833:B1 9.3 
17 *660:23 *660:104 10.6786 
18 *660:104 *3834:B1 13.8 
19 *660:104 *3835:B1 21.4429 
*END

*D_NET *661 0.0170349
*CONN
*I *3865:RESET_B I *D sky130_fd_sc_hd__dfrtp_2
*I *3837:B1 I *D sky130_fd_sc_hd__o21a_2
*I *3840:B1 I *D sky130_fd_sc_hd__o21a_2
*I *3839:B1 I *D sky130_fd_sc_hd__o21a_2
*I *3838:B1 I *D sky130_fd_sc_hd__o21a_2
*I *3841:B1 I *D sky130_fd_sc_hd__o21a_2
*I *3829:B1 I *D sky130_fd_sc_hd__o21a_2
*I *3836:B1 I *D sky130_fd_sc_hd__o21a_2
*I *3864:RESET_B I *D sky130_fd_sc_hd__dfrtp_2
*I *4134:A I *D sky130_fd_sc_hd__clkdlybuf4s25_1
*I *4135:X O *D sky130_fd_sc_hd__clkdlybuf4s25_1
*CAP
1 *3865:RESET_B 0
2 *3837:B1 0
3 *3840:B1 0.00091199
4 *3839:B1 0
5 *3838:B1 0.000152009
6 *3841:B1 0
7 *3829:B1 0.000331569
8 *3836:B1 0
9 *3864:RESET_B 0
10 *4134:A 0.000181192
11 *4135:X 0.000346284
12 *661:94 0.00112355
13 *661:83 0.000517068
14 *661:79 0.000236709
15 *661:53 0.00145091
16 *661:41 0.00144472
17 *661:30 0.000888916
18 *661:26 0.000689386
19 *661:19 0.000342908
20 *661:8 0.00082774
21 *3829:B1 *3573:A1 0.000186669
22 *3829:B1 *3604:A 9.47613e-05
23 *3829:B1 *4283:A 0.000139907
24 *3829:B1 *901:51 0.000173804
25 *3829:B1 *901:96 2.6726e-05
26 *3829:B1 *903:6 0.000318107
27 *3829:B1 *903:12 0.000135028
28 *3829:B1 *1113:16 0.000380797
29 *3838:B1 *3838:A2 0.000139913
30 *3838:B1 *1111:6 3.32631e-05
31 *3840:B1 *3839:A1 0
32 *4134:A *897:54 0.000230475
33 *661:8 *4135:A 5.71472e-05
34 *661:19 *900:18 4.86278e-05
35 *661:19 *902:96 0.00063154
36 *661:26 *900:18 5.49161e-05
37 *661:26 *902:96 0.000127439
38 *661:30 *3636:A1 4.73471e-05
39 *661:30 *886:87 0
40 *661:30 *900:18 0.000466243
41 *661:30 *900:58 0.000125724
42 *661:30 *900:81 0
43 *661:30 *902:96 0.000602421
44 *661:41 *900:81 0
45 *661:41 *900:92 0
46 *661:53 *3597:A1 5.71472e-05
47 *661:53 *887:67 3.08382e-06
48 *661:53 *901:51 5.33005e-05
49 *661:83 *900:92 3.40128e-05
50 *661:83 *900:101 0.000186397
51 *661:83 *1112:14 0.000150618
52 *661:94 *3839:A1 0
53 *661:94 *3839:A2 0.000273321
54 *661:94 *900:101 1.76135e-05
55 *661:94 *1112:14 0.000192585
56 *3594:A1 *661:53 0.000235689
57 *3597:A2 *661:53 8.07313e-05
58 *3598:B1 *661:41 9.69119e-06
59 *3598:B1 *661:53 0.000405727
60 *3598:B1 *661:83 0
61 *3599:A2 *661:94 0
62 *3762:B1 *4134:A 4.27437e-05
63 *3835:B1 *661:30 0.000294051
64 *3855:SET_B *661:19 0
65 *3865:D *661:19 0
66 *4025:CLK *661:30 0
67 *4026:RESET_B *661:30 0.000367389
68 *4027:RESET_B *661:30 0.000227021
69 *4028:RESET_B *661:30 0
70 *4029:RESET_B *661:83 0.000106299
71 *4031:RESET_B *661:94 0.000175505
72 *4032:RESET_B *3840:B1 2.89016e-05
73 *4081:A *661:53 0.000322529
74 *390:19 *3829:B1 0
75 *466:12 *3829:B1 0
76 *518:27 *661:53 3.31419e-05
77 *518:35 *661:53 7.77652e-05
78 *660:23 *4134:A 9.77274e-05
79 *660:23 *661:8 9.60875e-05
*RES
1 *4135:X *661:8 14.7821 
2 *661:8 *4134:A 13.9429 
3 *661:8 *661:19 12.5179 
4 *661:19 *3864:RESET_B 4.5 
5 *661:19 *661:26 1.64286 
6 *661:26 *661:30 20.6964 
7 *661:30 *3836:B1 13.8 
8 *661:30 *661:41 8.875 
9 *661:41 *661:53 21.375 
10 *661:53 *3829:B1 28.8179 
11 *661:53 *3841:B1 9.3 
12 *661:41 *661:79 1.375 
13 *661:79 *661:83 9.78571 
14 *661:83 *3838:B1 16.8 
15 *661:83 *661:94 7.10714 
16 *661:94 *3839:B1 13.8 
17 *661:94 *3840:B1 29.5857 
18 *661:79 *3837:B1 9.3 
19 *661:26 *3865:RESET_B 4.5 
*END

*D_NET *662 0.0231095
*CONN
*I *4132:A I *D sky130_fd_sc_hd__clkdlybuf4s25_1
*I *3975:RESET_B I *D sky130_fd_sc_hd__dfrtp_2
*I *3842:B1 I *D sky130_fd_sc_hd__o21a_2
*I *4133:A I *D sky130_fd_sc_hd__clkdlybuf4s25_1
*I *3847:B1 I *D sky130_fd_sc_hd__o21a_2
*I *4135:A I *D sky130_fd_sc_hd__clkdlybuf4s25_1
*I *4136:X O *D sky130_fd_sc_hd__clkdlybuf4s25_1
*CAP
1 *4132:A 0.000584399
2 *3975:RESET_B 0.000715882
3 *3842:B1 0.00129182
4 *4133:A 0.000403599
5 *3847:B1 0
6 *4135:A 0.000371533
7 *4136:X 8.31542e-05
8 *662:80 0.00183261
9 *662:52 0.00183571
10 *662:41 0.00100504
11 *662:33 0.00417987
12 *662:10 0.00323748
13 *3842:B1 *3604:A 7.43578e-06
14 *3842:B1 *3829:A1 6.87574e-05
15 *3842:B1 *885:54 6.42095e-05
16 *3842:B1 *887:52 2.26973e-05
17 *3842:B1 *887:106 0.000947219
18 *3842:B1 *901:96 1.88578e-05
19 *3842:B1 *903:25 0
20 *3842:B1 *1113:16 0.000729012
21 *3975:RESET_B *1089:22 0.000394099
22 *4132:A *3532:B 0
23 *4132:A *886:33 0
24 *4132:A *900:33 0
25 *4133:A *885:54 0.000119125
26 *4135:A *3636:S 3.45894e-05
27 *4135:A *3637:A1 0.000971044
28 *4135:A *3855:D 0.000150618
29 *4135:A *886:63 0.000226021
30 *4135:A *910:22 0.000107503
31 *662:10 *3637:A1 7.6644e-05
32 *662:10 *3834:A1 3.69047e-06
33 *662:10 *886:63 6.91157e-05
34 *662:33 *901:32 4.53889e-05
35 *662:33 *1106:8 9.25014e-06
36 *662:33 *1107:10 3.23275e-05
37 *662:41 *885:39 0.000222892
38 *662:41 *899:28 0
39 *662:41 *899:47 7.83366e-05
40 *662:52 *885:50 0.00012743
41 *662:52 *899:68 8.07951e-05
42 *3422:B2 *662:41 0
43 *3577:B *662:41 0
44 *3579:A1 *662:33 5.33334e-05
45 *3579:A1 *662:80 2.00751e-05
46 *3579:A2 *662:41 2.89114e-05
47 *3579:A2 *662:80 2.94103e-05
48 *3579:B1 *662:80 0
49 *3608:C *3842:B1 0.000154934
50 *3611:A2 *3842:B1 8.9163e-05
51 *3830:B1 *4132:A 3.69047e-06
52 *4018:D *662:80 0
53 *4022:D *662:41 0
54 *4022:D *662:80 0
55 *4022:RESET_B *662:80 0
56 *4023:D *662:33 1.15281e-05
57 *4023:D *662:80 0.000202128
58 *4023:RESET_B *662:80 0
59 *4024:CLK *662:33 1.57885e-05
60 *4025:D *662:33 2.59355e-05
61 *4033:D *3842:B1 0.000125724
62 *4034:D *3842:B1 0
63 *4034:RESET_B *3842:B1 9.80029e-05
64 *4082:A *662:80 0
65 *4104:A *3975:RESET_B 5.52302e-05
66 *460:10 *662:33 0.000200413
67 *509:10 *662:41 0
68 *607:78 *662:41 0.000174972
69 *607:78 *662:52 0.000439656
70 *610:25 *4132:A 0.000202835
71 *610:47 *4132:A 0.000250915
72 *658:36 *3975:RESET_B 0.000101143
73 *658:50 *3975:RESET_B 0.000121375
74 *659:6 *4133:A 3.04498e-05
75 *660:23 *4135:A 0.000234279
76 *660:104 *4135:A 0.000234279
77 *661:8 *4135:A 5.71472e-05
*RES
1 *4136:X *662:10 15.3714 
2 *662:10 *4135:A 29.9429 
3 *662:10 *662:33 46.2857 
4 *662:33 *662:41 19.3214 
5 *662:41 *3847:B1 13.8 
6 *662:41 *662:52 10.0893 
7 *662:52 *4133:A 14.675 
8 *662:52 *3842:B1 44.1214 
9 *662:33 *662:80 18.8393 
10 *662:80 *3975:RESET_B 13.4018 
11 *662:80 *4132:A 28.1214 
*END

*D_NET *663 0.00118303
*CONN
*I *4073:A I *D sky130_fd_sc_hd__ebufn_2
*I *4074:LO O *D sky130_fd_sc_hd__conb_1
*CAP
1 *4073:A 0.000367556
2 *4074:LO 0.000367556
3 *4073:A *889:57 1.0357e-05
4 *4073:TE_B *4073:A 1.85728e-05
5 *4094:A *4073:A 2.8266e-06
6 *622:6 *4073:A 0.00018372
7 *622:76 *4073:A 0.000139907
8 *622:78 *4073:A 5.74562e-05
9 *622:126 *4073:A 3.50758e-05
10 *643:67 *4073:A 0
*RES
1 *4074:LO *4073:A 34.4884 
*END

*D_NET *664 0.00198779
*CONN
*I *3411:B1 I *D sky130_fd_sc_hd__o21ai_2
*I *3410:D1 I *D sky130_fd_sc_hd__a2111o_2
*I *4337:X O *D sky130_fd_sc_hd__clkdlybuf4s25_1
*CAP
1 *3411:B1 0
2 *3410:D1 0.000164986
3 *4337:X 0.000109816
4 *664:10 0.000274801
5 *3410:D1 *3410:A1 5.52238e-05
6 *3410:D1 *906:12 2.44318e-05
7 *3408:A1 *3410:D1 3.23017e-05
8 *3410:C1 *3410:D1 0.000400831
9 *4375:A *3410:D1 0.000155877
10 *414:23 *664:10 0
11 *631:10 *664:10 5.52238e-05
12 *631:12 *3410:D1 0.000364974
13 *631:12 *664:10 0.000150618
14 *653:8 *3410:D1 0.000175526
15 *653:8 *664:10 2.31791e-05
*RES
1 *4337:X *664:10 16.2821 
2 *664:10 *3410:D1 21.0679 
3 *664:10 *3411:B1 13.8 
*END

*D_NET *665 0.000419171
*CONN
*I *3635:B I *D sky130_fd_sc_hd__nor3_2
*I *4173:X O *D sky130_fd_sc_hd__dlygate4sd3_1
*CAP
1 *3635:B 0.000115743
2 *4173:X 0.000115743
3 *3635:B *3648:B 0.000124056
4 *3635:B *1011:10 8.6229e-06
5 *4085:A *3635:B 5.50052e-05
6 *4246:A *3635:B 0
*RES
1 *4173:X *3635:B 29.7786 
*END

*D_NET *666 0.00222973
*CONN
*I *3863:RESET_B I *D sky130_fd_sc_hd__dfrtp_2
*I *4174:X O *D sky130_fd_sc_hd__dlygate4sd3_1
*CAP
1 *3863:RESET_B 0.000939852
2 *4174:X 0.000939852
3 *3863:RESET_B *3634:A 2.16719e-05
4 *3863:RESET_B *3634:B 0
5 *3863:RESET_B *3863:D 5.52238e-05
6 *3863:RESET_B *4047:D 7.55769e-05
7 *3863:RESET_B *4383:A 0
8 *3863:RESET_B *4389:A 3.69697e-05
9 *3964:CLK *3863:RESET_B 0
10 *4124:A *3863:RESET_B 0.000160582
11 *4346:A *3863:RESET_B 0
*RES
1 *4174:X *3863:RESET_B 31.4161 
*END

*D_NET *667 0.000622448
*CONN
*I *4041:D I *D sky130_fd_sc_hd__dfrtp_2
*I *4175:X O *D sky130_fd_sc_hd__dlygate4sd3_1
*CAP
1 *4041:D 0.000220384
2 *4175:X 0.000220384
3 *4041:D *4151:A 2.04825e-05
4 *4041:D *4175:A 3.92854e-05
5 *3850:B1 *4041:D 7.84126e-05
6 *4094:A *4041:D 4.34988e-05
7 *11:10 *4041:D 0
*RES
1 *4175:X *4041:D 31.1179 
*END

*D_NET *668 0.000542216
*CONN
*I *4048:D I *D sky130_fd_sc_hd__dfrtp_2
*I *4176:X O *D sky130_fd_sc_hd__dlygate4sd3_1
*CAP
1 *4048:D 8.30203e-05
2 *4176:X 8.30203e-05
3 *4048:D *3817:A1 0.000175974
4 *4048:D *910:20 0.000174266
5 *4048:CLK *4048:D 2.59355e-05
*RES
1 *4176:X *4048:D 30.3857 
*END

*D_NET *669 0.000445317
*CONN
*I *3971:D I *D sky130_fd_sc_hd__dfrtp_2
*I *4177:X O *D sky130_fd_sc_hd__dlygate4sd3_1
*CAP
1 *3971:D 0.000124498
2 *4177:X 0.000124498
3 *3971:D *4398:A 0
4 *3971:CLK *3971:D 0.000142856
5 *4380:A *3971:D 4.76575e-05
6 *649:10 *3971:D 5.80706e-06
*RES
1 *4177:X *3971:D 30.2964 
*END

*D_NET *670 0.00121236
*CONN
*I *4044:D I *D sky130_fd_sc_hd__dfrtp_2
*I *4178:X O *D sky130_fd_sc_hd__dlygate4sd3_1
*CAP
1 *4044:D 0.000535124
2 *4178:X 0.000535124
3 *4044:D *3761:A 0
4 *4044:D *4178:A 4.01768e-05
5 *4045:RESET_B *4044:D 4.85567e-05
6 *4071:A *4044:D 0
7 *50:8 *4044:D 5.33786e-05
8 *659:90 *4044:D 0
*RES
1 *4178:X *4044:D 35.6893 
*END

*D_NET *671 0.000860174
*CONN
*I *3960:D I *D sky130_fd_sc_hd__dfrtp_2
*I *4179:X O *D sky130_fd_sc_hd__dlygate4sd3_1
*CAP
1 *3960:D 0.000326835
2 *4179:X 0.000326835
3 *3960:D *4179:A 3.18676e-05
4 *3960:D *4386:A 0
5 *3960:D *981:65 2.78822e-05
6 *3960:CLK *3960:D 0.000105163
7 *3962:RESET_B *3960:D 0
8 *3971:CLK *3960:D 4.15914e-05
*RES
1 *4179:X *3960:D 33.7964 
*END

*D_NET *672 0.00195765
*CONN
*I *3964:D I *D sky130_fd_sc_hd__dfrtp_2
*I *4180:X O *D sky130_fd_sc_hd__dlygate4sd3_1
*CAP
1 *3964:D 0.000645267
2 *4180:X 0.000645267
3 *3964:D *3634:A 0
4 *3964:D *4196:A 2.89114e-05
5 *3964:D *1011:10 0
6 *3635:C *3964:D 0.000226453
7 *3863:CLK *3964:D 0
8 *3964:CLK *3964:D 0
9 *3968:RESET_B *3964:D 0.000383216
10 *4174:A *3964:D 2.85321e-05
11 *4346:A *3964:D 0
*RES
1 *4180:X *3964:D 40.6357 
*END

*D_NET *673 0.0034426
*CONN
*I *3414:A I *D sky130_fd_sc_hd__or3_2
*I *3415:A1 I *D sky130_fd_sc_hd__o21ai_2
*I *3413:A I *D sky130_fd_sc_hd__xnor2_2
*I *4338:X O *D sky130_fd_sc_hd__clkdlybuf4s25_1
*CAP
1 *3414:A 0.000485843
2 *3415:A1 0.000285737
3 *3413:A 0.000151603
4 *4338:X 0
5 *673:8 0.000559699
6 *673:4 0.000608201
7 *3414:A *3406:A1 6.09143e-05
8 *3406:A2 *3414:A 5.52238e-05
9 *3406:B1 *3414:A 8.21467e-05
10 *3414:C *3414:A 0.000540833
11 *3415:A2 *3415:A1 0
12 *3419:B *3415:A1 4.22908e-05
13 *3420:B *3415:A1 3.2231e-05
14 *3991:RESET_B *3414:A 2.59355e-05
15 *3993:CLK *3415:A1 0.00022
16 *3993:CLK *673:8 1.76039e-05
17 *414:23 *673:8 0
18 *416:24 *3415:A1 0.000181134
19 *416:24 *673:8 9.32027e-05
*RES
1 *4338:X *673:4 9.3 
2 *673:4 *673:8 7.05357 
3 *673:8 *3413:A 15.9786 
4 *673:8 *3415:A1 21.6929 
5 *673:4 *3414:A 20.1929 
*END

*D_NET *674 0.000970402
*CONN
*I *3967:D I *D sky130_fd_sc_hd__dfrtp_2
*I *4181:X O *D sky130_fd_sc_hd__dlygate4sd3_1
*CAP
1 *3967:D 0.000280074
2 *4181:X 0.000280074
3 *3967:D *3650:A1 9.96487e-05
4 *272:20 *3967:D 0.000310605
*RES
1 *4181:X *3967:D 31.9393 
*END

*D_NET *675 0.000607956
*CONN
*I *3981:D I *D sky130_fd_sc_hd__dfrtp_2
*I *4182:X O *D sky130_fd_sc_hd__dlygate4sd3_1
*CAP
1 *3981:D 0.000207575
2 *4182:X 0.000207575
3 *353:10 *3981:D 5.33786e-05
4 *621:29 *3981:D 8.37335e-05
5 *621:35 *3981:D 5.56943e-05
*RES
1 *4182:X *3981:D 31.1179 
*END

*D_NET *676 0.00234434
*CONN
*I *3961:D I *D sky130_fd_sc_hd__dfrtp_2
*I *3685:A1 I *D sky130_fd_sc_hd__a22o_2
*I *4183:X O *D sky130_fd_sc_hd__dlygate4sd3_1
*CAP
1 *3961:D 0
2 *3685:A1 0.000410494
3 *4183:X 0.000318082
4 *676:14 0.000728576
5 *3685:A1 *3684:A1 0.000256708
6 *3685:A1 *3685:B2 1.7858e-05
7 *3685:A1 *838:12 0
8 *676:14 *3518:A2 5.33978e-05
9 *3685:A2 *3685:A1 0.000239307
10 *3894:D *3685:A1 0.000177948
11 *3946:RESET_B *3685:A1 5.33005e-05
12 *3961:CLK *3685:A1 5.52302e-05
13 *559:10 *3685:A1 3.34366e-05
*RES
1 *4183:X *676:14 22.7643 
2 *676:14 *3685:A1 27.7643 
3 *676:14 *3961:D 9.3 
*END

*D_NET *677 0.000350355
*CONN
*I *4046:D I *D sky130_fd_sc_hd__dfrtp_2
*I *4184:X O *D sky130_fd_sc_hd__dlygate4sd3_1
*CAP
1 *4046:D 0.000115407
2 *4184:X 0.000115407
3 *4046:D *896:31 5.50052e-05
4 *657:23 *4046:D 6.45351e-05
*RES
1 *4184:X *4046:D 29.7786 
*END

*D_NET *678 0.00259248
*CONN
*I *3985:D I *D sky130_fd_sc_hd__dfrtp_2
*I *3440:B1 I *D sky130_fd_sc_hd__a21oi_2
*I *4185:X O *D sky130_fd_sc_hd__dlygate4sd3_1
*CAP
1 *3985:D 0
2 *3440:B1 0.000473775
3 *4185:X 0.000163584
4 *678:12 0.000637358
5 *3440:B1 *3440:A1 0
6 *3440:B1 *3792:A1 0.000169227
7 *3440:B1 *3792:A2 0.000301669
8 *3440:B1 *878:16 0.00019508
9 *3440:B1 *934:26 0.000212569
10 *678:12 *4139:A 5.33005e-05
11 *678:12 *878:6 7.02611e-05
12 *678:12 *878:16 6.42095e-05
13 *678:12 *880:102 0.000125724
14 *678:12 *894:83 0.000125724
*RES
1 *4185:X *678:12 22.5321 
2 *678:12 *3440:B1 20.8 
3 *678:12 *3985:D 9.3 
*END

*D_NET *679 0.00157859
*CONN
*I *4040:D I *D sky130_fd_sc_hd__dfrtp_2
*I *3390:A2 I *D sky130_fd_sc_hd__o21a_2
*I *4186:X O *D sky130_fd_sc_hd__dlygate4sd3_1
*CAP
1 *4040:D 0.000153027
2 *3390:A2 0.000263743
3 *4186:X 0.000129711
4 *679:8 0.000546481
5 *3390:A2 *3846:A2 3.69865e-05
6 *3390:A2 *878:92 0
7 *3390:A2 *892:68 7.49332e-05
8 *4040:D *878:92 0
9 *4040:D *892:68 2.61496e-05
10 *679:8 *4186:A 5.76121e-05
11 *679:8 *934:26 1.00073e-05
12 *3390:B1 *3390:A2 5.52302e-05
13 *3916:D *3390:A2 0.000149904
14 *4040:CLK *4040:D 7.48091e-05
*RES
1 *4186:X *679:8 15.5679 
2 *679:8 *3390:A2 19.925 
3 *679:8 *4040:D 16.4964 
*END

*D_NET *680 0.00225422
*CONN
*I *3636:A0 I *D sky130_fd_sc_hd__mux2_1
*I *3516:B I *D sky130_fd_sc_hd__nor2_2
*I *4187:X O *D sky130_fd_sc_hd__dlygate4sd3_1
*CAP
1 *3636:A0 0
2 *3516:B 0.000341275
3 *4187:X 4.85299e-05
4 *680:10 0.000389805
5 *3516:B *886:16 0.00045293
6 *3516:B *886:63 0.000307336
7 *3516:B *900:18 0
8 *680:10 *902:96 0.000123295
9 *3864:D *3516:B 0.000331863
10 *4026:CLK *3516:B 0
11 *610:98 *3516:B 1.08359e-05
12 *660:27 *3516:B 0.000125057
13 *660:104 *680:10 0.000123295
*RES
1 *4187:X *680:10 19.9429 
2 *680:10 *3516:B 28.5857 
3 *680:10 *3636:A0 9.3 
*END

*D_NET *681 0.000969436
*CONN
*I *3855:D I *D sky130_fd_sc_hd__dfstp_2
*I *4188:X O *D sky130_fd_sc_hd__dlygate4sd3_1
*CAP
1 *3855:D 0.000217835
2 *4188:X 0.000217835
3 *3855:D *3637:A0 0.000122081
4 *3855:D *3637:A1 5.33005e-05
5 *3865:D *3855:D 5.71472e-05
6 *4135:A *3855:D 0.000150618
7 *660:23 *3855:D 0.000150618
*RES
1 *4188:X *3855:D 32.975 
*END

*D_NET *682 0.00292387
*CONN
*I *3684:A1 I *D sky130_fd_sc_hd__a22o_2
*I *3959:D I *D sky130_fd_sc_hd__dfrtp_2
*I *4189:X O *D sky130_fd_sc_hd__dlygate4sd3_1
*CAP
1 *3684:A1 0.000518147
2 *3959:D 6.49908e-05
3 *4189:X 0.000367827
4 *682:8 0.000950965
5 *3684:A1 *3518:A2 0.000442785
6 *3684:A1 *838:12 0
7 *3959:D *3518:A2 7.6644e-05
8 *3959:D *838:12 0
9 *682:8 *3657:B 5.33433e-05
10 *682:8 *4189:A 4.88637e-05
11 *3684:A2 *3684:A1 1.46576e-05
12 *3685:A1 *3684:A1 0.000256708
13 *3894:RESET_B *682:8 9.50011e-06
14 *3895:CLK *3684:A1 0
15 *3961:CLK *3684:A1 5.52302e-05
16 *3973:D *682:8 2.84677e-05
17 *560:10 *3684:A1 3.57366e-05
*RES
1 *4189:X *682:8 18.4429 
2 *682:8 *3959:D 15.0188 
3 *682:8 *3684:A1 25.6929 
*END

*D_NET *683 0.00196938
*CONN
*I *3392:A2 I *D sky130_fd_sc_hd__o21a_2
*I *4043:D I *D sky130_fd_sc_hd__dfrtp_2
*I *4190:X O *D sky130_fd_sc_hd__dlygate4sd3_1
*CAP
1 *3392:A2 0.000282245
2 *4043:D 0.000226088
3 *4190:X 7.53981e-05
4 *683:6 0.000583732
5 *3392:A2 *4169:A 5.52302e-05
6 *3392:A2 *4190:A 4.72818e-05
7 *3392:A2 *911:141 0.00010096
8 *4043:D *4169:A 0.000177948
9 *4043:D *911:10 0
10 *4043:D *1030:8 0.00010326
11 *683:6 *4190:A 2.95726e-05
12 *628:12 *4043:D 0
13 *659:47 *4043:D 0.000108848
14 *659:58 *4043:D 0.000103041
15 *659:75 *4043:D 7.57773e-05
*RES
1 *4190:X *683:6 10.2464 
2 *683:6 *4043:D 25.1036 
3 *683:6 *3392:A2 14.3893 
*END

*D_NET *684 0.00399464
*CONN
*I *3415:B1 I *D sky130_fd_sc_hd__o21ai_2
*I *3414:B I *D sky130_fd_sc_hd__or3_2
*I *4339:X O *D sky130_fd_sc_hd__clkdlybuf4s25_1
*CAP
1 *3415:B1 0.000279593
2 *3414:B 0.00102461
3 *4339:X 0
4 *684:6 0.00130421
5 *3415:B1 *762:10 5.33882e-05
6 *3406:B1 *3414:B 8.27184e-06
7 *3414:C *3414:B 0.00104754
8 *3415:A2 *3414:B 0
9 *3415:A2 *3415:B1 0
10 *3416:B *3415:B1 7.33453e-05
11 *3419:B *3415:B1 2.89114e-05
12 *4338:A *3414:B 1.72894e-05
13 *4339:A *3414:B 0
14 *4339:A *3415:B1 0
15 *4347:A *3415:B1 0
16 *414:36 *3414:B 0
17 *416:24 *3414:B 0.000132088
18 *416:30 *3415:B1 2.15759e-05
19 *642:6 *3414:B 3.80953e-06
*RES
1 *4339:X *684:6 13.8 
2 *684:6 *3414:B 28.8893 
3 *684:6 *3415:B1 19.6214 
*END

*D_NET *685 0.00363888
*CONN
*I *3355:A I *D sky130_fd_sc_hd__inv_2
*I *3637:A0 I *D sky130_fd_sc_hd__mux2_1
*I *4191:X O *D sky130_fd_sc_hd__dlygate4sd3_1
*CAP
1 *3355:A 0.000157258
2 *3637:A0 0.000633797
3 *4191:X 0.000127459
4 *685:10 0.000918513
5 *3355:A *3495:A_N 9.60939e-05
6 *3355:A *3833:A1 2.08464e-05
7 *3355:A *886:16 0.000452691
8 *3355:A *886:18 3.18676e-05
9 *3355:A *900:18 2.77173e-05
10 *3355:A *900:20 0.00010096
11 *3637:A0 *3495:B 0.000173797
12 *3637:A0 *1068:19 2.16719e-05
13 *3637:A0 *1069:12 0.000198698
14 *685:10 *3516:A 0
15 *685:10 *1068:19 5.64954e-05
16 *3855:CLK *3637:A0 0
17 *3855:D *3637:A0 0.000122081
18 *3855:SET_B *3637:A0 0
19 *4188:A *3637:A0 0
20 *610:81 *685:10 1.92789e-05
21 *660:27 *3355:A 0.000479652
*RES
1 *4191:X *685:10 15.9786 
2 *685:10 *3637:A0 26.2107 
3 *685:10 *3355:A 21.0679 
*END

*D_NET *686 0.00465431
*CONN
*I *3625:C I *D sky130_fd_sc_hd__nor3_2
*I *3433:B1 I *D sky130_fd_sc_hd__a22o_2
*I *3430:B1 I *D sky130_fd_sc_hd__a22o_2
*I *4192:X O *D sky130_fd_sc_hd__dlygate4sd3_1
*CAP
1 *3625:C 0.000246734
2 *3433:B1 0.000667712
3 *3430:B1 0.000283497
4 *4192:X 0
5 *686:10 0.00129396
6 *686:4 0.000589484
7 *3430:B1 *880:38 0
8 *3430:B1 *911:62 1.02504e-05
9 *3430:B1 *1067:28 9.93105e-05
10 *3433:B1 *3520:B 0.000198078
11 *3433:B1 *4222:A 8.18783e-05
12 *3433:B1 *1067:28 9.58508e-05
13 *3625:C *3625:A 0
14 *3625:C *753:12 0.000240484
15 *3625:C *894:72 0.000137983
16 *3625:C *1093:46 0
17 *686:10 *3361:B 0
18 *686:10 *753:12 3.92757e-05
19 *686:10 *911:62 0
20 *686:10 *993:14 0
21 *686:10 *1093:46 0
22 *3430:B2 *3430:B1 2.34204e-05
23 *3430:B2 *686:10 2.34204e-05
24 *3934:D *686:10 0.000125724
25 *645:10 *686:10 0.00041717
26 *645:42 *686:10 8.00806e-05
*RES
1 *4192:X *686:4 9.3 
2 *686:4 *686:10 17.3214 
3 *686:10 *3430:B1 22.2286 
4 *686:10 *3433:B1 18.4786 
5 *686:4 *3625:C 22.8179 
*END

*D_NET *687 0.00167466
*CONN
*I *4016:D I *D sky130_fd_sc_hd__dfstp_2
*I *4193:X O *D sky130_fd_sc_hd__dlygate4sd3_1
*CAP
1 *4016:D 0.000590907
2 *4193:X 0.000590907
3 *4016:D *3396:A 3.97677e-05
4 *4016:D *880:59 1.37292e-05
5 *4016:D *894:51 0
6 *3664:A0 *4016:D 6.05161e-06
7 *3782:B1 *4016:D 0.000171368
8 *3934:RESET_B *4016:D 0.000126439
9 *4122:A *4016:D 9.60939e-05
10 *4236:A *4016:D 3.93986e-05
11 *645:42 *4016:D 0
*RES
1 *4193:X *4016:D 38.3679 
*END

*D_NET *688 0.000938779
*CONN
*I *3424:A2 I *D sky130_fd_sc_hd__a32o_2
*I *3517:A I *D sky130_fd_sc_hd__nor2_2
*I *4194:X O *D sky130_fd_sc_hd__dlygate4sd3_1
*CAP
1 *3424:A2 2.08547e-05
2 *3517:A 0.000115911
3 *4194:X 5.94992e-05
4 *688:12 0.000196265
5 *3424:A2 *3424:B1 9.90367e-05
6 *3424:A2 *3517:B 4.43256e-05
7 *3517:A *3424:B1 2.28589e-05
8 *3517:A *3517:B 0.000173163
9 *3517:A *911:24 5.18923e-05
10 *688:12 *3423:A 5.24274e-05
11 *688:12 *3424:B1 0
12 *688:12 *3517:B 0
13 *688:12 *889:16 0.000102545
*RES
1 *4194:X *688:12 20.0679 
2 *688:12 *3517:A 12.3179 
3 *688:12 *3424:A2 10.2464 
*END

*D_NET *689 0.00344255
*CONN
*I *4038:D I *D sky130_fd_sc_hd__dfstp_2
*I *4195:X O *D sky130_fd_sc_hd__dlygate4sd3_1
*CAP
1 *4038:D 0.000913612
2 *4195:X 0.000913612
3 *4038:D *3440:A1 0.000566251
4 *4038:D *4151:A 0.000265808
5 *4038:D *4217:A 5.52302e-05
6 *4038:D *878:53 1.54142e-05
7 *4038:D *892:58 0.000139907
8 *4038:D *993:46 0.00010326
9 *4038:D *1030:28 0.000169359
10 *4038:D *1035:12 8.41716e-05
11 *91:10 *4038:D 0.000137983
12 *354:20 *4038:D 7.79454e-05
13 *360:33 *4038:D 0
*RES
1 *4195:X *4038:D 47.6357 
*END

*D_NET *690 0.000971956
*CONN
*I *3968:D I *D sky130_fd_sc_hd__dfrtp_2
*I *4196:X O *D sky130_fd_sc_hd__dlygate4sd3_1
*CAP
1 *3968:D 0.000137495
2 *4196:X 0.000137495
3 *3968:D *3634:A 0.000149489
4 *3968:D *4389:A 0.000440705
5 *3635:C *3968:D 2.90075e-05
6 *613:35 *3968:D 7.77652e-05
*RES
1 *4196:X *3968:D 23.6536 
*END

*D_NET *691 0.00661188
*CONN
*I *3744:B1 I *D sky130_fd_sc_hd__a21o_2
*I *3462:B1 I *D sky130_fd_sc_hd__a22o_2
*I *3978:D I *D sky130_fd_sc_hd__dfrtp_2
*I *4197:X O *D sky130_fd_sc_hd__dlygate4sd3_1
*CAP
1 *3744:B1 0.00068366
2 *3462:B1 0.000635841
3 *3978:D 0.000585666
4 *4197:X 0.00100263
5 *691:10 0.00154048
6 *3462:B1 *3462:B2 5.33334e-05
7 *3744:B1 *3892:D 0
8 *3744:B1 *4197:A 0
9 *3744:B1 *949:25 0
10 *3744:B1 *1008:10 0
11 *3978:D *3330:A 0.000172884
12 *3978:D *3460:A_N 0
13 *3978:D *4297:A 0
14 *3978:D *949:25 3.65833e-05
15 *3978:D *949:38 0.000102558
16 *3978:D *981:65 0.000574507
17 *3978:D *981:76 0.000222616
18 *691:10 *3460:A_N 0
19 *691:10 *949:25 7.07908e-05
20 *3457:A1 *3978:D 1.90936e-05
21 *3892:RESET_B *3744:B1 0
22 *3946:CLK *3462:B1 9.58393e-05
23 *3946:D *3462:B1 0.000274294
24 *3970:RESET_B *3978:D 3.97543e-05
25 *603:13 *3744:B1 0.000134726
26 *603:27 *3744:B1 4.50209e-05
27 *615:10 *3978:D 0.000101555
28 *615:14 *3978:D 9.42254e-05
29 *615:84 *3978:D 0.000103848
30 *649:46 *3978:D 2.19684e-05
*RES
1 *4197:X *691:10 18.5321 
2 *691:10 *3978:D 30.3179 
3 *691:10 *3462:B1 22.1571 
4 *4197:X *3744:B1 39.4214 
*END

*D_NET *692 0.00243248
*CONN
*I *3426:A1 I *D sky130_fd_sc_hd__a211oi_2
*I *3424:B2 I *D sky130_fd_sc_hd__a32o_2
*I *4198:X O *D sky130_fd_sc_hd__dlygate4sd3_1
*CAP
1 *3426:A1 2.23854e-05
2 *3424:B2 0.000593518
3 *4198:X 0.000160211
4 *692:6 0.000776114
5 *3424:B2 *3397:B 0
6 *3424:B2 *3423:A 0
7 *3424:B2 *3426:A2 5.52238e-05
8 *3424:B2 *4328:A 9.41642e-05
9 *3424:B2 *889:16 0.000103285
10 *3424:B2 *911:24 0.000364253
11 *692:6 *4198:A 2.42778e-05
12 *3426:B1 *692:6 4.87953e-05
13 *4199:A *692:6 9.60875e-05
14 *611:132 *692:6 9.41642e-05
*RES
1 *4198:X *692:6 12.3 
2 *692:6 *3424:B2 29.2643 
3 *692:6 *3426:A1 9.72857 
*END

*D_NET *693 0.000301267
*CONN
*I *3928:D I *D sky130_fd_sc_hd__dfstp_2
*I *4199:X O *D sky130_fd_sc_hd__dlygate4sd3_1
*CAP
1 *3928:D 0.000150634
2 *4199:X 0.000150634
*RES
1 *4199:X *3928:D 20.7786 
*END

*D_NET *694 0.00276473
*CONN
*I *3674:A1 I *D sky130_fd_sc_hd__mux2_1
*I *4200:X O *D sky130_fd_sc_hd__dlygate4sd3_1
*CAP
1 *3674:A1 0.000639988
2 *4200:X 0.000639988
3 *3674:A1 *3647:A0 7.83659e-05
4 *3674:A1 *3669:A 9.41642e-05
5 *3674:A1 *3672:A1 0.000133009
6 *3674:A1 *3673:A 1.88312e-05
7 *3674:A1 *4310:A 0
8 o_receive_data[5] *3674:A1 0.000677119
9 *3674:S *3674:A1 0.000101545
10 *3885:CLK *3674:A1 0.000200413
11 *3886:D *3674:A1 7.83659e-05
12 *359:61 *3674:A1 4.37999e-05
13 *359:67 *3674:A1 0
14 *624:46 *3674:A1 5.91452e-05
*RES
1 *4200:X *3674:A1 42.2964 
*END

*D_NET *695 0.00300491
*CONN
*I *3970:D I *D sky130_fd_sc_hd__dfrtp_2
*I *4340:X O *D sky130_fd_sc_hd__clkdlybuf4s25_1
*CAP
1 *3970:D 0.00106493
2 *4340:X 0.00106493
3 *3970:D *3651:B 5.14954e-05
4 *3970:D *3653:B 3.69047e-06
5 *3970:D *4068:A 0
6 *3970:D *4177:A 1.69115e-05
7 *3970:D *4297:A 0.000148272
8 *3970:D *990:10 0.000553532
9 *3970:CLK *3970:D 0.000101157
10 *646:18 *3970:D 0
11 *649:10 *3970:D 0
12 *649:36 *3970:D 0
13 *649:46 *3970:D 0
*RES
1 *4340:X *3970:D 45.6714 
*END

*D_NET *696 0.00169826
*CONN
*I *3362:A0 I *D sky130_fd_sc_hd__mux2_1
*I *3686:B1 I *D sky130_fd_sc_hd__a21o_2
*I *4201:X O *D sky130_fd_sc_hd__dlygate4sd3_1
*CAP
1 *3362:A0 0
2 *3686:B1 0.00033702
3 *4201:X 0.000222847
4 *696:6 0.000559867
5 *3686:B1 *3329:A 3.52432e-05
6 *3686:B1 *3679:B1 0.000209364
7 *3686:B1 *4164:A 5.7248e-05
8 *3686:B1 *880:12 0
9 *3686:B1 *894:12 3.34672e-05
10 *3686:A1 *3686:B1 4.28249e-05
11 *3927:RESET_B *3686:B1 0.00010326
12 *3998:RESET_B *3686:B1 0
13 *4019:D *696:6 9.71197e-05
*RES
1 *4201:X *696:6 12.7107 
2 *696:6 *3686:B1 26.05 
3 *696:6 *3362:A0 9.3 
*END

*D_NET *697 0.000794186
*CONN
*I *3896:D I *D sky130_fd_sc_hd__dfrtp_2
*I *4202:X O *D sky130_fd_sc_hd__dlygate4sd3_1
*CAP
1 *3896:D 0.000307539
2 *4202:X 0.000307539
3 *3896:D *3468:B2 0
4 *3896:D *4141:A 0
5 *3896:RESET_B *3896:D 5.29708e-05
6 *603:13 *3896:D 0.000126137
*RES
1 *4202:X *3896:D 32.6 
*END

*D_NET *698 0.00278774
*CONN
*I *3672:A1 I *D sky130_fd_sc_hd__mux2_1
*I *4203:X O *D sky130_fd_sc_hd__dlygate4sd3_1
*CAP
1 *3672:A1 0.000479199
2 *4203:X 0.000479199
3 *3672:A1 *3666:A1 4.75521e-05
4 *3666:A0 *3672:A1 5.33005e-05
5 *3670:S *3672:A1 0.00018372
6 *3672:S *3672:A1 0.000139907
7 *3674:A1 *3672:A1 0.000133009
8 *3885:CLK *3672:A1 0.000200413
9 *3885:D *3672:A1 0.000125674
10 *3886:D *3672:A1 0.00025516
11 *3887:D *3672:A1 0.000442752
12 *3888:D *3672:A1 0.000101545
13 *359:67 *3672:A1 1.52978e-05
14 *359:87 *3672:A1 4.43256e-05
15 *623:77 *3672:A1 1.09026e-05
16 *624:59 *3672:A1 2.82057e-05
17 *624:83 *3672:A1 4.75812e-05
*RES
1 *4203:X *3672:A1 43.7607 
*END

*D_NET *699 0.00109356
*CONN
*I *3676:A1 I *D sky130_fd_sc_hd__mux2_1
*I *4204:X O *D sky130_fd_sc_hd__dlygate4sd3_1
*CAP
1 *3676:A1 0.000423749
2 *4204:X 0.000423749
3 *3676:A1 *870:8 9.83452e-05
4 *359:61 *3676:A1 0.000147718
*RES
1 *4204:X *3676:A1 34.3321 
*END

*D_NET *700 0.00155006
*CONN
*I *3670:A1 I *D sky130_fd_sc_hd__mux2_1
*I *4205:X O *D sky130_fd_sc_hd__dlygate4sd3_1
*CAP
1 *3670:A1 0.000367226
2 *4205:X 0.000367226
3 *3670:A1 *3666:A1 6.65398e-05
4 *3670:A1 *4207:A 0.000140933
5 *3670:A1 *4392:A 0
6 o_receive_data[3] *3670:A1 0.000268396
7 *3670:S *3670:A1 0.00014285
8 *3989:D *3670:A1 0
9 *624:83 *3670:A1 7.04538e-05
10 *624:91 *3670:A1 0.000126439
*RES
1 *4205:X *3670:A1 35.6179 
*END

*D_NET *701 0.00217478
*CONN
*I *3666:A1 I *D sky130_fd_sc_hd__mux2_1
*I *4206:X O *D sky130_fd_sc_hd__dlygate4sd3_1
*CAP
1 *3666:A1 0.000700012
2 *4206:X 0.000700012
3 *3666:A1 *4392:A 3.57163e-05
4 *3666:A1 *866:10 6.04162e-05
5 *3666:A1 *868:18 0
6 *3670:A1 *3666:A1 6.65398e-05
7 *3672:A1 *3666:A1 4.75521e-05
8 *3885:D *3666:A1 0.000323264
9 *3887:D *3666:A1 0.000187883
10 *623:77 *3666:A1 5.33882e-05
11 *624:83 *3666:A1 0
*RES
1 *4206:X *3666:A1 42.9571 
*END

*D_NET *702 0.000854308
*CONN
*I *3668:A1 I *D sky130_fd_sc_hd__mux2_1
*I *4207:X O *D sky130_fd_sc_hd__dlygate4sd3_1
*CAP
1 *3668:A1 0.000305218
2 *4207:X 0.000305218
3 *3668:A1 *4395:A 0.000113963
4 *3668:A1 *869:10 4.25716e-05
5 *3668:A1 *940:12 6.78055e-06
6 *3670:A0 *3668:A1 8.0558e-05
*RES
1 *4207:X *3668:A1 34.0286 
*END

*D_NET *703 0.00136822
*CONN
*I *3664:A1 I *D sky130_fd_sc_hd__mux2_1
*I *4208:X O *D sky130_fd_sc_hd__dlygate4sd3_1
*CAP
1 *3664:A1 0.000299101
2 *4208:X 0.000299101
3 *3664:A1 *3745:A0 0.000144773
4 *3664:A1 *3745:A1 4.88637e-05
5 *3664:A1 *907:26 1.41029e-05
6 *3664:S *3664:A1 0.00056228
7 *3884:D *3664:A1 0
8 *4049:RESET_B *3664:A1 0
*RES
1 *4208:X *3664:A1 35.7607 
*END

*D_NET *704 0.000229452
*CONN
*I *3522:A I *D sky130_fd_sc_hd__and2_2
*I *4209:X O *D sky130_fd_sc_hd__dlygate4sd3_1
*CAP
1 *3522:A 4.60817e-05
2 *4209:X 4.60817e-05
3 *3522:A *883:38 6.74911e-05
4 *4020:CLK *3522:A 6.97972e-05
*RES
1 *4209:X *3522:A 29.2429 
*END

*D_NET *705 0.0013037
*CONN
*I *3678:A1 I *D sky130_fd_sc_hd__mux2_1
*I *4210:X O *D sky130_fd_sc_hd__dlygate4sd3_1
*CAP
1 *3678:A1 0.000321076
2 *4210:X 0.000321076
3 *3678:A1 *3712:B 0.000465804
4 *3678:A1 *4397:A 1.32552e-05
5 *3678:A1 *871:10 0
6 *3717:B1 *3678:A1 3.18676e-05
7 *3905:D *3678:A1 0.000150618
*RES
1 *4210:X *3678:A1 34.975 
*END

*D_NET *706 0.00536265
*CONN
*I *3969:D I *D sky130_fd_sc_hd__dfrtp_2
*I *3634:B I *D sky130_fd_sc_hd__or3b_2
*I *4341:X O *D sky130_fd_sc_hd__clkdlybuf4s25_1
*CAP
1 *3969:D 0.000369448
2 *3634:B 0.000882169
3 *4341:X 0.000213255
4 *706:12 0.00146487
5 *3634:B *4123:A 0
6 *3634:B *4383:A 9.71108e-05
7 *3634:B *910:20 0.00109878
8 *3634:B *1012:14 1.05524e-05
9 *706:12 *1012:14 0.000461877
10 *3635:C *3634:B 0.000360894
11 *3863:RESET_B *3634:B 0
12 *3876:D *706:12 0.000100936
13 *613:10 *706:12 3.35685e-06
14 *613:16 *706:12 9.41008e-05
15 *613:22 *3634:B 1.94879e-05
16 *613:22 *706:12 0.000185805
*RES
1 *4341:X *706:12 21.2643 
2 *706:12 *3634:B 27.5752 
3 *706:12 *3969:D 19.2643 
*END

*D_NET *707 0.00221998
*CONN
*I *3450:A1 I *D sky130_fd_sc_hd__a21o_2
*I *3444:A I *D sky130_fd_sc_hd__and2_2
*I *4211:X O *D sky130_fd_sc_hd__dlygate4sd3_1
*CAP
1 *3450:A1 0.000120611
2 *3444:A 0.000351946
3 *4211:X 0.000147603
4 *707:10 0.000620159
5 *3444:A *3444:B 5.72899e-05
6 *3444:A *4254:A 3.93346e-05
7 *3444:A *755:12 5.52302e-05
8 *3450:A1 *936:33 2.49484e-05
9 *707:10 *936:33 0.000191066
10 *3450:A2 *3450:A1 2.89016e-05
11 *3450:B1 *3450:A1 2.8266e-06
12 *3955:CLK *3450:A1 0.00012401
13 *73:6 *707:10 5.52238e-05
14 *114:10 *3450:A1 5.44167e-05
15 *114:10 *707:10 0.000109671
16 *617:26 *3444:A 6.87574e-05
17 *617:32 *3444:A 0.000167988
*RES
1 *4211:X *707:10 18.1036 
2 *707:10 *3444:A 20.5143 
3 *707:10 *3450:A1 16.5857 
*END

*D_NET *708 0.00264181
*CONN
*I *3432:A1 I *D sky130_fd_sc_hd__a21o_2
*I *3427:A1 I *D sky130_fd_sc_hd__a22o_2
*I *4212:X O *D sky130_fd_sc_hd__dlygate4sd3_1
*CAP
1 *3432:A1 0
2 *3427:A1 0.000476099
3 *4212:X 0.000226073
4 *708:10 0.000702172
5 *3427:A1 *3427:B2 0
6 *3427:A1 *4315:A 3.48705e-05
7 *3427:A1 *883:36 2.07937e-05
8 *3427:B1 *3427:A1 0.000183726
9 *3431:A *708:10 2.49484e-05
10 *3432:A2 *3427:A1 0.000174805
11 *3432:A2 *708:10 1.02504e-05
12 *3932:D *708:10 0
13 *3975:D *3427:A1 0.000341788
14 *3975:D *708:10 0.000304215
15 *423:38 *708:10 0.000129944
16 *611:8 *708:10 1.21258e-05
*RES
1 *4212:X *708:10 18.8179 
2 *708:10 *3427:A1 22.8357 
3 *708:10 *3432:A1 13.8 
*END

*D_NET *709 0.00152412
*CONN
*I *3437:B1 I *D sky130_fd_sc_hd__a22o_2
*I *3436:B1 I *D sky130_fd_sc_hd__a22o_2
*I *4213:X O *D sky130_fd_sc_hd__dlygate4sd3_1
*CAP
1 *3437:B1 2.84912e-05
2 *3436:B1 0.000400573
3 *4213:X 0.000111546
4 *709:10 0.00054061
5 *3436:B1 *3436:A2 1.87955e-05
6 *3436:B1 *3437:B2 0
7 *3436:B1 *3438:A2 0
8 *3436:B1 *1030:16 4.038e-06
9 *3436:B1 *1030:18 0.000163127
10 *3437:B1 *3437:A2 5.52302e-05
11 *709:10 *3438:A2 0
12 *709:10 *1030:28 5.10822e-05
13 *4253:A *3436:B1 0.000150625
*RES
1 *4213:X *709:10 15.675 
2 *709:10 *3436:B1 22.3536 
3 *709:10 *3437:B1 14.3357 
*END

*D_NET *710 0.000480772
*CONN
*I *3939:D I *D sky130_fd_sc_hd__dfrtp_2
*I *4214:X O *D sky130_fd_sc_hd__dlygate4sd3_1
*CAP
1 *3939:D 0.000182221
2 *4214:X 0.000182221
3 *3939:D *3788:A1 3.92854e-05
4 *3939:D *879:25 2.82057e-05
5 *3788:B1 *3939:D 4.884e-05
6 *3940:RESET_B *3939:D 0
*RES
1 *4214:X *3939:D 30.6 
*END

*D_NET *711 0.000873172
*CONN
*I *3427:B2 I *D sky130_fd_sc_hd__a22o_2
*I *3400:A I *D sky130_fd_sc_hd__and2_2
*I *4215:X O *D sky130_fd_sc_hd__dlygate4sd3_1
*CAP
1 *3427:B2 0.00013656
2 *3400:A 6.28063e-05
3 *4215:X 1.88267e-05
4 *711:6 0.000218193
5 *3400:A *3399:A 0.00010096
6 *3427:B2 *3335:A 0
7 *3427:B2 *1070:10 0
8 *3427:A1 *3427:B2 0
9 *3427:B1 *3427:B2 5.01213e-05
10 *3432:A2 *3400:A 0.000230475
11 *3432:A2 *711:6 5.52302e-05
12 *3975:D *3427:B2 0
13 *4216:A *3427:B2 0
*RES
1 *4215:X *711:6 9.83571 
2 *711:6 *3400:A 11.4786 
3 *711:6 *3427:B2 20.8536 
*END

*D_NET *712 0.000371039
*CONN
*I *3937:D I *D sky130_fd_sc_hd__dfrtp_2
*I *4216:X O *D sky130_fd_sc_hd__dlygate4sd3_1
*CAP
1 *3937:D 0.000115736
2 *4216:X 0.000115736
3 *3937:D *3780:A2 0
4 *3937:D *4212:A 8.00806e-05
5 *3937:CLK *3937:D 5.94862e-05
*RES
1 *4216:X *3937:D 29.6357 
*END

*D_NET *713 0.00272585
*CONN
*I *3442:A2 I *D sky130_fd_sc_hd__o21a_2
*I *3440:A2 I *D sky130_fd_sc_hd__a21oi_2
*I *4217:X O *D sky130_fd_sc_hd__dlygate4sd3_1
*CAP
1 *3442:A2 0.000265397
2 *3440:A2 0.000471849
3 *4217:X 0
4 *713:6 0.000737246
5 *3440:A2 *892:23 2.06178e-05
6 *3440:A2 *934:26 2.61613e-05
7 *3442:A2 *3442:A1 8.66324e-05
8 *3442:A2 *3790:A2 4.66511e-05
9 *3442:A2 *753:12 0
10 *3442:A2 *892:23 0.000120776
11 *3442:A2 *892:46 6.81083e-05
12 *3441:B *3440:A2 3.65695e-05
13 *3790:B1 *3440:A2 0.00022267
14 *3942:D *3440:A2 5.7903e-06
15 *3942:D *3442:A2 0.000120307
16 *3944:D *3440:A2 0.000173097
17 *91:10 *3440:A2 0.000125277
18 *360:33 *3440:A2 0
19 *627:55 *3440:A2 0.000198698
*RES
1 *4217:X *713:6 13.8 
2 *713:6 *3440:A2 26.2531 
3 *713:6 *3442:A2 19.6214 
*END

*D_NET *714 0.00142929
*CONN
*I *3660:A0 I *D sky130_fd_sc_hd__mux2_1
*I *4218:X O *D sky130_fd_sc_hd__dlygate4sd3_1
*CAP
1 *3660:A0 0.000462459
2 *4218:X 0.000462459
3 *3660:A0 *728:14 9.15291e-05
4 *3660:A0 *910:60 0.000412842
*RES
1 *4218:X *3660:A0 24.8857 
*END

*D_NET *715 0.00181057
*CONN
*I *3388:A1 I *D sky130_fd_sc_hd__a21oi_2
*I *4219:X O *D sky130_fd_sc_hd__dlygate4sd3_1
*CAP
1 *3388:A1 0.000271487
2 *4219:X 0.000271487
3 *3388:A1 *3766:A1 0.000181803
4 *3388:A1 *3766:A2 9.80173e-05
5 *3767:B1 *3388:A1 0.00023229
6 *3918:RESET_B *3388:A1 3.18676e-05
7 *4220:A *3388:A1 5.23142e-05
8 *606:45 *3388:A1 0.000671299
*RES
1 *4219:X *3388:A1 28.725 
*END

*D_NET *716 0.000760024
*CONN
*I *3917:D I *D sky130_fd_sc_hd__dfrtp_2
*I *4220:X O *D sky130_fd_sc_hd__dlygate4sd3_1
*CAP
1 *3917:D 0.000202999
2 *4220:X 0.000202999
3 *3917:D *877:14 0.000100823
4 *3917:D *1041:10 2.56694e-05
5 *606:45 *3917:D 0.000227532
*RES
1 *4220:X *3917:D 31.1179 
*END

*D_NET *717 0.00146588
*CONN
*I *3660:A1 I *D sky130_fd_sc_hd__mux2_1
*I *4342:X O *D sky130_fd_sc_hd__clkdlybuf4s25_1
*CAP
1 *3660:A1 0.000338326
2 *4342:X 0.000338326
3 *3660:A1 *3394:A2 0.000117457
4 *3660:A1 *3394:B2 0.000119179
5 *3660:A1 *4384:A 0.000106083
6 *3660:A1 *910:60 1.98839e-05
7 *3660:A1 *992:16 0
8 *3660:A1 *1018:23 0.000296759
9 *3882:D *3660:A1 0.000129868
*RES
1 *4342:X *3660:A1 35.0464 
*END

*D_NET *718 0.00160235
*CONN
*I *3659:A0 I *D sky130_fd_sc_hd__mux2_1
*I *4221:X O *D sky130_fd_sc_hd__dlygate4sd3_1
*CAP
1 *3659:A0 0.000347035
2 *4221:X 0.000347035
3 *3659:A0 *4387:A 0.000185643
4 *3659:A0 *992:16 0.000129198
5 *3881:D *3659:A0 0.000288386
6 *55:18 *3659:A0 0.000305053
*RES
1 *4221:X *3659:A0 36.475 
*END

*D_NET *719 0.00112564
*CONN
*I *3362:S I *D sky130_fd_sc_hd__mux2_1
*I *4222:X O *D sky130_fd_sc_hd__dlygate4sd3_1
*CAP
1 *3362:S 0.000188615
2 *4222:X 0.000188615
3 *3362:S *993:14 0.000512752
4 *3362:S *1067:28 6.92175e-05
5 *120:12 *3362:S 0.00016644
*RES
1 *4222:X *3362:S 34.1 
*END

*D_NET *720 0.000791162
*CONN
*I *3704:A1 I *D sky130_fd_sc_hd__o22a_2
*I *4223:X O *D sky130_fd_sc_hd__dlygate4sd3_1
*CAP
1 *3704:A1 0.00023539
2 *4223:X 0.00023539
3 *3704:A1 *3621:A2 1.30914e-05
4 *3704:A1 *951:10 2.53112e-06
5 *3704:A2 *3704:A1 7.58841e-05
6 *435:12 *3704:A1 0.000228876
*RES
1 *4223:X *3704:A1 31.4214 
*END

*D_NET *721 0.000126556
*CONN
*I *3702:A1 I *D sky130_fd_sc_hd__o22a_2
*I *4224:X O *D sky130_fd_sc_hd__dlygate4sd3_1
*CAP
1 *3702:A1 6.58081e-06
2 *4224:X 6.58081e-06
3 *3484:A2 *3702:A1 5.66971e-05
4 *569:24 *3702:A1 5.66971e-05
*RES
1 *4224:X *3702:A1 19.1357 
*END

*D_NET *722 0.000538523
*CONN
*I *3700:A1 I *D sky130_fd_sc_hd__o22a_2
*I *4225:X O *D sky130_fd_sc_hd__dlygate4sd3_1
*CAP
1 *3700:A1 9.11143e-05
2 *4225:X 9.11143e-05
3 *3700:A1 *3622:A2 0.00012342
4 *3700:A1 *954:10 3.69047e-06
5 *3899:CLK *3700:A1 0.000177313
6 *435:14 *3700:A1 2.59355e-05
7 *435:22 *3700:A1 2.59355e-05
*RES
1 *4225:X *3700:A1 30.1893 
*END

*D_NET *723 0.00245517
*CONN
*I *3398:A I *D sky130_fd_sc_hd__nor2_2
*I *3390:A1 I *D sky130_fd_sc_hd__o21a_2
*I *4226:X O *D sky130_fd_sc_hd__dlygate4sd3_1
*CAP
1 *3398:A 0.000192158
2 *3390:A1 0.000244594
3 *4226:X 0.000189793
4 *723:10 0.000626545
5 *3390:A1 *3846:A1 1.97381e-05
6 *3390:A1 *3849:A1 4.13496e-05
7 *3390:A1 *878:92 6.2589e-06
8 *3398:A *3396:B 0
9 *3398:A *3434:A 0.000443053
10 *3398:A *3661:A1 1.02504e-05
11 *3398:A *3846:A1 0
12 *723:10 *3324:A 1.58163e-05
13 *723:10 *3389:A1 8.15095e-05
14 *723:10 *3434:A 2.2628e-05
15 *723:10 *4226:A 9.60875e-05
16 *723:10 *878:92 0
17 *723:10 *1034:6 3.14163e-05
18 *3390:B1 *3390:A1 0.000188586
19 *3916:RESET_B *723:10 3.40128e-05
20 *4038:SET_B *3390:A1 3.34366e-05
21 *4038:SET_B *3398:A 0.000177941
22 *359:8 *3398:A 0
*RES
1 *4226:X *723:10 17.7732 
2 *723:10 *3390:A1 19.0411 
3 *723:10 *3398:A 20.0768 
*END

*D_NET *724 0.000331205
*CONN
*I *3389:B1 I *D sky130_fd_sc_hd__a21o_2
*I *4227:X O *D sky130_fd_sc_hd__dlygate4sd3_1
*CAP
1 *3389:B1 3.85234e-05
2 *4227:X 3.85234e-05
3 *3389:B1 *3434:A 0.000127079
4 *3389:B1 *4138:A 0.000127079
*RES
1 *4227:X *3389:B1 29.2429 
*END

*D_NET *725 0.00248762
*CONN
*I *3748:A0 I *D sky130_fd_sc_hd__mux2_1
*I *3402:B I *D sky130_fd_sc_hd__and2_2
*I *4228:X O *D sky130_fd_sc_hd__dlygate4sd3_1
*CAP
1 *3748:A0 5.13519e-05
2 *3402:B 0.000525666
3 *4228:X 0.000577018
4 *3402:B *3661:B1_N 0
5 *3402:B *907:32 0
6 *3402:B *907:40 9.25014e-06
7 *3402:B *939:16 0
8 *3748:A0 *3748:A1 5.71472e-05
9 *3748:A0 *939:16 0.000142053
10 *3662:B1 *3402:B 5.75803e-05
11 *3883:D *3402:B 0.000317587
12 *3905:RESET_B *3402:B 0
13 *3982:SET_B *3402:B 5.01117e-05
14 *4016:CLK *3402:B 0.000227532
15 *4016:CLK *3748:A0 0.000317082
16 *643:58 *3402:B 0.000109501
17 *643:67 *3402:B 4.57352e-05
*RES
1 *4228:X *3402:B 39.0107 
2 *4228:X *3748:A0 21.6 
*END

*D_NET *726 0.000497981
*CONN
*I *4052:D I *D sky130_fd_sc_hd__dfrtp_2
*I *4229:X O *D sky130_fd_sc_hd__dlygate4sd3_1
*CAP
1 *4052:D 0.000105387
2 *4229:X 0.000105387
3 *4052:CLK *4052:D 2.89016e-05
4 *4229:A *4052:D 0.000126439
5 *11:10 *4052:D 7.47199e-05
6 *354:24 *4052:D 5.71472e-05
*RES
1 *4229:X *4052:D 30.3143 
*END

*D_NET *727 0.00144359
*CONN
*I *3698:A1 I *D sky130_fd_sc_hd__o22a_2
*I *4230:X O *D sky130_fd_sc_hd__dlygate4sd3_1
*CAP
1 *3698:A1 0.000442557
2 *4230:X 0.000442557
3 *3698:A1 *3622:B1 0
4 *3698:A1 *3758:A0 7.09928e-05
5 *3698:A1 *3758:S 0.000185368
6 *3698:A1 *4057:RESET_B 5.5782e-05
7 *3698:A1 *4224:A 3.17067e-05
8 *3698:A2 *3698:A1 0.000138738
9 *3698:B2 *3698:A1 7.589e-05
*RES
1 *4230:X *3698:A1 36.6714 
*END

*D_NET *728 0.00609206
*CONN
*I *3659:A1 I *D sky130_fd_sc_hd__mux2_1
*I *4343:X O *D sky130_fd_sc_hd__clkdlybuf4s25_1
*CAP
1 *3659:A1 0
2 *4343:X 0.00188143
3 *728:14 0.00188143
4 *728:14 *3395:A 0.00023995
5 *728:14 *4196:A 0.000803923
6 *728:14 *4218:A 0.000139907
7 *728:14 *4221:A 2.56601e-05
8 *728:14 *4385:A 0
9 *728:14 *4386:A 3.96001e-05
10 *728:14 *4387:A 0.000265441
11 *728:14 *910:10 3.43519e-05
12 *728:14 *910:50 0.000152929
13 *728:14 *910:60 9.60875e-05
14 *728:14 *1011:6 0.000245832
15 *728:14 *1013:10 0.000172616
16 *3660:A0 *728:14 9.15291e-05
17 *3881:RESET_B *728:14 2.13687e-05
*RES
1 *4343:X *728:14 49.175 
2 *728:14 *3659:A1 9.3 
*END

*D_NET *729 0.000995706
*CONN
*I *3688:A1 I *D sky130_fd_sc_hd__o21a_2
*I *4231:X O *D sky130_fd_sc_hd__dlygate4sd3_1
*CAP
1 *3688:A1 0.000458883
2 *4231:X 0.000458883
3 *3688:A1 *950:10 0
4 *3897:D *3688:A1 0
5 *3904:D *3688:A1 7.7939e-05
6 *3949:CLK *3688:A1 0
7 *634:110 *3688:A1 0
*RES
1 *4231:X *3688:A1 35.4571 
*END

*D_NET *730 0.000484372
*CONN
*I *3429:A2 I *D sky130_fd_sc_hd__a22o_2
*I *4232:X O *D sky130_fd_sc_hd__dlygate4sd3_1
*CAP
1 *3429:A2 0.000153892
2 *4232:X 0.000153892
3 *3429:A2 *911:30 9.50034e-05
4 *3429:A2 *1088:10 8.15843e-05
*RES
1 *4232:X *3429:A2 30.6402 
*END

*D_NET *731 0.000547998
*CONN
*I *3935:D I *D sky130_fd_sc_hd__dfrtp_2
*I *4233:X O *D sky130_fd_sc_hd__dlygate4sd3_1
*CAP
1 *3935:D 0.000144693
2 *4233:X 0.000144693
3 *3783:B1 *3935:D 0.000104974
4 *611:8 *3935:D 5.03772e-05
5 *611:52 *3935:D 0.00010326
*RES
1 *4233:X *3935:D 30.2964 
*END

*D_NET *732 0.000946201
*CONN
*I *3391:B1 I *D sky130_fd_sc_hd__a21o_2
*I *4234:X O *D sky130_fd_sc_hd__dlygate4sd3_1
*CAP
1 *3391:B1 0.000303935
2 *4234:X 0.000303935
3 *3391:B1 *3391:A1 0.000122951
4 *3391:B1 *4169:A 0
5 *3391:B1 *911:10 0
6 *3391:B1 *1030:16 5.37963e-05
7 *3392:B1 *3391:B1 0.000128146
8 *3915:D *3391:B1 0
9 *659:90 *3391:B1 3.34366e-05
*RES
1 *4234:X *3391:B1 33.7429 
*END

*D_NET *733 0.00802672
*CONN
*I *3521:A I *D sky130_fd_sc_hd__or2_2
*I *3428:B1 I *D sky130_fd_sc_hd__a21o_2
*I *4235:X O *D sky130_fd_sc_hd__dlygate4sd3_1
*CAP
1 *3521:A 0.00118568
2 *3428:B1 0.000873377
3 *4235:X 0
4 *733:4 0.00205905
5 *3428:B1 *3428:A2 0.000741386
6 *3428:B1 *3625:B 0.00139371
7 *3521:A *3423:A 0.00010096
8 *3521:A *3625:B 0.000139087
9 *3521:A *4145:A 3.88139e-05
10 *3846:B1 *3428:B1 0.000463599
11 *4082:A *3521:A 1.92163e-05
12 *4099:A *3428:B1 2.44318e-05
13 *4099:A *3521:A 9.89914e-05
14 *4193:A *3428:B1 0.000138881
15 *4236:A *3428:B1 5.33005e-05
16 *360:14 *3428:B1 1.84421e-05
17 *645:59 *3428:B1 6.42095e-05
18 *658:50 *3521:A 0.000402777
19 *658:56 *3521:A 0.00021081
*RES
1 *4235:X *733:4 9.3 
2 *733:4 *3428:B1 32.1571 
3 *733:4 *3521:A 25.8893 
*END

*D_NET *734 0.000729163
*CONN
*I *3936:D I *D sky130_fd_sc_hd__dfrtp_2
*I *4236:X O *D sky130_fd_sc_hd__dlygate4sd3_1
*CAP
1 *3936:D 9.77911e-05
2 *4236:X 9.77911e-05
3 *3936:D *993:14 0.000108848
4 *3936:D *993:23 7.80929e-05
5 *3936:D *1093:46 0.000346639
*RES
1 *4236:X *3936:D 31.975 
*END

*D_NET *735 0.000755354
*CONN
*I *3382:A1 I *D sky130_fd_sc_hd__a21oi_2
*I *4237:X O *D sky130_fd_sc_hd__dlygate4sd3_1
*CAP
1 *3382:A1 9.60825e-05
2 *4237:X 9.60825e-05
3 *3382:A1 *1044:45 0.000144941
4 *3382:A1 *1048:35 0.000370297
5 *3382:A2 *3382:A1 3.76575e-05
6 *355:18 *3382:A1 1.02936e-05
*RES
1 *4237:X *3382:A1 22.5911 
*END

*D_NET *736 0.00120599
*CONN
*I *3467:A2 I *D sky130_fd_sc_hd__a22o_2
*I *3455:A2 I *D sky130_fd_sc_hd__a21o_2
*I *4238:X O *D sky130_fd_sc_hd__dlygate4sd3_1
*CAP
1 *3467:A2 0.000240386
2 *3455:A2 7.15978e-05
3 *4238:X 0
4 *736:4 0.000311984
5 *3455:A2 *3332:A 6.69712e-05
6 *3467:A2 *3332:A 2.67107e-05
7 *3467:A2 *3467:A1 1.57155e-05
8 *3467:A2 *3680:B2 0.000138826
9 *3467:A2 *1006:14 7.6644e-05
10 *4126:A *3467:A2 1.46576e-05
11 *111:10 *3467:A2 0
12 *365:6 *3455:A2 0.000144773
13 *651:34 *3455:A2 9.77274e-05
*RES
1 *4238:X *736:4 9.3 
2 *736:4 *3455:A2 11.9071 
3 *736:4 *3467:A2 23.358 
*END

*D_NET *737 0.000824401
*CONN
*I *3561:A1 I *D sky130_fd_sc_hd__o21a_2
*I *4239:X O *D sky130_fd_sc_hd__dlygate4sd3_1
*CAP
1 *3561:A1 0.000247689
2 *4239:X 0.000247689
3 *3557:B *3561:A1 0.000185643
4 *3557:C *3561:A1 0.00014338
*RES
1 *4239:X *3561:A1 23.2607 
*END

*D_NET *738 0.000356689
*CONN
*I *3470:B2 I *D sky130_fd_sc_hd__a22o_2
*I *4240:X O *D sky130_fd_sc_hd__dlygate4sd3_1
*CAP
1 *3470:B2 0.000109643
2 *4240:X 0.000109643
3 *3470:B2 *936:33 0
4 *4093:A *3470:B2 0.000128154
5 *636:109 *3470:B2 9.25014e-06
*RES
1 *4240:X *3470:B2 29.7786 
*END

*D_NET *739 0.00300391
*CONN
*I *3641:A1 I *D sky130_fd_sc_hd__mux2_1
*I *4344:X O *D sky130_fd_sc_hd__clkdlybuf4s25_1
*CAP
1 *3641:A1 0.00107563
2 *4344:X 0.00107563
3 *3641:A1 *3641:A0 0.000225982
4 *3641:A1 *3707:A 0.000347339
5 *3641:A1 *3707:B 0
6 *3641:A1 *3709:B 0.000150632
7 *3641:A1 *4396:A 0.000101146
8 *3713:A *3641:A1 0
9 *3734:B *3641:A1 1.83053e-05
10 *359:61 *3641:A1 9.25014e-06
11 *623:107 *3641:A1 0
12 *640:28 *3641:A1 0
*RES
1 *4344:X *3641:A1 47.4036 
*END

*D_NET *740 0.00105037
*CONN
*I *3962:D I *D sky130_fd_sc_hd__dfrtp_2
*I *4345:X O *D sky130_fd_sc_hd__clkdlybuf4s25_1
*CAP
1 *3962:D 0.000498598
2 *4345:X 0.000498598
3 *3962:D *908:16 7.43578e-06
4 *3962:CLK *3962:D 4.57352e-05
*RES
1 *4345:X *3962:D 33.8857 
*END

*D_NET *741 0.000594652
*CONN
*I *3958:D I *D sky130_fd_sc_hd__dfrtp_2
*I *4241:X O *D sky130_fd_sc_hd__dlygate4sd3_1
*CAP
1 *3958:D 0.000125794
2 *4241:X 0.000125794
3 *3958:D *3470:A2 0.000193118
4 *3958:D *880:38 0.00012401
5 *3469:A1 *3958:D 0
6 *621:91 *3958:D 2.59355e-05
*RES
1 *4241:X *3958:D 30.6893 
*END

*D_NET *742 0.00121052
*CONN
*I *3694:A1 I *D sky130_fd_sc_hd__a22o_2
*I *4242:X O *D sky130_fd_sc_hd__dlygate4sd3_1
*CAP
1 *3694:A1 0.000492377
2 *4242:X 0.000492377
3 *3623:C1 *3694:A1 6.119e-05
4 *434:43 *3694:A1 1.00887e-05
5 *632:12 *3694:A1 0.000154486
*RES
1 *4242:X *3694:A1 34.6 
*END

*D_NET *743 0.000755914
*CONN
*I *3696:A1 I *D sky130_fd_sc_hd__a22o_2
*I *4243:X O *D sky130_fd_sc_hd__dlygate4sd3_1
*CAP
1 *3696:A1 0.000184834
2 *4243:X 0.000184834
3 *3696:B1 *3696:A1 0.000137639
4 *3696:B2 *3696:A1 0.000147784
5 *3898:CLK *3696:A1 8.95645e-05
6 *564:14 *3696:A1 1.12578e-05
*RES
1 *4243:X *3696:A1 31.6179 
*END

*D_NET *744 0.00115541
*CONN
*I *3692:A1 I *D sky130_fd_sc_hd__a22o_2
*I *4244:X O *D sky130_fd_sc_hd__dlygate4sd3_1
*CAP
1 *3692:A1 0.000490586
2 *4244:X 0.000490586
3 *3692:A1 *4223:A 7.7939e-05
4 *3692:A2 *3692:A1 3.94418e-05
5 *3898:D *3692:A1 5.68538e-05
*RES
1 *4244:X *3692:A1 36.0107 
*END

*D_NET *745 0.00346321
*CONN
*I *3650:A1 I *D sky130_fd_sc_hd__o21a_2
*I *3395:B I *D sky130_fd_sc_hd__or3_2
*I *4245:X O *D sky130_fd_sc_hd__dlygate4sd3_1
*CAP
1 *3650:A1 0.000415932
2 *3395:B 0.000175009
3 *4245:X 0.000374719
4 *745:10 0.00096566
5 *3395:B *3395:A 0.000167669
6 *3650:A1 *3395:A 4.37451e-05
7 *3650:A1 *896:45 0
8 *745:10 *3395:A 0.000354585
9 *745:10 *3649:B 0.000300788
10 *745:10 *919:10 1.71619e-05
11 *3650:B1 *3650:A1 1.19813e-05
12 *3967:CLK *3650:A1 2.68557e-05
13 *3967:D *3650:A1 9.96487e-05
14 *3973:RESET_B *745:10 1.55584e-05
15 *4013:RESET_B *3650:A1 9.25014e-06
16 *4128:A *3650:A1 0
17 *4379:A *745:10 0
18 *272:20 *3650:A1 7.20644e-05
19 *543:25 *3650:A1 0.000141941
20 *655:28 *3650:A1 0.000270646
*RES
1 *4245:X *745:10 28.1393 
2 *745:10 *3395:B 13.0321 
3 *745:10 *3650:A1 27.3893 
*END

*D_NET *746 0.000900339
*CONN
*I *3863:D I *D sky130_fd_sc_hd__dfrtp_2
*I *4246:X O *D sky130_fd_sc_hd__dlygate4sd3_1
*CAP
1 *3863:D 0.000216898
2 *4246:X 0.000216898
3 *3863:D *1010:12 5.33005e-05
4 *3863:D *1011:10 0.000284902
5 *3863:RESET_B *3863:D 5.52238e-05
6 *3964:RESET_B *3863:D 0
7 *4124:A *3863:D 3.18676e-05
8 *409:22 *3863:D 0
9 *613:22 *3863:D 4.1249e-05
*RES
1 *4246:X *3863:D 32.4393 
*END

*D_NET *747 0.00154904
*CONN
*I *3605:A1 I *D sky130_fd_sc_hd__o21a_2
*I *4247:X O *D sky130_fd_sc_hd__dlygate4sd3_1
*CAP
1 *3605:A1 0.000285435
2 *4247:X 0.000285435
3 *3605:A1 *3601:A 0.000313235
4 *3503:B *3605:A1 4.8843e-05
5 *3601:B *3605:A1 0.000148911
6 *3601:C *3605:A1 0.00013548
7 *4032:CLK *3605:A1 0.000331703
*RES
1 *4247:X *3605:A1 36.0464 
*END

*D_NET *748 0.000353094
*CONN
*I *4032:D I *D sky130_fd_sc_hd__dfrtp_2
*I *4248:X O *D sky130_fd_sc_hd__dlygate4sd3_1
*CAP
1 *4032:D 0.000129424
2 *4248:X 0.000129424
3 *4032:D *3840:A1 5.62995e-05
4 *4032:D *3840:A2 3.79467e-05
*RES
1 *4248:X *4032:D 29.8857 
*END

*D_NET *749 0.00386758
*CONN
*I *3679:B2 I *D sky130_fd_sc_hd__a22o_2
*I *3756:A0 I *D sky130_fd_sc_hd__mux2_1
*I *3401:A I *D sky130_fd_sc_hd__and2_2
*I *4249:X O *D sky130_fd_sc_hd__dlygate4sd3_1
*CAP
1 *3679:B2 0.000334401
2 *3756:A0 0.000133683
3 *3401:A 0
4 *4249:X 0
5 *749:12 0.000627469
6 *749:4 0.000828187
7 *3679:B2 *936:33 1.88619e-05
8 *3756:A0 *3756:A1 5.33005e-05
9 *3756:A0 *907:40 9.60875e-05
10 *3756:A0 *907:46 4.33174e-05
11 *3756:A0 *961:22 2.14757e-05
12 *749:12 *3401:B 5.33005e-05
13 *749:12 *3468:A2 0.000172431
14 *749:12 *3525:A1 1.69115e-05
15 *749:12 *3679:B1 0
16 *749:12 *905:16 6.19181e-05
17 *749:12 *907:46 0.00027503
18 *749:12 *948:10 7.6644e-05
19 *749:12 *961:22 0.000650928
20 *3469:B1 *749:12 0.000131385
21 *3974:D *749:12 0.000125724
22 *3983:RESET_B *749:12 0
23 *73:6 *749:12 0.000146523
24 *646:41 *749:12 0
*RES
1 *4249:X *749:4 9.3 
2 *749:4 *749:12 24.2857 
3 *749:12 *3401:A 9.3 
4 *749:12 *3756:A0 12.3179 
5 *749:4 *3679:B2 13.5679 
*END

*D_NET *750 0.000763824
*CONN
*I *3892:D I *D sky130_fd_sc_hd__dfrtp_2
*I *4250:X O *D sky130_fd_sc_hd__dlygate4sd3_1
*CAP
1 *3892:D 0.000338758
2 *4250:X 0.000338758
3 *3892:D *3460:A_N 0
4 *3892:D *949:25 9.25014e-06
5 *3744:B1 *3892:D 0
6 *603:43 *3892:D 7.70589e-05
*RES
1 *4250:X *3892:D 32.2429 
*END

*D_NET *751 0.00263785
*CONN
*I *4047:D I *D sky130_fd_sc_hd__dfrtp_2
*I *4346:X O *D sky130_fd_sc_hd__clkdlybuf4s25_1
*CAP
1 *4047:D 0.00081747
2 *4346:X 0.00081747
3 *4047:D *3634:A 0.000118052
4 *4047:D *4176:A 9.15842e-06
5 *4047:D *4180:A 0.000267315
6 *3635:C *4047:D 0.000185643
7 *3863:RESET_B *4047:D 7.55769e-05
8 *4048:CLK *4047:D 0.000347161
9 *656:10 *4047:D 0
*RES
1 *4346:X *4047:D 40.6937 
*END

*D_NET *752 0.00213212
*CONN
*I *3456:B1 I *D sky130_fd_sc_hd__a22o_2
*I *3461:B1 I *D sky130_fd_sc_hd__a221o_2
*I *3523:S I *D sky130_fd_sc_hd__mux2_1
*I *4251:X O *D sky130_fd_sc_hd__dlygate4sd3_1
*CAP
1 *3456:B1 7.96316e-05
2 *3461:B1 9.92061e-05
3 *3523:S 0.000154396
4 *4251:X 0
5 *752:6 0.000408839
6 *752:4 0.000234869
7 *3456:B1 *3680:A2_N 8.24585e-05
8 *3461:B1 *3461:B2 0.000315172
9 *752:6 *3680:A2_N 0.000230482
10 *3454:A1 *3461:B1 0.000102545
11 *3456:B2 *3456:B1 3.76337e-05
12 *3456:B2 *3523:S 5.5671e-05
13 *3456:B2 *752:6 0.000132228
14 *3461:A2 *3461:B1 5.90443e-06
15 *3950:RESET_B *3461:B1 0.000170341
16 *375:6 *3523:S 2.27416e-05
*RES
1 *4251:X *752:4 9.3 
2 *752:4 *752:6 3.82143 
3 *752:6 *3523:S 11.9071 
4 *752:6 *3461:B1 22.3714 
5 *752:4 *3456:B1 11.5143 
*END

*D_NET *753 0.00508221
*CONN
*I *3526:A1 I *D sky130_fd_sc_hd__o21ai_2
*I *4252:X O *D sky130_fd_sc_hd__dlygate4sd3_1
*CAP
1 *3526:A1 0
2 *4252:X 0.000945059
3 *753:12 0.000945059
4 *753:12 *3438:A2 0.000177948
5 *753:12 *3442:A1 0
6 *753:12 *763:10 0.000875862
7 *753:12 *993:46 0
8 *753:12 *1062:10 0.00013966
9 *753:12 *1062:30 0.000264137
10 *3442:A2 *753:12 0
11 *3625:C *753:12 0.000240484
12 *3942:D *753:12 0.000144747
13 *367:12 *753:12 0.000318316
14 *645:42 *753:12 3.65544e-05
15 *645:59 *753:12 0.000546879
16 *645:70 *753:12 0.000408231
17 *686:10 *753:12 3.92757e-05
*RES
1 *4252:X *753:12 47.4964 
2 *753:12 *3526:A1 9.3 
*END

*D_NET *754 0.000458819
*CONN
*I *3996:D I *D sky130_fd_sc_hd__dfstp_2
*I *4253:X O *D sky130_fd_sc_hd__dlygate4sd3_1
*CAP
1 *3996:D 0.000189044
2 *4253:X 0.000189044
3 *3996:D *879:29 8.07313e-05
4 *3996:D *893:55 0
5 *3996:SET_B *3996:D 0
6 *628:42 *3996:D 0
*RES
1 *4253:X *3996:D 30.6 
*END

*D_NET *755 0.00328355
*CONN
*I *3756:A1 I *D sky130_fd_sc_hd__mux2_1
*I *3757:A0 I *D sky130_fd_sc_hd__mux2_1
*I *4254:X O *D sky130_fd_sc_hd__dlygate4sd3_1
*CAP
1 *3756:A1 3.34103e-05
2 *3757:A0 0.000717739
3 *4254:X 0.000248995
4 *755:12 0.00100014
5 *3757:A0 *3757:A1 2.44318e-05
6 *3757:A0 *3757:S 5.92418e-05
7 *3757:A0 *3759:A0 1.33343e-05
8 *3757:A0 *905:28 0.000247458
9 *3757:A0 *905:30 1.02821e-05
10 *3757:A0 *961:22 3.2534e-05
11 *3444:A *755:12 5.52302e-05
12 *3756:A0 *3756:A1 5.33005e-05
13 *3954:D *755:12 0.000129868
14 *4060:D *3757:A0 0
15 *4060:RESET_B *3757:A0 0.000128161
16 *114:10 *3757:A0 0
17 *114:10 *755:12 0
18 *604:70 *3757:A0 0.000227322
19 *617:32 *755:12 2.59093e-05
20 *617:36 *3757:A0 0.000218734
21 *617:36 *755:12 5.74562e-05
*RES
1 *4254:X *755:12 18.6393 
2 *755:12 *3757:A0 30.3 
3 *755:12 *3756:A1 14.3357 
*END

*D_NET *756 0.00131819
*CONN
*I *3451:B1 I *D sky130_fd_sc_hd__a22o_2
*I *4255:X O *D sky130_fd_sc_hd__dlygate4sd3_1
*CAP
1 *3451:B1 0.000413438
2 *4255:X 0.000413438
3 *3451:B1 *3340:A 0
4 *3451:B1 *3342:A 1.65558e-05
5 *3451:B1 *3451:B2 0.000441737
6 *4019:CLK *3451:B1 0
7 *4256:A *3451:B1 3.30237e-05
*RES
1 *4255:X *3451:B1 34.9036 
*END

*D_NET *757 0.000811715
*CONN
*I *3953:D I *D sky130_fd_sc_hd__dfrtp_2
*I *4256:X O *D sky130_fd_sc_hd__dlygate4sd3_1
*CAP
1 *3953:D 0.000287014
2 *4256:X 0.000287014
3 *3953:D *3342:A 0.000129868
4 *3953:D *3461:B2 0
5 *3523:A0 *3953:D 0
6 *616:23 *3953:D 3.18676e-05
7 *616:29 *3953:D 7.59512e-05
*RES
1 *4256:X *3953:D 32.7518 
*END

*D_NET *758 0.00172621
*CONN
*I *3654:A1 I *D sky130_fd_sc_hd__o21a_2
*I *4257:X O *D sky130_fd_sc_hd__dlygate4sd3_1
*CAP
1 *3654:A1 0.000586806
2 *4257:X 0.000586806
3 *3654:A1 *3652:A1 0
4 *3654:A1 *4388:A 0.00014215
5 *3654:A1 *4399:A 0
6 *3652:A2 *3654:A1 0.000101771
7 *3877:D *3654:A1 0.000177463
8 *3878:D *3654:A1 0
9 *3878:RESET_B *3654:A1 0.000131212
10 *543:31 *3654:A1 0
*RES
1 *4257:X *3654:A1 40.3143 
*END

*D_NET *759 0.000733425
*CONN
*I *3652:A1 I *D sky130_fd_sc_hd__o21a_2
*I *4258:X O *D sky130_fd_sc_hd__dlygate4sd3_1
*CAP
1 *3652:A1 0.000153176
2 *4258:X 0.000153176
3 *3652:A1 *4167:A 0.000119969
4 *3652:A1 *4388:A 7.89362e-05
5 *3652:B1 *3652:A1 0.000226274
6 *3654:A1 *3652:A1 0
7 *543:31 *3652:A1 1.89507e-06
*RES
1 *4258:X *3652:A1 31.725 
*END

*D_NET *760 0.00121509
*CONN
*I *3758:A1 I *D sky130_fd_sc_hd__mux2_1
*I *3753:A0 I *D sky130_fd_sc_hd__mux2_1
*I *4259:X O *D sky130_fd_sc_hd__dlygate4sd3_1
*CAP
1 *3758:A1 0
2 *3753:A0 0.000235985
3 *4259:X 0.000191018
4 *760:6 0.000427003
5 *3753:A0 *964:37 3.26907e-05
6 *760:6 *3758:A0 4.43256e-05
7 *760:6 *3758:S 1.39726e-05
8 *3698:B2 *3753:A0 9.99853e-05
9 *3698:B2 *760:6 0.000128523
10 *608:77 *3753:A0 4.15914e-05
*RES
1 *4259:X *760:6 11.8893 
2 *760:6 *3753:A0 21.6393 
3 *760:6 *3758:A1 9.3 
*END

*D_NET *761 0.000536956
*CONN
*I *4057:D I *D sky130_fd_sc_hd__dfrtp_2
*I *4260:X O *D sky130_fd_sc_hd__dlygate4sd3_1
*CAP
1 *4057:D 0.000119915
2 *4260:X 0.000119915
3 *4057:D *964:12 2.59355e-05
4 *4057:D *964:37 0.000126439
5 *4260:A *4057:D 1.83136e-05
6 *608:77 *4057:D 0.000126439
*RES
1 *4260:X *4057:D 30.3143 
*END

*D_NET *762 0.000888872
*CONN
*I *3417:A I *D sky130_fd_sc_hd__or2_2
*I *3418:A I *D sky130_fd_sc_hd__nand2_2
*I *4347:X O *D sky130_fd_sc_hd__clkdlybuf4s25_1
*CAP
1 *3417:A 0.000101019
2 *3418:A 0
3 *4347:X 0.000119567
4 *762:10 0.000220586
5 *3415:A2 *3417:A 0
6 *3415:A2 *762:10 0
7 *3415:B1 *762:10 5.33882e-05
8 *3417:B *3417:A 0.000217478
9 *3417:B *762:10 1.02504e-05
10 *416:30 *762:10 0.000166582
*RES
1 *4347:X *762:10 16.3893 
2 *762:10 *3418:A 13.8 
3 *762:10 *3417:A 16.6571 
*END

*D_NET *763 0.00619346
*CONN
*I *3363:B1 I *D sky130_fd_sc_hd__a31o_2
*I *4261:X O *D sky130_fd_sc_hd__dlygate4sd3_1
*CAP
1 *3363:B1 0.000151589
2 *4261:X 0.00136907
3 *763:10 0.00152066
4 *3363:B1 *3434:B 0.000212324
5 *3363:B1 *3436:A1 2.14757e-05
6 *3363:B1 *3528:A2 0.00018372
7 *3363:B1 *993:58 9.40156e-05
8 *3363:B1 *1051:39 5.03772e-05
9 *763:10 *3438:B1 3.93893e-05
10 *763:10 *3786:A1 0
11 *763:10 *878:53 0
12 *763:10 *880:91 0.000398815
13 *763:10 *1051:20 2.94103e-05
14 *763:10 *1062:30 5.53499e-05
15 *763:10 *1063:29 6.5185e-05
16 *3528:B1 *763:10 0
17 *3938:D *763:10 0
18 *3938:SET_B *763:10 5.56943e-05
19 *3944:D *763:10 0.000407481
20 *91:10 *763:10 0.000145598
21 *360:33 *763:10 0
22 *367:12 *763:10 0.000320031
23 *627:59 *763:10 5.16583e-05
24 *645:42 *763:10 0.000145753
25 *753:12 *763:10 0.000875862
*RES
1 *4261:X *763:10 45.9786 
2 *763:10 *3363:B1 18.8714 
*END

*D_NET *764 0.000747796
*CONN
*I *3438:B1 I *D sky130_fd_sc_hd__a22o_2
*I *4262:X O *D sky130_fd_sc_hd__dlygate4sd3_1
*CAP
1 *3438:B1 0.000172811
2 *4262:X 0.000172811
3 *3438:B1 *3438:A2 0.000112187
4 *3438:B1 *3786:A1 4.66203e-05
5 *3435:B1 *3438:B1 6.08004e-05
6 *3438:A1 *3438:B1 2.89114e-05
7 *3438:B2 *3438:B1 4.1896e-06
8 *3442:B1 *3438:B1 7.66462e-05
9 *3938:D *3438:B1 3.34295e-05
10 *763:10 *3438:B1 3.93893e-05
*RES
1 *4262:X *3438:B1 31.85 
*END

*D_NET *765 0.00120586
*CONN
*I *3467:A1 I *D sky130_fd_sc_hd__a22o_2
*I *4263:X O *D sky130_fd_sc_hd__dlygate4sd3_1
*CAP
1 *3467:A1 0.0003615
2 *4263:X 0.0003615
3 *3467:A1 *3680:B1 0.00019549
4 *3467:A2 *3467:A1 1.57155e-05
5 *3823:B1 *3467:A1 0
6 *3945:D *3467:A1 8.95688e-05
7 *3951:RESET_B *3467:A1 0
8 *4126:A *3467:A1 0.000182085
*RES
1 *4263:X *3467:A1 35.6893 
*END

*D_NET *766 0.00331391
*CONN
*I *3433:B2 I *D sky130_fd_sc_hd__a22o_2
*I *3468:B2 I *D sky130_fd_sc_hd__a22o_2
*I *4264:X O *D sky130_fd_sc_hd__dlygate4sd3_1
*CAP
1 *3433:B2 0.000304694
2 *3468:B2 0.000774213
3 *4264:X 0.000102736
4 *766:6 0.00118164
5 *3433:B2 *993:14 0
6 *3468:B2 *4141:A 0
7 *3468:B2 *4201:A 5.23057e-05
8 *3468:B2 *4264:A 9.90431e-05
9 *3468:B2 *958:18 0.000298057
10 *3468:B2 *978:18 1.21258e-05
11 *3468:B2 *993:14 0
12 *766:6 *4201:A 1.39726e-05
13 *3451:A1 *3468:B2 0.00026546
14 *3896:D *3468:B2 0
15 *4017:CLK *3468:B2 0
16 *4116:A *3468:B2 9.25014e-06
17 *4302:A *3468:B2 0.000171202
18 *365:16 *3468:B2 2.92126e-05
19 *603:13 *3433:B2 0
20 *603:13 *3468:B2 0
21 *603:55 *3433:B2 0
*RES
1 *4264:X *766:6 11.0679 
2 *766:6 *3468:B2 35.6393 
3 *766:6 *3433:B2 23.2821 
*END

*D_NET *767 0.000970065
*CONN
*I *3931:D I *D sky130_fd_sc_hd__dfstp_2
*I *4265:X O *D sky130_fd_sc_hd__dlygate4sd3_1
*CAP
1 *3931:D 0.000330309
2 *4265:X 0.000330309
3 *3931:D *4278:A 3.18676e-05
4 *3931:D *911:42 5.30209e-05
5 *3931:D *993:14 0
6 *3936:CLK *3931:D 6.97972e-05
7 *3936:RESET_B *3931:D 0.000154762
8 *603:55 *3931:D 0
*RES
1 *4265:X *3931:D 33.85 
*END

*D_NET *768 0.000786619
*CONN
*I *3658:A1 I *D sky130_fd_sc_hd__o21a_2
*I *4266:X O *D sky130_fd_sc_hd__dlygate4sd3_1
*CAP
1 *3658:A1 0.000129688
2 *4266:X 0.000129688
3 *3658:A1 *3656:A1 5.33005e-05
4 *3658:A1 *4070:A 4.37451e-05
5 *3658:A1 *4167:A 7.48906e-05
6 *3656:A2 *3658:A1 0.000170138
7 *3879:D *3658:A1 0.000139331
8 *3880:D *3658:A1 1.06328e-05
9 *543:27 *3658:A1 1.06172e-05
10 *543:31 *3658:A1 2.45881e-05
*RES
1 *4266:X *3658:A1 31.5107 
*END

*D_NET *769 0.00158354
*CONN
*I *3757:A1 I *D sky130_fd_sc_hd__mux2_1
*I *3759:A0 I *D sky130_fd_sc_hd__mux2_1
*I *4267:X O *D sky130_fd_sc_hd__dlygate4sd3_1
*CAP
1 *3757:A1 9.27121e-06
2 *3759:A0 0.000246746
3 *4267:X 0.000108838
4 *769:10 0.000364856
5 *3757:A1 *905:30 5.52302e-05
6 *3759:A0 *3757:S 0
7 *3759:A0 *3759:A1 5.33005e-05
8 *3759:A0 *905:30 0.000174405
9 *3759:A0 *905:34 4.65258e-05
10 *769:10 *3621:A1 0.000319323
11 *769:10 *3623:A1 9.24395e-05
12 *769:10 *965:27 7.48356e-05
13 *3757:A0 *3757:A1 2.44318e-05
14 *3757:A0 *3759:A0 1.33343e-05
*RES
1 *4267:X *769:10 22.3714 
2 *769:10 *3759:A0 14.3714 
3 *769:10 *3757:A1 9.83571 
*END

*D_NET *770 0.00221183
*CONN
*I *3656:A1 I *D sky130_fd_sc_hd__o21a_2
*I *4268:X O *D sky130_fd_sc_hd__dlygate4sd3_1
*CAP
1 *3656:A1 0.000696949
2 *4268:X 0.000696949
3 *3656:A1 *4070:A 5.33005e-05
4 *3656:A1 *4266:A 9.85599e-06
5 *3656:A1 *1015:8 7.74135e-05
6 *3658:A1 *3656:A1 5.33005e-05
7 *3879:D *3656:A1 1.98839e-05
8 *4379:A *3656:A1 7.58841e-05
9 *605:56 *3656:A1 1.58163e-05
10 *614:8 *3656:A1 0.000356682
11 *614:101 *3656:A1 0.00015579
*RES
1 *4268:X *3656:A1 37.9571 
*END

*D_NET *771 0.00181379
*CONN
*I *3750:A0 I *D sky130_fd_sc_hd__mux2_1
*I *3747:A1 I *D sky130_fd_sc_hd__mux2_1
*I *4269:X O *D sky130_fd_sc_hd__dlygate4sd3_1
*CAP
1 *3750:A0 0.000135098
2 *3747:A1 0.000169652
3 *4269:X 8.83657e-05
4 *771:6 0.000393116
5 *3750:A0 *3750:S 0.000439378
6 *4286:A *3750:A0 0
7 *640:28 *3750:A0 0.000242451
8 *640:35 *3747:A1 0.000123495
9 *640:35 *3750:A0 0.000222231
*RES
1 *4269:X *771:6 10.2464 
2 *771:6 *3747:A1 20.8893 
3 *771:6 *3750:A0 24.1929 
*END

*D_NET *772 0.000162521
*CONN
*I *4054:D I *D sky130_fd_sc_hd__dfrtp_2
*I *4270:X O *D sky130_fd_sc_hd__dlygate4sd3_1
*CAP
1 *4054:D 8.12603e-05
2 *4270:X 8.12603e-05
3 *4054:D *3750:S 0
4 *4270:A *4054:D 0
*RES
1 *4270:X *4054:D 28.9393 
*END

*D_NET *773 0.00241914
*CONN
*I *3420:A I *D sky130_fd_sc_hd__xnor2_2
*I *4348:X O *D sky130_fd_sc_hd__clkdlybuf4s25_1
*CAP
1 *3420:A 0.000584011
2 *4348:X 0.000584011
3 *3802:B1 *3420:A 0.000330667
4 *3994:CLK *3420:A 0
5 *3995:CLK *3420:A 0.00027218
6 *3995:D *3420:A 0.000497655
7 *641:139 *3420:A 0.000150618
*RES
1 *4348:X *3420:A 42.1714 
*END

*D_NET *774 0.00216908
*CONN
*I *3754:A0 I *D sky130_fd_sc_hd__mux2_1
*I *3759:A1 I *D sky130_fd_sc_hd__mux2_1
*I *4271:X O *D sky130_fd_sc_hd__dlygate4sd3_1
*CAP
1 *3754:A0 0
2 *3759:A1 0.000344232
3 *4271:X 0.000389186
4 *774:10 0.000733418
5 *3759:A1 *3754:A1 0.000260993
6 *3759:A1 *4058:D 0
7 *3759:A1 *905:34 0.000178847
8 *3759:A1 *962:8 2.59355e-05
9 *3759:A1 *962:10 5.66157e-05
10 *774:10 *3708:B 3.69047e-06
11 *774:10 *3754:A1 1.02504e-05
12 *774:10 *4058:D 0
13 *774:10 *875:58 0
14 *3759:A0 *3759:A1 5.33005e-05
15 *4063:D *774:10 4.51213e-05
16 *4272:A *774:10 6.74911e-05
17 *632:12 *3759:A1 0
18 *632:12 *774:10 0
*RES
1 *4271:X *774:10 20.55 
2 *774:10 *3759:A1 21.2821 
3 *774:10 *3754:A0 13.8 
*END

*D_NET *775 0.000574493
*CONN
*I *4058:D I *D sky130_fd_sc_hd__dfrtp_2
*I *4272:X O *D sky130_fd_sc_hd__dlygate4sd3_1
*CAP
1 *4058:D 0.000259635
2 *4272:X 0.000259635
3 *4058:D *914:57 5.52238e-05
4 *3759:A1 *4058:D 0
5 *632:12 *4058:D 0
6 *774:10 *4058:D 0
*RES
1 *4272:X *4058:D 31.9036 
*END

*D_NET *776 0.000403966
*CONN
*I *3760:A0 I *D sky130_fd_sc_hd__mux2_1
*I *4273:X O *D sky130_fd_sc_hd__dlygate4sd3_1
*CAP
1 *3760:A0 7.83389e-05
2 *4273:X 7.83389e-05
3 *3760:A0 *3760:A1 5.71472e-05
4 *3760:A0 *905:42 4.72917e-05
5 *3760:A0 *905:50 0.00014285
*RES
1 *4273:X *3760:A0 20.7786 
*END

*D_NET *777 0.000770662
*CONN
*I *4064:D I *D sky130_fd_sc_hd__dfrtp_2
*I *4274:X O *D sky130_fd_sc_hd__dlygate4sd3_1
*CAP
1 *4064:D 0.000308383
2 *4274:X 0.000308383
3 *4064:D *4064:RESET_B 0
4 *4064:D *967:10 3.48235e-05
5 *4064:D *967:16 3.17067e-05
6 *4059:D *4064:D 8.73652e-05
7 *4274:A *4064:D 0
*RES
1 *4274:X *4064:D 33.0286 
*END

*D_NET *778 0.00107653
*CONN
*I *3461:B2 I *D sky130_fd_sc_hd__a221o_2
*I *4275:X O *D sky130_fd_sc_hd__dlygate4sd3_1
*CAP
1 *3461:B2 0.000220361
2 *4275:X 0.000220361
3 *3461:B2 *3743:A 1.403e-05
4 *3454:A1 *3461:B2 1.18064e-05
5 *3461:B1 *3461:B2 0.000315172
6 *3523:A0 *3461:B2 0.000205356
7 *3950:RESET_B *3461:B2 4.20462e-05
8 *3953:D *3461:B2 0
9 *3980:D *3461:B2 4.15914e-05
10 *433:10 *3461:B2 5.80706e-06
*RES
1 *4275:X *3461:B2 34.3857 
*END

*D_NET *779 0.00209707
*CONN
*I *3746:A1 I *D sky130_fd_sc_hd__mux2_1
*I *3752:A0 I *D sky130_fd_sc_hd__mux2_1
*I *4276:X O *D sky130_fd_sc_hd__dlygate4sd3_1
*CAP
1 *3746:A1 0
2 *3752:A0 0.000447297
3 *4276:X 0.000158467
4 *779:10 0.000605764
5 *3752:A0 *3667:A 0.000250201
6 *3752:A0 *3746:S 0.000210555
7 *3752:A0 *3752:A1 5.60962e-05
8 *3752:A0 *3752:S 2.5547e-05
9 *779:10 *3667:A 0.000137939
10 *779:10 *3746:S 1.02504e-05
11 *779:10 *4276:A 0
12 *4050:RESET_B *3752:A0 9.25014e-06
13 *606:45 *779:10 9.60875e-05
14 *624:44 *3752:A0 8.9622e-05
*RES
1 *4276:X *779:10 16.6929 
2 *779:10 *3752:A0 21.6036 
3 *779:10 *3746:A1 13.8 
*END

*D_NET *780 0.000580426
*CONN
*I *4056:D I *D sky130_fd_sc_hd__dfrtp_2
*I *4277:X O *D sky130_fd_sc_hd__dlygate4sd3_1
*CAP
1 *4056:D 0.000164117
2 *4277:X 0.000164117
3 *4056:D *3752:A1 0.000127439
4 *4056:D *4395:A 0
5 *4095:A *4056:D 4.63862e-05
6 *4277:A *4056:D 7.83659e-05
*RES
1 *4277:X *4056:D 31.3679 
*END

*D_NET *781 0.0013137
*CONN
*I *3430:A2 I *D sky130_fd_sc_hd__a22o_2
*I *4278:X O *D sky130_fd_sc_hd__dlygate4sd3_1
*CAP
1 *3430:A2 0.00011378
2 *4278:X 0.00011378
3 *3430:A2 *911:42 0.000272371
4 *3430:A2 *911:48 0.000319969
5 *3430:A2 *1093:18 2.14658e-05
6 *4120:A *3430:A2 0.000223831
7 *643:6 *3430:A2 0.000248505
*RES
1 *4278:X *3430:A2 24.7964 
*END

*D_NET *782 0.00202555
*CONN
*I *3454:A2 I *D sky130_fd_sc_hd__o21a_2
*I *4279:X O *D sky130_fd_sc_hd__dlygate4sd3_1
*CAP
1 *3454:A2 0.00025045
2 *4279:X 0.00025045
3 *3454:A2 *990:18 0.000676441
4 *4077:A *3454:A2 3.67142e-05
5 *4087:A *3454:A2 0.000508764
6 *4088:A *3454:A2 0.000162832
7 *111:10 *3454:A2 0.0001399
*RES
1 *4279:X *3454:A2 37.5821 
*END

*D_NET *783 0.000409681
*CONN
*I *3747:A0 I *D sky130_fd_sc_hd__mux2_1
*I *4280:X O *D sky130_fd_sc_hd__dlygate4sd3_1
*CAP
1 *3747:A0 4.90678e-05
2 *4280:X 4.90678e-05
3 *3747:A0 *889:105 0.000228334
4 *3666:S *3747:A0 8.3212e-05
*RES
1 *4280:X *3747:A0 20.7786 
*END

*D_NET *784 0.00215782
*CONN
*I *3639:A1 I *D sky130_fd_sc_hd__mux2_1
*I *4349:X O *D sky130_fd_sc_hd__clkdlybuf4s25_1
*CAP
1 *3639:A1 0.000725567
2 *4349:X 0.000725567
3 *3639:A1 *3638:A1 0.000247386
4 *3639:A1 *3639:S 4.87854e-05
5 *3639:A1 *908:16 0.000177948
6 *3862:RESET_B *3639:A1 0.000186669
7 *4345:A *3639:A1 0
8 *4350:A *3639:A1 4.58976e-05
9 *618:109 *3639:A1 0
*RES
1 *4349:X *3639:A1 40.2429 
*END

*D_NET *785 0.0022985
*CONN
*I *3749:A1 I *D sky130_fd_sc_hd__mux2_1
*I *3751:A0 I *D sky130_fd_sc_hd__mux2_1
*I *4281:X O *D sky130_fd_sc_hd__dlygate4sd3_1
*CAP
1 *3749:A1 0.000392
2 *3751:A0 0.000223114
3 *4281:X 0.000284797
4 *785:10 0.00089991
5 *3749:A1 *4165:A 1.98839e-05
6 *3749:A1 *907:12 0.000258812
7 *3749:A1 *934:32 4.70078e-05
8 *3751:A0 *3751:A1 1.92789e-05
9 *3751:A0 *3752:S 2.07491e-05
10 *3751:A0 *934:32 7.15846e-05
11 *785:10 *4281:A 0
12 *785:10 *877:14 0
13 *785:10 *934:26 2.19778e-05
14 *4042:CLK *3749:A1 3.93893e-05
15 *4042:RESET_B *3749:A1 0
16 *11:10 *3749:A1 0
17 *641:37 *785:10 0
18 *641:54 *785:10 0
*RES
1 *4281:X *785:10 23.2821 
2 *785:10 *3751:A0 12.3 
3 *785:10 *3749:A1 24.9607 
*END

*D_NET *786 0.000587422
*CONN
*I *4055:D I *D sky130_fd_sc_hd__dfrtp_2
*I *4282:X O *D sky130_fd_sc_hd__dlygate4sd3_1
*CAP
1 *4055:D 0.00012791
2 *4282:X 0.00012791
3 *4055:D *3665:B 8.15843e-05
4 *4055:D *3751:A1 1.00375e-05
5 *4055:D *3752:S 8.06331e-05
6 *4055:D *889:91 0.000100823
7 *641:37 *4055:D 0
8 *646:61 *4055:D 5.85229e-05
*RES
1 *4282:X *4055:D 31.6714 
*END

*D_NET *787 0.000988033
*CONN
*I *3573:A1 I *D sky130_fd_sc_hd__o21ai_2
*I *4283:X O *D sky130_fd_sc_hd__dlygate4sd3_1
*CAP
1 *3573:A1 0.000279895
2 *4283:X 0.000279895
3 *3573:A1 *903:12 0
4 *3573:A1 *1097:10 0
5 *3829:B1 *3573:A1 0.000186669
6 *4021:D *3573:A1 0
7 *4021:RESET_B *3573:A1 0.000179656
8 *161:12 *3573:A1 6.19181e-05
*RES
1 *4283:X *3573:A1 33.7429 
*END

*D_NET *788 0.000718357
*CONN
*I *3749:A0 I *D sky130_fd_sc_hd__mux2_1
*I *4284:X O *D sky130_fd_sc_hd__dlygate4sd3_1
*CAP
1 *3749:A0 0.000188166
2 *4284:X 0.000188166
3 *3749:A0 *3663:B 0.000342026
*RES
1 *4284:X *3749:A0 22.4214 
*END

*D_NET *789 0.00158116
*CONN
*I *3745:A0 I *D sky130_fd_sc_hd__mux2_1
*I *4285:X O *D sky130_fd_sc_hd__dlygate4sd3_1
*CAP
1 *3745:A0 0.000258648
2 *4285:X 0.000258648
3 *3745:A0 *3745:A1 6.30774e-05
4 *3745:A0 *4285:A 7.25984e-05
5 *3745:A0 *871:10 8.00806e-05
6 *3664:A0 *3745:A0 2.28499e-05
7 *3664:A1 *3745:A0 0.000144773
8 *3664:S *3745:A0 2.44318e-05
9 *3678:A0 *3745:A0 0
10 *3905:D *3745:A0 6.74911e-05
11 *359:43 *3745:A0 0.000142856
12 *359:45 *3745:A0 0.000268396
13 *640:8 *3745:A0 5.33005e-05
14 *640:14 *3745:A0 0.00012401
*RES
1 *4285:X *3745:A0 36.0107 
*END

*D_NET *790 0.000176396
*CONN
*I *4049:D I *D sky130_fd_sc_hd__dfrtp_2
*I *4286:X O *D sky130_fd_sc_hd__dlygate4sd3_1
*CAP
1 *4049:D 5.34244e-05
2 *4286:X 5.34244e-05
3 *4049:CLK *4049:D 3.47737e-05
4 *641:37 *4049:D 3.47737e-05
*RES
1 *4286:X *4049:D 28.9393 
*END

*D_NET *791 0.000654988
*CONN
*I *3746:A0 I *D sky130_fd_sc_hd__mux2_1
*I *4287:X O *D sky130_fd_sc_hd__dlygate4sd3_1
*CAP
1 *3746:A0 0.000150955
2 *4287:X 0.000150955
3 *3917:CLK *3746:A0 0.000353079
*RES
1 *4287:X *3746:A0 22.0107 
*END

*D_NET *792 0.00334094
*CONN
*I *3755:A1 I *D sky130_fd_sc_hd__mux2_1
*I *3758:A0 I *D sky130_fd_sc_hd__mux2_1
*I *4288:X O *D sky130_fd_sc_hd__dlygate4sd3_1
*CAP
1 *3755:A1 5.8116e-05
2 *3758:A0 0.0001795
3 *4288:X 0.000427954
4 *792:10 0.00066557
5 *3755:A1 *3753:S 5.33005e-05
6 *3755:A1 *905:54 0.00022459
7 *3755:A1 *964:37 0.000268409
8 *3758:A0 *3758:S 0.00031293
9 *3758:A0 *4057:RESET_B 1.08359e-05
10 *792:10 *4057:RESET_B 2.26424e-05
11 *792:10 *4062:RESET_B 4.93875e-05
12 *792:10 *4288:A 0
13 *3698:A1 *3758:A0 7.09928e-05
14 *3698:B2 *3758:A0 0.000199283
15 *4059:D *792:10 0.000579302
16 *608:77 *3758:A0 0
17 *608:77 *792:10 0
18 *608:128 *792:10 0.000173804
19 *760:6 *3758:A0 4.43256e-05
*RES
1 *4288:X *792:10 23.675 
2 *792:10 *3758:A0 18.9429 
3 *792:10 *3755:A1 16.3893 
*END

*D_NET *793 0.000203779
*CONN
*I *3529:A1 I *D sky130_fd_sc_hd__o21ai_2
*I *4289:X O *D sky130_fd_sc_hd__dlygate4sd3_1
*CAP
1 *3529:A1 6.3793e-05
2 *4289:X 6.3793e-05
3 *612:6 *3529:A1 7.61932e-05
*RES
1 *4289:X *3529:A1 19.9571 
*END

*D_NET *794 0.00119384
*CONN
*I *3755:A0 I *D sky130_fd_sc_hd__mux2_1
*I *4290:X O *D sky130_fd_sc_hd__dlygate4sd3_1
*CAP
1 *3755:A0 0.000371836
2 *4290:X 0.000371836
3 *3755:A0 *4057:RESET_B 0.000105565
4 *3755:A0 *4290:A 9.00795e-06
5 *3755:A0 *905:50 9.24395e-05
6 *3755:A0 *967:16 0.000103253
7 *3755:A0 *967:22 0
8 *3755:A0 *969:14 0
9 *4059:D *3755:A0 0
10 *604:24 *3755:A0 0.000139907
*RES
1 *4290:X *3755:A0 34.7607 
*END

*D_NET *795 0.00240327
*CONN
*I *3638:A1 I *D sky130_fd_sc_hd__mux2_1
*I *4350:X O *D sky130_fd_sc_hd__clkdlybuf4s25_1
*CAP
1 *3638:A1 0.000377108
2 *4350:X 0.000377108
3 *3638:A1 *846:12 0.000495276
4 *3638:A1 *908:16 0.000153054
5 *3639:A1 *3638:A1 0.000247386
6 *4350:A *3638:A1 0.000626714
7 *4362:A *3638:A1 0.000126629
*RES
1 *4350:X *3638:A1 40.1179 
*END

*D_NET *796 0.000161517
*CONN
*I *3373:C1 I *D sky130_fd_sc_hd__a311o_2
*I *4291:X O *D sky130_fd_sc_hd__dlygate4sd3_1
*CAP
1 *3373:C1 8.07586e-05
2 *4291:X 8.07586e-05
*RES
1 *4291:X *3373:C1 19.9571 
*END

*D_NET *797 0.00314826
*CONN
*I *3548:B1 I *D sky130_fd_sc_hd__a21o_2
*I *4292:X O *D sky130_fd_sc_hd__dlygate4sd3_1
*CAP
1 *3548:B1 0.000799307
2 *4292:X 0.000799307
3 *3548:B1 *3626:A1 0.000247791
4 *3548:B1 *3626:A2 0.000341252
5 *3548:B1 *881:103 7.03393e-05
6 *3548:B1 *896:133 0.000460268
7 *3490:B *3548:B1 0.000104227
8 *4084:A *3548:B1 0.000325767
*RES
1 *4292:X *3548:B1 49.7786 
*END

*D_NET *798 0.000272443
*CONN
*I *4006:D I *D sky130_fd_sc_hd__dfrtp_2
*I *4293:X O *D sky130_fd_sc_hd__dlygate4sd3_1
*CAP
1 *4006:D 0.000136222
2 *4293:X 0.000136222
*RES
1 *4293:X *4006:D 20.3679 
*END

*D_NET *799 0.000926886
*CONN
*I *3570:B1 I *D sky130_fd_sc_hd__a21oi_2
*I *4294:X O *D sky130_fd_sc_hd__dlygate4sd3_1
*CAP
1 *3570:B1 0.000201869
2 *4294:X 0.000201869
3 *3570:B1 *3568:A1 0.00010096
4 *3570:B1 *3568:B1 5.52238e-05
5 *3568:A2 *3570:B1 5.52238e-05
6 *3569:B1 *3570:B1 5.52238e-05
7 *3572:B *3570:B1 5.68519e-05
8 *4014:D *3570:B1 6.97972e-05
9 *503:18 *3570:B1 0.000129868
*RES
1 *4294:X *3570:B1 32.6714 
*END

*D_NET *800 0.000972567
*CONN
*I *3632:A0 I *D sky130_fd_sc_hd__mux2_1
*I *4295:X O *D sky130_fd_sc_hd__dlygate4sd3_1
*CAP
1 *3632:A0 0.000290133
2 *4295:X 0.000290133
3 *3632:A0 *3687:B1 0
4 *3632:A0 *845:10 0.000163163
5 *3485:C *3632:A0 0.000197269
6 *3862:D *3632:A0 0
7 *4360:A *3632:A0 3.18676e-05
*RES
1 *4295:X *3632:A0 34.0286 
*END

*D_NET *801 0.000583153
*CONN
*I *3633:A0 I *D sky130_fd_sc_hd__mux2_1
*I *4296:X O *D sky130_fd_sc_hd__dlygate4sd3_1
*CAP
1 *3633:A0 5.29346e-05
2 *4296:X 5.29346e-05
3 *3633:A0 *4296:A 0.000144773
4 *3633:A0 *846:23 4.59075e-05
5 *3633:A0 *908:16 0.000188586
6 *3633:A0 *908:18 9.80173e-05
*RES
1 *4296:X *3633:A0 21.1893 
*END

*D_NET *802 0.00227334
*CONN
*I *3519:B I *D sky130_fd_sc_hd__and2_2
*I *3443:C I *D sky130_fd_sc_hd__nor3_2
*I *4297:X O *D sky130_fd_sc_hd__dlygate4sd3_1
*CAP
1 *3519:B 0
2 *3443:C 0.000202551
3 *4297:X 0.000250088
4 *802:12 0.000452639
5 *3443:C *3443:B 0.000314139
6 *3443:C *3519:A 0.000269428
7 *3443:C *989:20 2.44318e-05
8 *802:12 *3685:B2 0.000367557
9 *802:12 *4325:A 4.4545e-05
10 *3684:B2 *802:12 0.000151333
11 *4087:A *802:12 9.56673e-05
12 *426:10 *3443:C 0.00010096
*RES
1 *4297:X *802:12 24.4429 
2 *802:12 *3443:C 14.7643 
3 *802:12 *3519:B 9.3 
*END

*D_NET *803 0.000582197
*CONN
*I *3645:A0 I *D sky130_fd_sc_hd__mux2_1
*I *4298:X O *D sky130_fd_sc_hd__dlygate4sd3_1
*CAP
1 *3645:A0 0.000261141
2 *4298:X 0.000261141
3 *3645:A0 *3711:B 0
4 *3645:A0 *4396:A 0
5 *3645:A0 *909:63 4.79842e-05
6 *3645:A0 *909:72 1.19309e-05
*RES
1 *4298:X *3645:A0 32.1357 
*END

*D_NET *804 0.000210398
*CONN
*I *3614:B1 I *D sky130_fd_sc_hd__a21oi_2
*I *4299:X O *D sky130_fd_sc_hd__dlygate4sd3_1
*CAP
1 *3614:B1 0.000105199
2 *4299:X 0.000105199
*RES
1 *4299:X *3614:B1 20.3679 
*END

*D_NET *805 0.00110754
*CONN
*I *3641:A0 I *D sky130_fd_sc_hd__mux2_1
*I *4300:X O *D sky130_fd_sc_hd__dlygate4sd3_1
*CAP
1 *3641:A0 0.000183076
2 *4300:X 0.000183076
3 *3641:A0 *928:8 7.95804e-05
4 *3641:A1 *3641:A0 0.000225982
5 *3676:S *3641:A0 0.000111118
6 *359:45 *3641:A0 0.000226998
7 *359:61 *3641:A0 9.77118e-05
*RES
1 *4300:X *3641:A0 24.475 
*END

*D_NET *806 0.00146122
*CONN
*I *3636:A1 I *D sky130_fd_sc_hd__mux2_1
*I *4351:X O *D sky130_fd_sc_hd__clkdlybuf4s25_1
*CAP
1 *3636:A1 0.000409992
2 *4351:X 0.000409992
3 *3636:A1 *4159:A 0
4 *3636:A1 *886:63 0.000218679
5 *3636:A1 *887:14 0
6 *3636:A1 *900:18 0.000177941
7 *3636:A1 *900:58 0.000117189
8 *4025:CLK *3636:A1 0
9 *4026:RESET_B *3636:A1 8.00806e-05
10 *661:30 *3636:A1 4.73471e-05
*RES
1 *4351:X *3636:A1 35.6714 
*END

*D_NET *807 0.000847936
*CONN
*I *3468:B1 I *D sky130_fd_sc_hd__a22o_2
*I *4301:X O *D sky130_fd_sc_hd__dlygate4sd3_1
*CAP
1 *3468:B1 0.000173862
2 *4301:X 0.000173862
3 *3468:B1 *3679:B1 0.000292701
4 *3468:B1 *4301:A 0.000158726
5 *617:107 *3468:B1 4.87854e-05
*RES
1 *4301:X *3468:B1 32.3143 
*END

*D_NET *808 0.000597911
*CONN
*I *3956:D I *D sky130_fd_sc_hd__dfrtp_2
*I *4302:X O *D sky130_fd_sc_hd__dlygate4sd3_1
*CAP
1 *3956:D 0.000205457
2 *4302:X 0.000205457
3 *3956:D *3525:S 6.81872e-05
4 *3956:D *3679:B1 1.78353e-05
5 *3956:CLK *3956:D 5.52302e-05
6 *4302:A *3956:D 4.57445e-05
*RES
1 *4302:X *3956:D 31.8321 
*END

*D_NET *809 0.000338271
*CONN
*I *3642:A0 I *D sky130_fd_sc_hd__mux2_1
*I *4303:X O *D sky130_fd_sc_hd__dlygate4sd3_1
*CAP
1 *3642:A0 9.73914e-05
2 *4303:X 9.73914e-05
3 *3642:A0 *3642:A1 0.000117553
4 *3870:D *3642:A0 2.59355e-05
*RES
1 *4303:X *3642:A0 20.7786 
*END

*D_NET *810 0.000833428
*CONN
*I *3681:A I *D sky130_fd_sc_hd__nor2_2
*I *4304:X O *D sky130_fd_sc_hd__dlygate4sd3_1
*CAP
1 *3681:A 0.000258332
2 *4304:X 0.000258332
3 *3681:A *3680:A1_N 4.57538e-05
4 *3948:RESET_B *3681:A 0.00014285
5 *4126:A *3681:A 0.000128161
*RES
1 *4304:X *3681:A 33.0643 
*END

*D_NET *811 0.00124577
*CONN
*I *3643:A0 I *D sky130_fd_sc_hd__mux2_1
*I *4305:X O *D sky130_fd_sc_hd__dlygate4sd3_1
*CAP
1 *3643:A0 0.000453945
2 *4305:X 0.000453945
3 *3643:A0 *3643:A1 3.18676e-05
4 *3643:A0 *3647:A0 5.35423e-05
5 *3643:A0 *4310:A 0
6 o_receive_data[0] *3643:A0 8.23597e-06
7 *359:61 *3643:A0 0.000140933
8 *623:60 *3643:A0 0.000103305
*RES
1 *4305:X *3643:A0 36.0286 
*END

*D_NET *812 0.000479286
*CONN
*I *3453:A1 I *D sky130_fd_sc_hd__a22o_2
*I *4306:X O *D sky130_fd_sc_hd__dlygate4sd3_1
*CAP
1 *3453:A1 4.4498e-05
2 *4306:X 4.4498e-05
3 *3453:A1 *3448:B 0.000226513
4 *3453:A2 *3453:A1 3.046e-05
5 *3458:C *3453:A1 7.80871e-05
6 *3947:CLK *3453:A1 5.52302e-05
*RES
1 *4306:X *3453:A1 20.7786 
*END

*D_NET *813 0.00206782
*CONN
*I *3627:A0 I *D sky130_fd_sc_hd__mux2_1
*I *4307:X O *D sky130_fd_sc_hd__dlygate4sd3_1
*CAP
1 *3627:A0 0.00060454
2 *4307:X 0.00060454
3 *3627:A0 *3472:A 0.000263374
4 *3627:A0 *3627:A1 5.52302e-05
5 *3627:A0 *3627:S 0
6 *3627:A0 *3857:RESET_B 0
7 *3627:A0 *908:73 0.000207178
8 *3627:A0 *909:37 2.29112e-05
9 *3627:A0 *913:44 0
10 *3484:A1 *3627:A0 0.00014324
11 *3857:D *3627:A0 0.000109661
12 *4363:A *3627:A0 0
13 *4364:A *3627:A0 5.71472e-05
*RES
1 *4307:X *3627:A0 42.225 
*END

*D_NET *814 0.00110058
*CONN
*I *3628:A0 I *D sky130_fd_sc_hd__mux2_1
*I *4308:X O *D sky130_fd_sc_hd__dlygate4sd3_1
*CAP
1 *3628:A0 0.000250295
2 *4308:X 0.000250295
3 *3628:A0 *3472:B 1.98839e-05
4 *3628:A0 *4318:A 8.38511e-05
5 *3628:A0 *852:22 9.91086e-05
6 *3484:B1 *3628:A0 0.000262123
7 *3484:B2 *3628:A0 0.000135028
*RES
1 *4308:X *3628:A0 32.8321 
*END

*D_NET *815 0.000368183
*CONN
*I *3646:A0 I *D sky130_fd_sc_hd__mux2_1
*I *4309:X O *D sky130_fd_sc_hd__dlygate4sd3_1
*CAP
1 *3646:A0 0.000184092
2 *4309:X 0.000184092
*RES
1 *4309:X *3646:A0 21.1893 
*END

*D_NET *816 0.00172594
*CONN
*I *3647:A0 I *D sky130_fd_sc_hd__mux2_1
*I *4310:X O *D sky130_fd_sc_hd__dlygate4sd3_1
*CAP
1 *3647:A0 0.000697395
2 *4310:X 0.000697395
3 *3647:A0 *3647:A1 5.52238e-05
4 *3647:A0 *3673:B 3.30237e-05
5 *3647:A0 *4310:A 6.05161e-06
6 *3647:A0 *869:10 1.4211e-05
7 o_receive_data[0] *3647:A0 5.52302e-05
8 *3643:A0 *3647:A0 5.35423e-05
9 *3674:A1 *3647:A0 7.83659e-05
10 *3674:S *3647:A0 3.55056e-05
11 *623:60 *3647:A0 0
*RES
1 *4310:X *3647:A0 38.7964 
*END

*D_NET *817 0.00318624
*CONN
*I *3637:A1 I *D sky130_fd_sc_hd__mux2_1
*I *4352:X O *D sky130_fd_sc_hd__clkdlybuf4s25_1
*CAP
1 *3637:A1 0.000467768
2 *4352:X 0.000467768
3 *3637:A1 *3636:S 0.000704485
4 *3637:A1 *3637:S 1.92905e-05
5 *3637:A1 *4147:A 0.000286472
6 *3637:A1 *886:63 3.67452e-05
7 *3637:A1 *886:74 2.26424e-05
8 *3637:A1 *900:68 8.00806e-05
9 *3855:D *3637:A1 5.33005e-05
10 *4135:A *3637:A1 0.000971044
11 *662:10 *3637:A1 7.6644e-05
*RES
1 *4352:X *3637:A1 44.5643 
*END

*D_NET *818 0.00078736
*CONN
*I *3640:A0 I *D sky130_fd_sc_hd__mux2_1
*I *4311:X O *D sky130_fd_sc_hd__dlygate4sd3_1
*CAP
1 *3640:A0 0.000226352
2 *4311:X 0.000226352
3 *3640:A0 *3640:S 5.33005e-05
4 *3640:A0 *916:77 4.00121e-05
5 *3640:A1 *3640:A0 5.33005e-05
6 *3739:A *3640:A0 2.78822e-05
7 *3739:B *3640:A0 8.00806e-05
8 *3912:D *3640:A0 8.00806e-05
*RES
1 *4311:X *3640:A0 32.5464 
*END

*D_NET *819 0.00154331
*CONN
*I *3352:A I *D sky130_fd_sc_hd__inv_2
*I *4312:X O *D sky130_fd_sc_hd__dlygate4sd3_1
*CAP
1 *3352:A 0.000357176
2 *4312:X 0.000357176
3 *3352:A *3588:A 0.000178847
4 *3352:A *3589:A 0.00012401
5 *3352:A *3591:B 2.39923e-05
6 *3352:A *1109:14 4.08637e-05
7 *3352:A *1109:16 4.08637e-05
8 *3352:A *1109:46 3.17148e-05
9 *3589:B *3352:A 3.31397e-05
10 *3593:A1 *3352:A 0.000135815
11 *4028:D *3352:A 0.000219711
*RES
1 *4312:X *3352:A 35.975 
*END

*D_NET *820 0.000797916
*CONN
*I *3644:A0 I *D sky130_fd_sc_hd__mux2_1
*I *4313:X O *D sky130_fd_sc_hd__dlygate4sd3_1
*CAP
1 *3644:A0 0.000320079
2 *4313:X 0.000320079
3 *3644:A0 *4288:A 3.13199e-05
4 *4091:A *3644:A0 0.000126439
*RES
1 *4313:X *3644:A0 32.9214 
*END

*D_NET *821 0.00122003
*CONN
*I *3459:A1 I *D sky130_fd_sc_hd__a21o_2
*I *4314:X O *D sky130_fd_sc_hd__dlygate4sd3_1
*CAP
1 *3459:A1 0.00016419
2 *4314:X 0.00016419
3 *3459:A1 *3524:A1 2.89114e-05
4 *3459:A1 *948:12 7.17932e-05
5 *3459:A1 *1004:18 3.68898e-05
6 *3459:A2 *3459:A1 5.52238e-05
7 *3459:B1 *3459:A1 0.000229456
8 *3524:A2 *3459:A1 9.95558e-05
9 *3524:B1 *3459:A1 5.71472e-05
10 *3972:CLK *3459:A1 0.000148196
11 *113:8 *3459:A1 0.000164481
*RES
1 *4314:X *3459:A1 33.3679 
*END

*D_NET *822 0.00158352
*CONN
*I *3520:A I *D sky130_fd_sc_hd__and2_2
*I *4315:X O *D sky130_fd_sc_hd__dlygate4sd3_1
*CAP
1 *3520:A 0.00053049
2 *4315:X 0.00053049
3 *3520:A *3433:A1 5.62995e-05
4 *3520:A *883:58 0.000116545
5 *3933:D *3520:A 6.05161e-06
6 *3980:CLK *3520:A 1.92789e-05
7 *4316:A *3520:A 6.05161e-06
8 *611:12 *3520:A 0.000318316
*RES
1 *4315:X *3520:A 38.4929 
*END

*D_NET *823 0.000718414
*CONN
*I *4017:D I *D sky130_fd_sc_hd__dfrtp_2
*I *4316:X O *D sky130_fd_sc_hd__dlygate4sd3_1
*CAP
1 *4017:D 0.000340653
2 *4316:X 0.000340653
3 *4017:D *996:12 3.71084e-05
4 *603:13 *4017:D 0
*RES
1 *4316:X *4017:D 33.6357 
*END

*D_NET *824 0.000547098
*CONN
*I *3629:A0 I *D sky130_fd_sc_hd__mux2_1
*I *4317:X O *D sky130_fd_sc_hd__dlygate4sd3_1
*CAP
1 *3629:A0 0.000140178
2 *4317:X 0.000140178
3 *3629:A0 *3629:A1 7.05867e-05
4 *3629:A0 *844:14 0
5 *3629:A0 *854:26 9.71197e-05
6 *3858:D *3629:A0 0
7 *4369:A *3629:A0 9.90367e-05
*RES
1 *4317:X *3629:A0 30.4929 
*END

*D_NET *825 0.000585087
*CONN
*I *3630:A0 I *D sky130_fd_sc_hd__mux2_1
*I *4318:X O *D sky130_fd_sc_hd__dlygate4sd3_1
*CAP
1 *3630:A0 5.42164e-05
2 *4318:X 5.42164e-05
3 *3630:A0 *3478:B 0.000268835
4 *3630:A0 *908:73 0.000137639
5 *3484:B2 *3630:A0 7.01807e-05
*RES
1 *4318:X *3630:A0 21.1893 
*END

*D_NET *826 0.000973714
*CONN
*I *3435:B2 I *D sky130_fd_sc_hd__a2bb2o_2
*I *4319:X O *D sky130_fd_sc_hd__dlygate4sd3_1
*CAP
1 *3435:B2 0.000210525
2 *4319:X 0.000210525
3 *3435:B2 *993:58 0.000148911
4 *3435:B2 *1065:10 5.33005e-05
5 *3435:A1_N *3435:B2 2.28499e-05
6 *3435:B1 *3435:B2 5.49544e-05
7 *3438:B2 *3435:B2 9.60875e-05
8 *3941:CLK *3435:B2 2.59355e-05
9 *645:101 *3435:B2 0.000150625
*RES
1 *4319:X *3435:B2 32.6714 
*END

*D_NET *827 0.00082593
*CONN
*I *3376:A1 I *D sky130_fd_sc_hd__a21oi_2
*I *4320:X O *D sky130_fd_sc_hd__dlygate4sd3_1
*CAP
1 *3376:A1 0.00022882
2 *4320:X 0.00022882
3 *3376:A1 *3368:A2 3.98559e-05
4 *3376:A1 *4320:A 0.00010096
5 *394:52 *3376:A1 5.52238e-05
6 *394:58 *3376:A1 0.000172251
*RES
1 *4320:X *3376:A1 24.0821 
*END

*D_NET *828 0.0216524
*CONN
*I *4136:A I *D sky130_fd_sc_hd__clkdlybuf4s25_1
*I *4131:A I *D sky130_fd_sc_hd__clkdlybuf4s25_1
*I *4123:A I *D sky130_fd_sc_hd__clkdlybuf4s25_1
*I *4353:X O *D sky130_fd_sc_hd__clkdlybuf4s25_1
*CAP
1 *4136:A 6.71205e-05
2 *4131:A 5.5738e-05
3 *4123:A 0.00501052
4 *4353:X 0.000442153
5 *828:42 0.0021043
6 *828:12 0.00506626
7 *828:10 0.00247933
8 *4123:A *3817:A2 2.06112e-05
9 *4123:A *4068:A 0
10 *4123:A *910:20 0
11 *4123:A *989:20 1.01912e-05
12 *828:10 *910:20 0
13 *828:42 *4147:A 0.000562087
14 *828:42 *4161:A 0.000701409
15 *828:42 *4187:A 0.000510916
16 *828:42 *888:10 0.000259429
17 *828:42 *888:25 0.00107057
18 *828:42 *902:10 0.000153047
19 *828:42 *902:19 0.00134374
20 *828:42 *902:30 0.000856284
21 *828:42 *902:96 0.00020112
22 *828:42 *1072:10 0
23 *3634:B *4123:A 0
24 *4351:A *828:42 0.000381928
25 *4352:A *828:42 0.000117144
26 *655:84 *4123:A 1.90936e-05
27 *657:6 *4123:A 0.000219366
*RES
1 *4353:X *828:10 20.3536 
2 *828:10 *828:12 4.5 
3 *828:12 *4123:A 39.2493 
4 *828:12 *4131:A 10.2464 
5 *828:10 *828:42 68.125 
6 *828:42 *4136:A 14.7464 
*END

*D_NET *829 0.00248034
*CONN
*I *3631:A0 I *D sky130_fd_sc_hd__mux2_1
*I *4321:X O *D sky130_fd_sc_hd__dlygate4sd3_1
*CAP
1 *3631:A0 0.000516965
2 *4321:X 0.000516965
3 *3631:A0 *3482:B 9.97744e-05
4 *3631:A0 *3631:A1 0.000114986
5 *3631:A0 *844:14 0.00092628
6 *620:58 *3631:A0 0.000305372
*RES
1 *4321:X *3631:A0 39.7429 
*END

*D_NET *830 0.000438119
*CONN
*I *3377:A1 I *D sky130_fd_sc_hd__o21ai_2
*I *4322:X O *D sky130_fd_sc_hd__dlygate4sd3_1
*CAP
1 *3377:A1 0.000138873
2 *4322:X 0.000138873
3 *3377:B1 *3377:A1 0.00010096
4 *3378:B *3377:A1 2.14658e-05
5 *3922:D *3377:A1 3.79467e-05
*RES
1 *4322:X *3377:A1 30.6 
*END

*D_NET *831 0.000717422
*CONN
*I *3471:A1 I *D sky130_fd_sc_hd__a21o_2
*I *4323:X O *D sky130_fd_sc_hd__dlygate4sd3_1
*CAP
1 *3471:A1 0.000266378
2 *4323:X 0.000266378
3 *3471:A1 *936:33 0
4 *3471:A1 *939:16 7.83659e-05
5 *72:10 *3471:A1 0.000106299
*RES
1 *4323:X *3471:A1 32.4214 
*END

*D_NET *832 0.000228837
*CONN
*I *3353:A I *D sky130_fd_sc_hd__inv_2
*I *4324:X O *D sky130_fd_sc_hd__dlygate4sd3_1
*CAP
1 *3353:A 8.68032e-05
2 *4324:X 8.68032e-05
3 *3353:A *3501:A 5.52302e-05
*RES
1 *4324:X *3353:A 19.9571 
*END

*D_NET *833 0.00157487
*CONN
*I *3518:A2 I *D sky130_fd_sc_hd__a21o_2
*I *4325:X O *D sky130_fd_sc_hd__dlygate4sd3_1
*CAP
1 *3518:A2 0.000501022
2 *4325:X 0.000501022
3 *3518:A2 *3657:B 0
4 *3518:A2 *838:12 0
5 *3684:A1 *3518:A2 0.000442785
6 *3959:D *3518:A2 7.6644e-05
7 *616:78 *3518:A2 0
8 *676:14 *3518:A2 5.33978e-05
*RES
1 *4325:X *3518:A2 38.6536 
*END

*D_NET *834 0.000105122
*CONN
*I *3348:A I *D sky130_fd_sc_hd__inv_2
*I *4326:X O *D sky130_fd_sc_hd__dlygate4sd3_1
*CAP
1 *3348:A 2.1228e-05
2 *4326:X 2.1228e-05
3 *3348:A *881:103 7.43578e-06
4 *3567:A1 *3348:A 5.52302e-05
*RES
1 *4326:X *3348:A 19.1357 
*END

*D_NET *835 0.000392095
*CONN
*I *3525:S I *D sky130_fd_sc_hd__mux2_1
*I *4327:X O *D sky130_fd_sc_hd__dlygate4sd3_1
*CAP
1 *3525:S 9.82308e-05
2 *4327:X 9.82308e-05
3 *3525:S *3462:B2 0
4 *3525:S *3679:B1 0.000127446
5 *3956:D *3525:S 6.81872e-05
6 *4302:A *3525:S 0
*RES
1 *4327:X *3525:S 29.7786 
*END

*D_NET *836 0.000659707
*CONN
*I *3397:B I *D sky130_fd_sc_hd__and2_2
*I *4328:X O *D sky130_fd_sc_hd__dlygate4sd3_1
*CAP
1 *3397:B 0.000158155
2 *4328:X 0.000158155
3 *3397:B *3423:A 0.000125724
4 *3397:B *889:16 0.000139907
5 *3424:B2 *3397:B 0
6 *105:8 *3397:B 7.77652e-05
*RES
1 *4328:X *3397:B 31.4214 
*END

*D_NET *837 0.00142366
*CONN
*I *3467:B1 I *D sky130_fd_sc_hd__a22o_2
*I *4329:X O *D sky130_fd_sc_hd__dlygate4sd3_1
*CAP
1 *3467:B1 0.00054778
2 *4329:X 0.00054778
3 *3467:B1 *3680:A1_N 6.10318e-05
4 *3467:B1 *3680:A2_N 0.000213767
5 *3467:B1 *3680:B1 5.33005e-05
6 *3467:B1 *3680:B2 0
7 *3467:B2 *3467:B1 0
*RES
1 *4329:X *3467:B1 35.225 
*END

*D_NET *838 0.00293693
*CONN
*I *3456:A2 I *D sky130_fd_sc_hd__a22o_2
*I *4330:X O *D sky130_fd_sc_hd__dlygate4sd3_1
*CAP
1 *3456:A2 0
2 *4330:X 0.000974186
3 *838:12 0.000974186
4 *838:12 *3341:A 0.000161683
5 *838:12 *3456:A1 4.16066e-05
6 *838:12 *3518:A1 0
7 *838:12 *3680:A2_N 4.34948e-06
8 *838:12 *3683:A_N 0
9 *838:12 *1000:10 6.44542e-05
10 *838:12 *1003:18 0
11 *3467:B2 *838:12 0.000174797
12 *3518:A2 *838:12 0
13 *3684:A1 *838:12 0
14 *3685:A1 *838:12 0
15 *3894:CLK *838:12 6.58289e-05
16 *3894:D *838:12 0
17 *3895:CLK *838:12 7.54569e-05
18 *3946:RESET_B *838:12 0
19 *3950:D *838:12 3.69697e-05
20 *3959:D *838:12 0
21 *111:10 *838:12 0.000127439
22 *559:10 *838:12 0
23 *605:12 *838:12 8.16036e-05
24 *616:76 *838:12 6.85604e-05
25 *616:78 *838:12 8.58088e-05
*RES
1 *4330:X *838:12 40.733 
2 *838:12 *3456:A2 9.3 
*END

*D_NET *839 0.00487649
*CONN
*I *3477:A I *D sky130_fd_sc_hd__or2_2
*I *3478:A I *D sky130_fd_sc_hd__nand2_2
*I *3627:A1 I *D sky130_fd_sc_hd__mux2_1
*I *4354:X O *D sky130_fd_sc_hd__clkdlybuf4s25_1
*CAP
1 *3477:A 0.000614051
2 *3478:A 0.000130716
3 *3627:A1 0.000695191
4 *4354:X 0
5 *839:8 0.000889767
6 *839:6 0.00067791
7 *3477:A *3477:B 5.49995e-05
8 *3477:A *3691:A1 0.000101555
9 *3478:A *3478:B 0.000136727
10 *3478:A *3630:A1 5.33005e-05
11 *3627:A1 *3479:A 0.000408031
12 *3627:A1 *3691:A1 1.76352e-05
13 *3627:A1 *3693:A1 0.000487473
14 *839:8 *3479:A 2.22419e-05
15 *839:8 *843:8 7.74135e-05
16 *3484:B2 *3478:A 1.62025e-05
17 *3627:A0 *3627:A1 5.52302e-05
18 *3856:D *3627:A1 0.000295137
19 *3857:CLK *3627:A1 0
20 *4363:A *3627:A1 0
21 *4364:A *3627:A1 0.000119203
22 *4367:A *3627:A1 2.3704e-05
23 *620:32 *3627:A1 0
*RES
1 *4354:X *839:6 13.8 
2 *839:6 *839:8 1.33929 
3 *839:8 *3627:A1 31.0143 
4 *839:8 *3478:A 16.4071 
5 *839:6 *3477:A 25.2643 
*END

*D_NET *840 0.000796381
*CONN
*I *3642:A1 I *D sky130_fd_sc_hd__mux2_1
*I *4355:X O *D sky130_fd_sc_hd__clkdlybuf4s25_1
*CAP
1 *3642:A1 0.000280302
2 *4355:X 0.000280302
3 *3642:A1 *3642:S 3.69047e-06
4 *3642:A0 *3642:A1 0.000117553
5 *3870:CLK *3642:A1 2.79092e-05
6 *3870:D *3642:A1 8.25843e-06
7 *4333:A *3642:A1 7.83659e-05
*RES
1 *4355:X *3642:A1 31.6357 
*END

*D_NET *841 0.00581523
*CONN
*I *3473:A I *D sky130_fd_sc_hd__or2_2
*I *3628:A1 I *D sky130_fd_sc_hd__mux2_1
*I *3472:A I *D sky130_fd_sc_hd__nand2_2
*I *4356:X O *D sky130_fd_sc_hd__clkdlybuf4s25_1
*CAP
1 *3473:A 0.000399751
2 *3628:A1 0.000116349
3 *3472:A 0.000513024
4 *4356:X 0.00011651
5 *841:21 0.0005161
6 *841:6 0.000629534
7 *3472:A *3477:B 2.67589e-05
8 *3473:A *3472:B 1.98839e-05
9 *3473:A *3473:B 0.000768319
10 *3473:A *3478:B 9.66977e-05
11 *3473:A *909:37 0.000438857
12 *3473:A *982:21 2.07809e-05
13 *3473:A *982:48 1.03904e-05
14 *3473:A *983:31 0.000120604
15 *3628:A1 *908:59 4.85049e-06
16 *3628:A1 *908:63 9.35794e-06
17 *3484:A1 *3472:A 0.000226803
18 *3484:A2 *3473:A 1.10868e-05
19 *3484:B1 *3473:A 0.000157223
20 *3484:B1 *3628:A1 0.000193683
21 *3484:B2 *3473:A 9.8126e-05
22 *3484:B2 *3628:A1 0.000193683
23 *3627:A0 *3472:A 0.000263374
24 *3702:B1 *3473:A 2.36643e-05
25 *3903:D *3473:A 5.65955e-05
26 *4354:A *3472:A 1.45957e-05
27 *569:24 *3473:A 0.000531781
28 *620:21 *3472:A 0.000177194
29 *620:21 *841:6 5.96516e-05
*RES
1 *4356:X *841:6 10.6571 
2 *841:6 *3472:A 28.5143 
3 *841:6 *841:21 4.5 
4 *841:21 *3628:A1 16.8893 
5 *841:21 *3473:A 28.4964 
*END

*D_NET *842 0.00319105
*CONN
*I *3476:A I *D sky130_fd_sc_hd__xor2_2
*I *3629:A1 I *D sky130_fd_sc_hd__mux2_1
*I *4357:X O *D sky130_fd_sc_hd__clkdlybuf4s25_1
*CAP
1 *3476:A 5.91541e-05
2 *3629:A1 0.000195273
3 *4357:X 0.000711994
4 *842:10 0.000966421
5 *3476:A *4317:A 4.70821e-05
6 *3629:A1 *3629:S 0.00015685
7 *3629:A1 *908:49 1.12323e-05
8 *842:10 *854:26 0.000169875
9 *842:10 *908:49 0.000337495
10 *3629:A0 *3629:A1 7.05867e-05
11 *3858:D *3629:A1 0
12 *4369:A *3629:A1 5.52302e-05
13 *427:43 *842:10 5.97299e-05
14 *427:55 *842:10 0.00035013
*RES
1 *4357:X *842:10 25.2821 
2 *842:10 *3629:A1 17.4964 
3 *842:10 *3476:A 14.7464 
*END

*D_NET *843 0.00185372
*CONN
*I *3630:A1 I *D sky130_fd_sc_hd__mux2_1
*I *3479:A I *D sky130_fd_sc_hd__xor2_2
*I *4358:X O *D sky130_fd_sc_hd__clkdlybuf4s25_1
*CAP
1 *3630:A1 0.000127561
2 *3479:A 0.000157652
3 *4358:X 2.66884e-05
4 *843:8 0.000311902
5 *3479:A *3691:A1 0.000431395
6 *3479:A *852:22 5.33005e-05
7 *3630:A1 *3478:B 0.000115387
8 *843:8 *3691:A1 6.88475e-05
9 *3478:A *3630:A1 5.33005e-05
10 *3627:A1 *3479:A 0.000408031
11 *839:8 *3479:A 2.22419e-05
12 *839:8 *843:8 7.74135e-05
*RES
1 *4358:X *843:8 14.8357 
2 *843:8 *3479:A 19.925 
3 *843:8 *3630:A1 15.5679 
*END

*D_NET *844 0.00468639
*CONN
*I *3631:A1 I *D sky130_fd_sc_hd__mux2_1
*I *3482:A I *D sky130_fd_sc_hd__xor2_2
*I *4359:X O *D sky130_fd_sc_hd__clkdlybuf4s25_1
*CAP
1 *3631:A1 4.45717e-05
2 *3482:A 0
3 *4359:X 0.000972851
4 *844:14 0.00101742
5 *3631:A1 *3631:S 0.00011294
6 *844:14 *3693:A1 0.00070497
7 *844:14 *850:26 0.000253148
8 *3629:A0 *844:14 0
9 *3631:A0 *3631:A1 0.000114986
10 *3631:A0 *844:14 0.00092628
11 *3858:D *844:14 0.000291137
12 *4364:A *844:14 0.000231947
13 *427:55 *844:14 0
14 *564:14 *3631:A1 3.43988e-06
15 *564:14 *844:14 1.26938e-05
*RES
1 *4359:X *844:14 35.1393 
2 *844:14 *3482:A 13.8 
3 *844:14 *3631:A1 15.4429 
*END

*D_NET *845 0.00244578
*CONN
*I *3632:A1 I *D sky130_fd_sc_hd__mux2_1
*I *3481:A I *D sky130_fd_sc_hd__nand2_2
*I *3480:A I *D sky130_fd_sc_hd__or2_2
*I *4360:X O *D sky130_fd_sc_hd__clkdlybuf4s25_1
*CAP
1 *3632:A1 3.83825e-05
2 *3481:A 0.000162644
3 *3480:A 0
4 *4360:X 0.00019279
5 *845:10 0.000466856
6 *845:6 0.000535384
7 *3481:A *3481:B 0.000215784
8 *3632:A1 *908:32 5.52302e-05
9 *845:10 *3703:A1 0.000133318
10 *845:10 *987:10 0
11 *845:10 *987:23 0
12 *3485:C *3481:A 5.50052e-05
13 *3485:C *845:10 0
14 *3632:A0 *845:10 0.000163163
15 *3704:B2 *3481:A 0
16 *3861:D *845:6 0.000114902
17 *4360:A *3632:A1 0.000142856
18 *4360:A *845:6 0.000140933
19 *4360:A *845:10 0
20 *562:14 *3481:A 2.85321e-05
*RES
1 *4360:X *845:6 13.5321 
2 *845:6 *845:10 11.6071 
3 *845:10 *3480:A 13.8 
4 *845:10 *3481:A 17.4964 
5 *845:6 *3632:A1 10.6571 
*END

*D_NET *846 0.00333597
*CONN
*I *3474:A I *D sky130_fd_sc_hd__or2_2
*I *3475:A I *D sky130_fd_sc_hd__nand2_2
*I *3633:A1 I *D sky130_fd_sc_hd__mux2_1
*I *4361:X O *D sky130_fd_sc_hd__clkdlybuf4s25_1
*CAP
1 *3474:A 0.000142199
2 *3475:A 0
3 *3633:A1 0
4 *4361:X 0.000451801
5 *846:23 0.000421496
6 *846:12 0.000731098
7 *846:12 *3687:B1 0
8 *846:12 *4296:A 1.76039e-05
9 *846:23 *4296:A 0.000131874
10 *846:23 *988:12 7.16652e-05
11 *3633:A0 *846:23 4.59075e-05
12 *3638:A1 *846:12 0.000495276
13 *3862:CLK *3474:A 3.51442e-05
14 *3862:CLK *846:23 0.00020042
15 *4113:A *3474:A 0.000227526
16 *427:20 *3474:A 0.000166983
17 *427:20 *846:23 5.41794e-05
18 *618:20 *3474:A 0.000142797
*RES
1 *4361:X *846:12 25.4964 
2 *846:12 *3633:A1 9.3 
3 *846:12 *846:23 10.2321 
4 *846:23 *3475:A 13.8 
5 *846:23 *3474:A 18.2286 
*END

*D_NET *847 0.00305281
*CONN
*I *3687:B1 I *D sky130_fd_sc_hd__a221o_2
*I *4362:X O *D sky130_fd_sc_hd__clkdlybuf4s25_1
*CAP
1 *3687:B1 0.00116086
2 *4362:X 0.00116086
3 *3687:B1 *3687:A2 8.55493e-06
4 *3687:B1 *3689:A1 3.79254e-05
5 *3687:B1 *3690:A1 4.24237e-05
6 *3687:B1 *3690:A2 4.79864e-05
7 *3687:B1 *4296:A 0
8 *3687:B1 *988:12 0
9 *3687:B1 *988:29 0
10 *3483:A1 *3687:B1 0.000125724
11 *3483:B1 *3687:B1 0.000148911
12 *3483:B2 *3687:B1 6.31709e-05
13 *3485:C *3687:B1 0
14 *3632:A0 *3687:B1 0
15 *3862:D *3687:B1 3.2534e-05
16 *4360:A *3687:B1 6.02977e-05
17 *4362:A *3687:B1 5.23142e-05
18 *4370:A *3687:B1 9.27866e-05
19 *427:20 *3687:B1 0
20 *434:16 *3687:B1 1.0484e-05
21 *618:12 *3687:B1 7.983e-06
22 *846:12 *3687:B1 0
*RES
1 *4362:X *3687:B1 47.8679 
*END

*D_NET *848 0.00390396
*CONN
*I *3691:A1 I *D sky130_fd_sc_hd__mux2_1
*I *4363:X O *D sky130_fd_sc_hd__clkdlybuf4s25_1
*CAP
1 *3691:A1 0.00133588
2 *4363:X 0.00133588
3 *3691:A1 *908:59 0.000288057
4 *3477:A *3691:A1 0.000101555
5 *3479:A *3691:A1 0.000431395
6 *3484:A2 *3691:A1 2.11419e-05
7 *3485:D *3691:A1 1.46617e-05
8 *3627:A1 *3691:A1 1.76352e-05
9 *3859:D *3691:A1 0.000172737
10 *4356:A *3691:A1 2.11419e-05
11 *4358:A *3691:A1 0
12 *4367:A *3691:A1 0
13 *620:32 *3691:A1 9.50291e-05
14 *843:8 *3691:A1 6.88475e-05
*RES
1 *4363:X *3691:A1 46.2897 
*END

*D_NET *849 0.00394758
*CONN
*I *3693:A1 I *D sky130_fd_sc_hd__mux2_1
*I *4364:X O *D sky130_fd_sc_hd__clkdlybuf4s25_1
*CAP
1 *3693:A1 0.000659617
2 *4364:X 0.000659617
3 *3693:A1 *3627:S 5.52238e-05
4 *3693:A1 *3693:A0 9.60939e-05
5 *3693:A1 *4321:A 0.000140517
6 *3693:A1 *986:10 4.6922e-05
7 *3693:A1 *986:27 2.89114e-05
8 *3627:A1 *3693:A1 0.000487473
9 *3856:D *3693:A1 0.000314139
10 *4356:A *3693:A1 0
11 *4364:A *3693:A1 0.000682346
12 *427:61 *3693:A1 8.43535e-06
13 *427:67 *3693:A1 6.33113e-05
14 *844:14 *3693:A1 0.00070497
*RES
1 *4364:X *3693:A1 47.2429 
*END

*D_NET *850 0.00489414
*CONN
*I *3695:A1 I *D sky130_fd_sc_hd__mux2_1
*I *4365:X O *D sky130_fd_sc_hd__clkdlybuf4s25_1
*CAP
1 *3695:A1 0
2 *4365:X 0.00128577
3 *850:26 0.00128577
4 *850:26 *3629:S 5.09726e-05
5 *850:26 *3695:A0 5.2931e-05
6 *850:26 *4381:A 0.000191194
7 *850:26 *854:26 0.000437579
8 *850:26 *908:49 0.000103814
9 *3485:B *850:26 0.000140088
10 *3858:D *850:26 0.000276211
11 *4357:A *850:26 0.000313333
12 *4364:A *850:26 0.000363239
13 *427:55 *850:26 0.000140088
14 *844:14 *850:26 0.000253148
*RES
1 *4365:X *850:26 44.5679 
2 *850:26 *3695:A1 9.3 
*END

*D_NET *851 0.000577927
*CONN
*I *3643:A1 I *D sky130_fd_sc_hd__mux2_1
*I *4366:X O *D sky130_fd_sc_hd__clkdlybuf4s25_1
*CAP
1 *3643:A1 0.000209833
2 *4366:X 0.000209833
3 *3643:A1 *3647:A1 5.33882e-05
4 *3643:A1 *3647:S 7.30047e-05
5 *3643:A0 *3643:A1 3.18676e-05
6 *623:60 *3643:A1 0
*RES
1 *4366:X *3643:A1 31.6 
*END

*D_NET *852 0.00426341
*CONN
*I *3697:A1 I *D sky130_fd_sc_hd__mux2_1
*I *4367:X O *D sky130_fd_sc_hd__clkdlybuf4s25_1
*CAP
1 *3697:A1 0.000247337
2 *4367:X 0.000862217
3 *852:22 0.00110955
4 *3697:A1 *3697:A0 0.000771411
5 *852:22 *3479:B 0.000232521
6 *852:22 *4318:A 3.34366e-05
7 *852:22 *908:73 1.25672e-06
8 *3479:A *852:22 5.33005e-05
9 *3484:C1 *852:22 1.74352e-05
10 *3628:A0 *852:22 9.91086e-05
11 *3857:CLK *852:22 0.000154762
12 *3857:D *852:22 8.43097e-06
13 *4356:A *3697:A1 5.52238e-05
14 *620:6 *3697:A1 1.24368e-05
15 *620:21 *3697:A1 0.000387497
16 *620:32 *852:22 0.000217478
*RES
1 *4367:X *852:22 42.2107 
2 *852:22 *3697:A1 17.6571 
*END

*D_NET *853 0.00517789
*CONN
*I *3699:A1 I *D sky130_fd_sc_hd__mux2_1
*I *4368:X O *D sky130_fd_sc_hd__clkdlybuf4s25_1
*CAP
1 *3699:A1 0
2 *4368:X 0.00195935
3 *853:22 0.00195935
4 *853:22 *3472:B 4.82354e-05
5 *853:22 *3473:B 5.51649e-05
6 *853:22 *3644:S 0
7 *853:22 *986:27 5.62995e-05
8 *3694:B2 *853:22 0.00028046
9 *3700:B2 *853:22 3.74783e-05
10 *3860:D *853:22 0.000181247
11 *3901:D *853:22 4.84073e-05
12 *3902:CLK *853:22 0
13 *4092:A *853:22 0.000439315
14 *4368:A *853:22 0.00011258
*RES
1 *4368:X *853:22 44.7014 
2 *853:22 *3699:A1 9.3 
*END

*D_NET *854 0.00402688
*CONN
*I *3701:A1 I *D sky130_fd_sc_hd__mux2_1
*I *4369:X O *D sky130_fd_sc_hd__clkdlybuf4s25_1
*CAP
1 *3701:A1 0
2 *4369:X 0.000967997
3 *854:26 0.000967997
4 *854:26 *3476:B 0
5 *854:26 *3629:S 5.52302e-05
6 *854:26 *3695:A0 0
7 *854:26 *3858:RESET_B 0.000271345
8 o_transmit_data_request *854:26 0
9 *3485:A *854:26 0
10 *3629:A0 *854:26 9.71197e-05
11 *3704:B2 *854:26 0.000139913
12 *3861:D *854:26 0
13 *4170:A *854:26 0
14 *4357:A *854:26 0.000169804
15 *4369:A *854:26 0.000265647
16 *427:43 *854:26 0.000484374
17 *427:55 *854:26 0
18 *842:10 *854:26 0.000169875
19 *850:26 *854:26 0.000437579
*RES
1 *4369:X *854:26 41.6929 
2 *854:26 *3701:A1 9.3 
*END

*D_NET *855 0.00184421
*CONN
*I *3703:A1 I *D sky130_fd_sc_hd__mux2_1
*I *4370:X O *D sky130_fd_sc_hd__clkdlybuf4s25_1
*CAP
1 *3703:A1 0.00059243
2 *4370:X 0.00059243
3 *3703:A1 *987:10 4.03318e-05
4 *3485:C *3703:A1 6.05161e-06
5 *3704:B2 *3703:A1 9.90431e-05
6 *4170:A *3703:A1 0
7 *4369:A *3703:A1 7.03103e-05
8 *427:29 *3703:A1 0.000310292
9 *845:10 *3703:A1 0.000133318
*RES
1 *4370:X *3703:A1 39.2786 
*END

*D_NET *856 0.0019416
*CONN
*I *4383:A I *D sky130_fd_sc_hd__clkdlybuf4s25_1
*I *4065:X O *D sky130_fd_sc_hd__buf_2
*CAP
1 *4383:A 0.000677708
2 *4065:X 0.000677708
3 *4383:A *4196:A 7.02611e-05
4 *4383:A *4389:A 4.35048e-05
5 *4383:A *1010:12 0.00014285
6 *3634:B *4383:A 9.71108e-05
7 *3634:C_N *4383:A 0
8 *3863:RESET_B *4383:A 0
9 *4174:A *4383:A 0.000157389
10 *4346:A *4383:A 0
11 *23:13 *4383:A 0
12 *59:10 *4383:A 7.50697e-05
*RES
1 *4065:X *4383:A 40.2964 
*END

*D_NET *857 0.00234462
*CONN
*I *4384:A I *D sky130_fd_sc_hd__clkdlybuf4s25_1
*I *4066:X O *D sky130_fd_sc_hd__buf_2
*CAP
1 *4384:A 0.000828692
2 *4066:X 0.000828692
3 *4384:A *3660:S 5.52238e-05
4 *4384:A *4066:A 3.18676e-05
5 *4384:A *910:60 2.95726e-05
6 *4384:A *992:16 0
7 *4384:A *1018:23 6.14853e-05
8 *4384:A *1025:8 0.00014285
9 *3660:A1 *4384:A 0.000106083
10 *3882:D *4384:A 5.52302e-05
11 *543:25 *4384:A 0.000140243
12 *605:56 *4384:A 6.46843e-05
13 *614:10 *4384:A 0
14 *614:12 *4384:A 0
15 *614:63 *4384:A 0
*RES
1 *4066:X *4384:A 43.225 
*END

*D_NET *858 0.00190895
*CONN
*I *4385:A I *D sky130_fd_sc_hd__clkdlybuf4s25_1
*I *4067:X O *D sky130_fd_sc_hd__buf_2
*CAP
1 *4385:A 0.000458519
2 *4067:X 0.000458519
3 *4385:A *3395:A 0
4 *4385:A *4218:A 0.000125724
5 *4385:A *4221:A 0.000127446
6 *4385:A *4386:A 0.000115096
7 *4385:A *4387:A 0.000151061
8 *4385:A *910:10 0
9 *4385:A *992:16 0.000276211
10 *3881:RESET_B *4385:A 2.16391e-05
11 *4379:A *4385:A 8.86448e-05
12 *55:18 *4385:A 0
13 *409:22 *4385:A 6.08886e-05
14 *647:28 *4385:A 2.51963e-05
15 *728:14 *4385:A 0
*RES
1 *4067:X *4385:A 39.4214 
*END

*D_NET *859 0.00560902
*CONN
*I *4386:A I *D sky130_fd_sc_hd__clkdlybuf4s25_1
*I *4068:X O *D sky130_fd_sc_hd__buf_2
*CAP
1 *4386:A 0.00189304
2 *4068:X 0.00189304
3 *4386:A *4068:A 3.42387e-05
4 *4386:A *4388:A 0.00154125
5 *4386:A *981:65 9.27418e-05
6 *3960:D *4386:A 0
7 *4385:A *4386:A 0.000115096
8 *728:14 *4386:A 3.96001e-05
*RES
1 *4068:X *4386:A 42.2776 
*END

*D_NET *860 0.0033043
*CONN
*I *4387:A I *D sky130_fd_sc_hd__clkdlybuf4s25_1
*I *4069:X O *D sky130_fd_sc_hd__buf_2
*CAP
1 *4387:A 0.000941337
2 *4069:X 0.000941337
3 *4387:A *910:10 6.86792e-05
4 *4387:A *992:16 0.000130733
5 o_cmd_status_reg[4] *4387:A 1.15281e-05
6 o_cmd_status_reg[6] *4387:A 0.000247273
7 *3659:A0 *4387:A 0.000185643
8 *4341:A *4387:A 0.000283506
9 *4342:A *4387:A 7.77652e-05
10 *4385:A *4387:A 0.000151061
11 *654:10 *4387:A 0
12 *654:22 *4387:A 0
13 *728:14 *4387:A 0.000265441
*RES
1 *4069:X *4387:A 48.7786 
*END

*D_NET *861 0.00795302
*CONN
*I *4388:A I *D sky130_fd_sc_hd__clkdlybuf4s25_1
*I *4070:X O *D sky130_fd_sc_hd__buf_2
*CAP
1 *4388:A 0.00214849
2 *4070:X 0.00214849
3 *4388:A *4067:A 0
4 *4388:A *4167:A 0
5 *4388:A *4389:A 1.01912e-05
6 *4388:A *4399:A 0
7 *4388:A *910:20 0
8 *4388:A *1025:12 0
9 *3652:A1 *4388:A 7.89362e-05
10 *3654:A1 *4388:A 0.00014215
11 *3878:RESET_B *4388:A 0.000248509
12 *3881:RESET_B *4388:A 0.00163501
13 *4386:A *4388:A 0.00154125
*RES
1 *4070:X *4388:A 48.9256 
*END

*D_NET *862 0.00264709
*CONN
*I *3644:A1 I *D sky130_fd_sc_hd__mux2_1
*I *4371:X O *D sky130_fd_sc_hd__clkdlybuf4s25_1
*CAP
1 *3644:A1 0
2 *4371:X 0.000938417
3 *862:22 0.000938417
4 *862:22 *3644:S 6.63305e-05
5 *862:22 *3646:A1 0
6 *862:22 *3646:S 0
7 *862:22 *4309:A 0
8 *862:22 *929:10 5.21799e-05
9 *3872:D *862:22 0.000538493
10 *3874:D *862:22 3.92854e-05
11 *608:33 *862:22 7.39637e-05
*RES
1 *4371:X *862:22 43.55 
2 *862:22 *3644:A1 9.3 
*END

*D_NET *863 0.00309977
*CONN
*I *4389:A I *D sky130_fd_sc_hd__clkdlybuf4s25_1
*I *3326:Y O *D sky130_fd_sc_hd__inv_2
*CAP
1 *4389:A 0.0011559
2 *3326:Y 0.0011559
3 *4389:A *3326:A 0
4 *4389:A *1012:14 2.55587e-05
5 *3863:RESET_B *4389:A 3.69697e-05
6 *3968:D *4389:A 0.000440705
7 *3968:RESET_B *4389:A 9.42929e-05
8 *4346:A *4389:A 0
9 *4383:A *4389:A 4.35048e-05
10 *4388:A *4389:A 1.01912e-05
11 *60:14 *4389:A 3.69047e-06
12 *613:22 *4389:A 7.8401e-05
13 *613:35 *4389:A 5.46483e-05
*RES
1 *3326:Y *4389:A 44.4214 
*END

*D_NET *864 0.0028816
*CONN
*I *4208:A I *D sky130_fd_sc_hd__dlygate4sd3_1
*I *4390:A I *D sky130_fd_sc_hd__clkdlybuf4s25_1
*I *3884:Q O *D sky130_fd_sc_hd__dfxtp_2
*CAP
1 *4208:A 6.27696e-05
2 *4390:A 0.000892027
3 *3884:Q 6.1868e-05
4 *864:6 0.00101666
5 *4390:A *3750:A1 6.12902e-05
6 *4390:A *3750:S 0.000136676
7 *4049:CLK *4208:A 5.57914e-05
8 *4095:A *4390:A 2.59355e-05
9 *4270:A *4390:A 0.000320024
10 *623:101 *4390:A 0.000192762
11 *641:37 *4208:A 5.57914e-05
*RES
1 *3884:Q *864:6 10.2464 
2 *864:6 *4390:A 25.3536 
3 *864:6 *4208:A 20.2464 
*END

*D_NET *865 0.00363506
*CONN
*I *4391:A I *D sky130_fd_sc_hd__clkdlybuf4s25_1
*I *4206:A I *D sky130_fd_sc_hd__dlygate4sd3_1
*I *3885:Q O *D sky130_fd_sc_hd__dfxtp_2
*CAP
1 *4391:A 0.000377829
2 *4206:A 0
3 *3885:Q 0.000363997
4 *865:12 0.000741826
5 *4391:A *3327:A 0.000125731
6 *4391:A *4392:A 0.000105326
7 *4391:A *4394:A 0.000277111
8 *865:12 *4392:A 0
9 *865:12 *4394:A 0.000202842
10 *865:12 *866:10 0
11 *865:12 *867:16 0.00028654
12 *865:12 *868:18 0.000183645
13 *865:12 *940:12 4.4073e-05
14 *3670:S *865:12 0.000320024
15 *4336:A *4391:A 0.000259364
16 *4337:A *4391:A 6.39262e-05
17 *4375:A *4391:A 0.000120313
18 *413:22 *4391:A 9.82592e-05
19 *642:14 *4391:A 6.42502e-05
*RES
1 *3885:Q *865:12 24.5143 
2 *865:12 *4206:A 13.8 
3 *865:12 *4391:A 25.7643 
*END

*D_NET *866 0.0030622
*CONN
*I *4392:A I *D sky130_fd_sc_hd__clkdlybuf4s25_1
*I *4207:A I *D sky130_fd_sc_hd__dlygate4sd3_1
*I *3886:Q O *D sky130_fd_sc_hd__dfxtp_2
*CAP
1 *4392:A 0.000292938
2 *4207:A 0.000565446
3 *3886:Q 0.000294337
4 *866:10 0.00115272
5 *4392:A *3405:A 6.95089e-05
6 *866:10 *868:18 7.6021e-05
7 *3666:A1 *4392:A 3.57163e-05
8 *3666:A1 *866:10 6.04162e-05
9 *3670:A0 *4207:A 3.65069e-05
10 *3670:A1 *4207:A 0.000140933
11 *3670:A1 *4392:A 0
12 *3670:S *4207:A 0.000137525
13 *4375:A *4392:A 9.48025e-05
14 *4391:A *4392:A 0.000105326
15 *624:91 *4392:A 0
16 *865:12 *4392:A 0
17 *865:12 *866:10 0
*RES
1 *3886:Q *866:10 18.2286 
2 *866:10 *4207:A 23.3893 
3 *866:10 *4392:A 20.9071 
*END

*D_NET *867 0.0039574
*CONN
*I *4393:A I *D sky130_fd_sc_hd__clkdlybuf4s25_1
*I *4205:A I *D sky130_fd_sc_hd__dlygate4sd3_1
*I *3887:Q O *D sky130_fd_sc_hd__dfxtp_2
*CAP
1 *4393:A 0.000497461
2 *4205:A 2.57897e-05
3 *3887:Q 0.000294714
4 *867:16 0.000817965
5 *867:16 *3669:A 5.33005e-05
6 *867:16 *4394:A 0.000369811
7 *867:16 *940:12 5.7616e-05
8 o_receive_data[2] *867:16 0.000762055
9 o_receive_data[3] *4205:A 5.33005e-05
10 o_receive_data[3] *4393:A 0.000550265
11 *3988:D *4393:A 0.000188586
12 *865:12 *867:16 0.00028654
*RES
1 *3887:Q *867:16 29.9429 
2 *867:16 *4205:A 9.83571 
3 *867:16 *4393:A 20.05 
*END

*D_NET *868 0.00414957
*CONN
*I *4203:A I *D sky130_fd_sc_hd__dlygate4sd3_1
*I *4394:A I *D sky130_fd_sc_hd__clkdlybuf4s25_1
*I *3888:Q O *D sky130_fd_sc_hd__dfxtp_2
*CAP
1 *4203:A 0
2 *4394:A 0.000436771
3 *3888:Q 0.00056836
4 *868:18 0.00100513
5 *4394:A *3327:A 0.000125731
6 *868:18 *940:12 4.7024e-05
7 o_receive_data[1] *4394:A 5.64126e-05
8 o_receive_data[1] *868:18 0
9 o_receive_data[2] *4394:A 7.26587e-05
10 *3666:A1 *868:18 0
11 *3670:S *868:18 0.000371609
12 *4335:A *4394:A 4.67241e-05
13 *4337:A *4394:A 0.000183812
14 *4391:A *4394:A 0.000277111
15 *413:22 *4394:A 0.000125909
16 *865:12 *4394:A 0.000202842
17 *865:12 *868:18 0.000183645
18 *866:10 *868:18 7.6021e-05
19 *867:16 *4394:A 0.000369811
*RES
1 *3888:Q *868:18 30.4964 
2 *868:18 *4394:A 31.5143 
3 *868:18 *4203:A 9.3 
*END

*D_NET *869 0.00279527
*CONN
*I *4395:A I *D sky130_fd_sc_hd__clkdlybuf4s25_1
*I *4200:A I *D sky130_fd_sc_hd__dlygate4sd3_1
*I *3889:Q O *D sky130_fd_sc_hd__dfxtp_2
*CAP
1 *4395:A 0.000146594
2 *4200:A 6.46519e-05
3 *3889:Q 0.000848464
4 *869:10 0.00105971
5 *869:10 *3673:A 0
6 *869:10 *3673:B 0.000129094
7 *869:10 *945:12 0.000123359
8 *3647:A0 *869:10 1.4211e-05
9 *3668:A1 *4395:A 0.000113963
10 *3668:A1 *869:10 4.25716e-05
11 *3670:A0 *869:10 0
12 *3674:S *869:10 1.07719e-05
13 *4056:CLK *4395:A 1.41642e-05
14 *4056:CLK *869:10 8.84979e-05
15 *4056:D *4395:A 0
16 *4095:A *4395:A 0
17 *4277:A *4395:A 0
18 *359:87 *869:10 0
19 *624:44 *4200:A 4.25176e-05
20 *624:46 *4200:A 9.66977e-05
*RES
1 *3889:Q *869:10 27.3714 
2 *869:10 *4200:A 15.1571 
3 *869:10 *4395:A 17.3179 
*END

*D_NET *870 0.00362781
*CONN
*I *4204:A I *D sky130_fd_sc_hd__dlygate4sd3_1
*I *4396:A I *D sky130_fd_sc_hd__clkdlybuf4s25_1
*I *3890:Q O *D sky130_fd_sc_hd__dfxtp_2
*CAP
1 *4204:A 3.50298e-05
2 *4396:A 0.000910383
3 *3890:Q 0.000328845
4 *870:8 0.00127426
5 *4204:A *4310:A 0
6 *4396:A *3711:A 0.000297566
7 *4396:A *3711:B 0.000225314
8 *4396:A *4298:A 0.000202128
9 *4396:A *4310:A 0
10 *4396:A *909:72 0
11 *4396:A *930:10 0.000115474
12 *3641:A1 *4396:A 0.000101146
13 *3645:A0 *4396:A 0
14 *3676:A1 *870:8 9.83452e-05
15 *3869:D *4396:A 0
16 *3873:RESET_B *4396:A 0
17 *4344:A *4396:A 3.93247e-05
18 *623:60 *4204:A 0
19 *623:60 *4396:A 0
20 *640:105 *4396:A 0
*RES
1 *3890:Q *870:8 17.6214 
2 *870:8 *4396:A 32.0679 
3 *870:8 *4204:A 14.5321 
*END

*D_NET *871 0.00559175
*CONN
*I *4210:A I *D sky130_fd_sc_hd__dlygate4sd3_1
*I *4397:A I *D sky130_fd_sc_hd__clkdlybuf4s25_1
*I *3891:Q O *D sky130_fd_sc_hd__dfxtp_2
*CAP
1 *4210:A 0.000109718
2 *4397:A 0.0012818
3 *3891:Q 0.000479362
4 *871:10 0.00187088
5 *4397:A *3735:A 5.66384e-05
6 *4397:A *3735:C 0.000139208
7 *871:10 *3712:B 0
8 *871:10 *3715:B1 0
9 *871:10 *4285:A 5.56943e-05
10 *3678:A1 *4397:A 1.32552e-05
11 *3678:A1 *871:10 0
12 *3678:S *871:10 0
13 *3716:B *871:10 0
14 *3717:A2 *4397:A 0.00026546
15 *3717:B1 *4210:A 9.92409e-05
16 *3717:B1 *4397:A 7.77652e-05
17 *3735:D *4397:A 0.000155006
18 *3736:B *4397:A 7.27381e-05
19 *3736:C *4397:A 0.000104721
20 *3741:C *4397:A 0.00019781
21 *3745:A0 *871:10 8.00806e-05
22 *3905:D *871:10 9.77491e-05
23 *3911:D *4397:A 3.97677e-05
24 *582:10 *4397:A 3.14078e-05
25 *595:8 *4397:A 0.000224341
26 *595:63 *4397:A 0.000139111
*RES
1 *3891:Q *871:10 27.8357 
2 *871:10 *4397:A 35.0857 
3 *871:10 *4210:A 11.4964 
*END

*D_NET *872 0.0050344
*CONN
*I *4398:A I *D sky130_fd_sc_hd__clkdlybuf4s25_1
*I *3977:Q O *D sky130_fd_sc_hd__dfrtp_2
*CAP
1 *4398:A 0.000312079
2 *3977:Q 0.0016398
3 *872:16 0.00195188
4 *4398:A *4399:A 0.000172948
5 *872:16 *989:20 5.62995e-05
6 *872:16 *990:10 8.15843e-05
7 o_start_ack *4398:A 0
8 *3878:CLK *872:16 0.000274288
9 *3965:RESET_B *872:16 0.000112297
10 *3971:D *4398:A 0
11 *3978:RESET_B *872:16 2.27662e-05
12 *4380:A *4398:A 0
13 *4380:A *872:16 0.000230482
14 *106:18 *872:16 0.000126639
15 *649:10 *4398:A 0
16 *650:10 *872:16 4.30953e-05
17 *654:22 *4398:A 1.02504e-05
*RES
1 *3977:Q *872:16 45.9429 
2 *872:16 *4398:A 19.3179 
*END

*D_NET *873 0.00178438
*CONN
*I *3645:A1 I *D sky130_fd_sc_hd__mux2_1
*I *4372:X O *D sky130_fd_sc_hd__clkdlybuf4s25_1
*CAP
1 *3645:A1 0.000560048
2 *4372:X 0.000560048
3 *3645:A1 *3647:A1 0.000184645
4 *3645:A1 *909:63 0.000479637
5 *3870:CLK *3645:A1 0
6 *4372:A *3645:A1 0
7 *619:59 *3645:A1 0
*RES
1 *4372:X *3645:A1 40.725 
*END

*D_NET *874 0.00141486
*CONN
*I *4399:A I *D sky130_fd_sc_hd__clkdlybuf4s25_1
*I *3978:Q O *D sky130_fd_sc_hd__dfrtp_2
*CAP
1 *4399:A 0.000538535
2 *3978:Q 0.000538535
3 *3654:A1 *4399:A 0
4 *3877:D *4399:A 6.26466e-05
5 *3878:CLK *4399:A 0
6 *3878:D *4399:A 0.000102197
7 *4388:A *4399:A 0
8 *4398:A *4399:A 0.000172948
*RES
1 *3978:Q *4399:A 36.0286 
*END

*D_NET *875 0.0160422
*CONN
*I *3718:B I *D sky130_fd_sc_hd__or2_2
*I *3725:A2 I *D sky130_fd_sc_hd__o2111a_2
*I *4400:A I *D sky130_fd_sc_hd__clkdlybuf4s25_1
*I *3524:A3 I *D sky130_fd_sc_hd__a31o_2
*I *3972:Q O *D sky130_fd_sc_hd__dfrtp_2
*CAP
1 *3718:B 0.000180891
2 *3725:A2 8.5642e-05
3 *4400:A 0.00255689
4 *3524:A3 0.000805605
5 *3972:Q 2.20835e-05
6 *875:58 0.0011359
7 *875:31 0.00463179
8 *875:8 0.00203323
9 *3524:A3 *4314:A 3.69047e-06
10 *3524:A3 *1004:12 4.53889e-05
11 *3718:B *3725:A1 0.000154762
12 *3718:B *3725:C1 0
13 *3718:B *4254:A 0
14 *3718:B *999:8 2.89114e-05
15 *4400:A *3620:A2 0.00011617
16 *4400:A *908:49 0.000506058
17 *4400:A *908:59 0.000934361
18 *875:58 *3720:A 0
19 *875:58 *3754:S 0
20 *875:58 *4271:A 0
21 *875:58 *961:26 0.000165494
22 *3453:A2 *3524:A3 0.00010326
23 *3485:D *4400:A 0.000881963
24 *3721:C *875:58 0
25 *3949:D *3524:A3 8.37104e-05
26 *3972:CLK *3524:A3 0.000292708
27 *3972:D *3524:A3 9.97744e-05
28 *4063:D *875:58 0
29 *4063:RESET_B *875:58 0.000146953
30 *4356:A *4400:A 0
31 *109:14 *3524:A3 0
32 *114:10 *3524:A3 0
33 *427:67 *4400:A 0.00034657
34 *604:12 *875:31 0.000674457
35 *604:12 *875:58 5.98536e-06
36 *774:10 *875:58 0
*RES
1 *3972:Q *875:8 14.0768 
2 *875:8 *3524:A3 34.9696 
3 *875:8 *875:31 9.64157 
4 *875:31 *4400:A 31.4558 
5 *875:31 *875:58 16.366 
6 *875:58 *3725:A2 14.7464 
7 *875:58 *3718:B 17.8536 
*END

*D_NET *876 0.0145424
*CONN
*I *3766:A1 I *D sky130_fd_sc_hd__o21a_2
*I *3802:A1 I *D sky130_fd_sc_hd__o21a_2
*I *3803:A1 I *D sky130_fd_sc_hd__o21a_2
*I *3801:A1 I *D sky130_fd_sc_hd__o21a_2
*I *3800:A1 I *D sky130_fd_sc_hd__o21a_2
*I *3799:A1 I *D sky130_fd_sc_hd__o21a_2
*I *3798:A1 I *D sky130_fd_sc_hd__o21a_2
*I *3797:A1 I *D sky130_fd_sc_hd__o21a_2
*I *3796:A1 I *D sky130_fd_sc_hd__o21a_2
*I *3795:A1 I *D sky130_fd_sc_hd__o21a_2
*I *4137:X O *D sky130_fd_sc_hd__clkdlybuf4s25_1
*CAP
1 *3766:A1 0.000165094
2 *3802:A1 0.000250382
3 *3803:A1 6.456e-05
4 *3801:A1 4.47798e-05
5 *3800:A1 0.000324597
6 *3799:A1 0.000385719
7 *3798:A1 9.44459e-05
8 *3797:A1 6.30481e-05
9 *3796:A1 0
10 *3795:A1 2.12606e-05
11 *4137:X 0.000239344
12 *876:102 0.00010934
13 *876:100 0.000403809
14 *876:87 0.000874902
15 *876:70 0.00118771
16 *876:55 0.000671995
17 *876:30 0.000199042
18 *876:26 0.000542184
19 *876:20 0.00118336
20 *876:6 0.00111401
21 *3766:A1 *877:14 0
22 *3795:A1 *3795:A2 5.65955e-05
23 *3797:A1 *3667:A 4.1331e-06
24 *3797:A1 *3797:A2 0.000128146
25 *3799:A1 *890:79 0.000145621
26 *3799:A1 *890:92 1.00332e-05
27 *3799:A1 *1057:12 1.98839e-05
28 *3800:A1 *3800:A2 5.67622e-05
29 *3801:A1 *3803:A2 2.59355e-05
30 *3801:A1 *890:120 5.20669e-05
31 *3801:A1 *1059:10 6.58992e-05
32 *3802:A1 *3354:A 5.68913e-05
33 *3802:A1 *3802:A2 0.000331878
34 *3803:A1 *3803:A2 1.02936e-05
35 *3803:A1 *1059:10 0.000137983
36 *876:6 *3767:A2 8.86512e-05
37 *876:6 *891:49 0.000332901
38 *876:6 *1042:10 0.000203922
39 *876:20 *3365:D 4.72917e-05
40 *876:20 *3507:A 5.04589e-05
41 *876:20 *3767:A1 1.24368e-05
42 *876:20 *3767:A2 0.00011262
43 *876:20 *877:14 3.17067e-05
44 *876:20 *877:31 0.000105262
45 *876:20 *1042:25 0.000390994
46 *876:20 *1042:29 0.000168067
47 *876:26 *3507:B 9.35729e-05
48 *876:26 *3797:A2 0
49 *876:30 *3507:B 8.25843e-06
50 *876:30 *3795:A2 9.67094e-06
51 *876:70 *1057:12 0.000236736
52 *876:87 *3512:A2 0
53 *876:87 *3512:B1 4.25622e-05
54 *876:87 *890:79 0.000103981
55 *876:87 *890:92 0
56 *876:100 *3354:A 3.47641e-06
57 *876:100 *3512:B1 2.8266e-06
58 *876:100 *3802:A2 5.47029e-05
59 *876:100 *1059:10 9.42571e-05
60 *3387:B1 *876:20 0.000262504
61 *3388:A1 *3766:A1 0.000181803
62 *3510:B1 *876:70 0.000173797
63 *3510:B1 *876:87 0
64 *3510:C1 *876:26 4.58096e-05
65 *3510:C1 *876:55 0.000291745
66 *3510:C1 *876:70 7.13346e-05
67 *3795:B1 *876:30 1.65946e-05
68 *3796:B1 *876:30 8.40486e-05
69 *3799:B1 *3799:A1 0.000122531
70 *3802:B1 *3802:A1 0
71 *3803:B1 *3797:A1 0
72 *3803:B1 *876:26 0.000106403
73 *3803:B1 *876:55 0.000557552
74 *3803:B1 *876:70 0.000313458
75 *3918:CLK *876:20 0.000216304
76 *3918:D *876:6 6.05161e-06
77 *3918:D *876:20 2.89016e-05
78 *3991:D *3799:A1 0
79 *3995:CLK *3800:A1 4.71426e-05
80 *3995:D *3800:A1 3.67405e-05
81 *11:10 *3766:A1 0.000105859
82 *387:14 *3803:A1 5.83818e-05
83 *387:14 *876:87 0
84 *606:45 *3766:A1 0.00018372
85 *641:99 *3799:A1 0.00025884
86 *641:99 *876:87 3.12359e-05
87 *641:124 *3799:A1 0.000105546
88 *641:124 *876:87 0
89 *641:139 *876:100 0
*RES
1 *4137:X *876:6 16.8179 
2 *876:6 *876:20 29.5536 
3 *876:20 *876:26 9.25 
4 *876:26 *876:30 2.5 
5 *876:30 *3795:A1 9.83571 
6 *876:30 *3796:A1 9.3 
7 *876:26 *3797:A1 19.9429 
8 *876:20 *876:55 7.10714 
9 *876:55 *3798:A1 15.1571 
10 *876:55 *876:70 12.8036 
11 *876:70 *3799:A1 25.2821 
12 *876:70 *876:87 11.9107 
13 *876:87 *3800:A1 17.9429 
14 *876:87 *876:100 3.46429 
15 *876:100 *876:102 4.5 
16 *876:102 *3801:A1 10.6571 
17 *876:102 *3803:A1 11.5143 
18 *876:100 *3802:A1 19.3179 
19 *876:6 *3766:A1 22.6214 
*END

*D_NET *877 0.0103998
*CONN
*I *3850:A1 I *D sky130_fd_sc_hd__o21a_2
*I *3765:A1 I *D sky130_fd_sc_hd__o21a_2
*I *3770:A1 I *D sky130_fd_sc_hd__o21a_2
*I *3769:A1 I *D sky130_fd_sc_hd__o21a_2
*I *4137:A I *D sky130_fd_sc_hd__clkdlybuf4s25_1
*I *3767:A1 I *D sky130_fd_sc_hd__o21a_2
*I *4138:X O *D sky130_fd_sc_hd__clkdlybuf4s25_1
*CAP
1 *3850:A1 0.000223968
2 *3765:A1 0
3 *3770:A1 0.000407173
4 *3769:A1 0
5 *4137:A 0.000282262
6 *3767:A1 3.14554e-05
7 *4138:X 0
8 *877:48 0.00115888
9 *877:31 0.00187135
10 *877:14 0.00142777
11 *877:8 0.000708887
12 *877:4 0.00037392
13 *3767:A1 *3365:D 9.71197e-05
14 *3767:A1 *3767:A2 1.74352e-05
15 *3770:A1 *3768:A1 0.00010009
16 *3770:A1 *3768:A2 1.02936e-05
17 *3770:A1 *3769:A2 5.52238e-05
18 *3770:A1 *3770:A2 0.000230475
19 *3850:A1 *3765:A2 4.18895e-05
20 *3850:A1 *3850:A2 9.01334e-05
21 *3850:A1 *4151:A 0
22 *3850:A1 *4175:A 1.02504e-05
23 *3850:A1 *891:10 1.52978e-05
24 *4137:A *3363:A1 6.74911e-05
25 *4137:A *891:49 0
26 *4137:A *891:62 0
27 *877:8 *3765:A2 0.000273269
28 *877:14 *4281:A 6.97972e-05
29 *877:14 *1041:10 0
30 *877:14 *1041:21 0
31 *877:31 *3363:A1 5.03772e-05
32 *877:31 *3365:B 0.000166503
33 *877:31 *3383:A1 5.83304e-05
34 *877:31 *890:27 0.000181106
35 *877:48 *3363:A1 2.49484e-05
36 *877:48 *3768:A1 2.14658e-05
37 *877:48 *3768:A2 2.89016e-05
38 *877:48 *891:62 0
39 *3372:A2 *877:48 0.000125717
40 *3387:B1 *877:31 0
41 *3765:B1 *3850:A1 4.43256e-05
42 *3766:A1 *877:14 0
43 *3767:B1 *877:14 0.000128154
44 *3770:B1 *3770:A1 0.000402784
45 *3771:B1 *3770:A1 2.24646e-05
46 *3917:D *877:14 0.000100823
47 *3917:RESET_B *877:8 5.71472e-05
48 *3917:RESET_B *877:14 0
49 *3918:CLK *877:31 4.038e-06
50 *3919:CLK *877:31 0.00025664
51 *3919:D *877:31 3.18676e-05
52 *3919:RESET_B *877:31 2.96981e-05
53 *3921:RESET_B *3770:A1 3.5707e-05
54 *3997:RESET_B *877:48 0
55 *11:10 *3850:A1 3.99825e-06
56 *11:10 *877:14 0
57 *394:27 *877:48 4.66511e-05
58 *396:14 *877:48 0
59 *396:32 *877:31 0.000126439
60 *396:96 *877:48 0.000151583
61 *644:55 *4137:A 0
62 *644:55 *877:48 0
63 *644:66 *877:48 0
64 *644:77 *877:48 0
65 *644:83 *877:48 6.09572e-05
66 *644:103 *3770:A1 0.000507757
67 *644:103 *877:48 1.76039e-05
68 *785:10 *877:14 0
69 *876:20 *3767:A1 1.24368e-05
70 *876:20 *877:14 3.17067e-05
71 *876:20 *877:31 0.000105262
*RES
1 *4138:X *877:4 9.3 
2 *877:4 *877:8 3.42857 
3 *877:8 *877:14 15.2857 
4 *877:14 *3767:A1 14.7464 
5 *877:14 *877:31 26.9464 
6 *877:31 *4137:A 19.0143 
7 *877:31 *877:48 20.0357 
8 *877:48 *3769:A1 9.3 
9 *877:48 *3770:A1 30.3 
10 *877:8 *3765:A1 9.3 
11 *877:4 *3850:A1 22.8179 
*END

*D_NET *878 0.016685
*CONN
*I *3793:A1 I *D sky130_fd_sc_hd__o21a_2
*I *3791:A1 I *D sky130_fd_sc_hd__o21a_2
*I *3790:A1 I *D sky130_fd_sc_hd__o21a_2
*I *3786:A1 I *D sky130_fd_sc_hd__o21a_2
*I *3849:A1 I *D sky130_fd_sc_hd__o21a_2
*I *3846:A1 I *D sky130_fd_sc_hd__o21a_2
*I *3764:A1 I *D sky130_fd_sc_hd__o21a_2
*I *3789:A1 I *D sky130_fd_sc_hd__o21a_2
*I *3848:A1 I *D sky130_fd_sc_hd__o21a_2
*I *3792:A1 I *D sky130_fd_sc_hd__o21a_2
*I *4139:X O *D sky130_fd_sc_hd__clkdlybuf4s25_1
*CAP
1 *3793:A1 9.14185e-05
2 *3791:A1 0.000147866
3 *3790:A1 1.85698e-05
4 *3786:A1 0.000364999
5 *3849:A1 0.000479929
6 *3846:A1 0.000126195
7 *3764:A1 2.23854e-05
8 *3789:A1 0.000309906
9 *3848:A1 0
10 *3792:A1 0.000533712
11 *4139:X 0.000318274
12 *878:92 0.00102928
13 *878:64 0.000359847
14 *878:62 0.000604655
15 *878:53 0.000334019
16 *878:47 0.000660795
17 *878:43 0.000330717
18 *878:33 0.00058294
19 *878:16 0.00125958
20 *878:6 0.000896915
21 *3786:A1 *3786:A2 0.000205209
22 *3789:A1 *3789:A2 0.00045993
23 *3789:A1 *4138:A 0.000318107
24 *3791:A1 *3791:A2 7.13681e-05
25 *3792:A1 *3440:A1 0
26 *3792:A1 *3792:A2 0.000329029
27 *3793:A1 *3793:A2 0.000322446
28 *3793:A1 *894:83 0.00017378
29 *3846:A1 *3324:A 0.000272672
30 *3849:A1 *3846:A2 6.74911e-05
31 *878:6 *4139:A 1.21258e-05
32 *878:16 *1035:12 0.000130583
33 *878:33 *1035:12 0
34 *878:43 *892:52 4.08637e-05
35 *878:47 *892:52 0.00052642
36 *878:53 *3440:A1 9.60939e-05
37 *878:53 *892:58 0.000227258
38 *878:62 *4138:A 0.000354098
39 *878:62 *892:58 2.12087e-05
40 *878:62 *892:62 2.24079e-05
41 *878:64 *4138:A 0.00014285
42 *878:92 *3324:A 6.73939e-05
43 *878:92 *3434:A 0
44 *3390:A1 *3846:A1 1.97381e-05
45 *3390:A1 *3849:A1 4.13496e-05
46 *3390:A1 *878:92 6.2589e-06
47 *3390:A2 *878:92 0
48 *3390:B1 *3849:A1 0.000313235
49 *3390:B1 *878:92 0.000103983
50 *3398:A *3846:A1 0
51 *3438:B1 *3786:A1 4.66203e-05
52 *3440:B1 *3792:A1 0.000169227
53 *3440:B1 *878:16 0.00019508
54 *3528:B1 *3786:A1 4.78056e-05
55 *3786:B1 *3786:A1 1.82029e-05
56 *3790:B1 *3790:A1 3.99614e-06
57 *3790:B1 *878:33 6.11902e-05
58 *3790:B1 *878:43 9.64407e-05
59 *3791:B1 *878:33 7.79781e-06
60 *3916:D *3849:A1 8.27184e-06
61 *3916:RESET_B *878:92 0.000292207
62 *3938:D *3786:A1 0.000414748
63 *3938:SET_B *3786:A1 3.56976e-05
64 *3942:SET_B *878:33 6.64457e-05
65 *3942:SET_B *878:43 5.33005e-05
66 *3943:RESET_B *3791:A1 5.52238e-05
67 *3943:RESET_B *878:33 0.00018471
68 *4038:D *878:53 1.54142e-05
69 *4038:SET_B *3846:A1 0
70 *4040:D *878:92 0
71 *360:33 *3786:A1 0.000165262
72 *360:33 *878:53 0.000145602
73 *367:20 *3786:A1 9.71197e-05
74 *603:55 *878:16 0
75 *603:105 *3791:A1 7.65689e-05
76 *603:105 *878:43 6.32597e-05
77 *603:105 *878:47 0.000273588
78 *606:35 *3789:A1 6.8646e-06
79 *627:40 *878:33 0.000148903
80 *643:67 *3849:A1 4.79842e-05
81 *643:76 *3849:A1 4.1331e-06
82 *643:98 *3789:A1 0.000178459
83 *643:98 *878:64 7.03295e-05
84 *643:107 *878:62 0.000167997
85 *643:107 *878:64 6.05161e-06
86 *644:10 *3789:A1 0
87 *644:14 *3789:A1 9.90367e-05
88 *644:27 *3789:A1 7.27536e-05
89 *645:78 *878:53 0.000306317
90 *645:101 *3786:A1 3.00516e-05
91 *678:12 *878:6 7.02611e-05
92 *678:12 *878:16 6.42095e-05
93 *723:10 *878:92 0
94 *763:10 *3786:A1 0
95 *763:10 *878:53 0
*RES
1 *4139:X *878:6 13.1214 
2 *878:6 *878:16 16.2321 
3 *878:16 *3792:A1 16.8536 
4 *878:16 *878:33 15.1964 
5 *878:33 *878:43 4.10714 
6 *878:43 *878:47 9.55357 
7 *878:47 *878:53 9.85714 
8 *878:53 *3848:A1 9.3 
9 *878:53 *878:62 4.66071 
10 *878:62 *878:64 1.35714 
11 *878:64 *3789:A1 28.2821 
12 *878:64 *3764:A1 9.72857 
13 *878:62 *878:92 14.0357 
14 *878:92 *3846:A1 17.2643 
15 *878:92 *3849:A1 29.9071 
16 *878:47 *3786:A1 25.0143 
17 *878:43 *3790:A1 9.72857 
18 *878:33 *3791:A1 12.3179 
19 *878:6 *3793:A1 22.3714 
*END

*D_NET *879 0.0151921
*CONN
*I *3804:A1 I *D sky130_fd_sc_hd__o21a_2
*I *3772:A1 I *D sky130_fd_sc_hd__o21a_2
*I *3771:A1 I *D sky130_fd_sc_hd__o21a_2
*I *3768:A1 I *D sky130_fd_sc_hd__o21a_2
*I *3773:A1 I *D sky130_fd_sc_hd__o21a_2
*I *3794:A1 I *D sky130_fd_sc_hd__o21a_2
*I *3805:A1 I *D sky130_fd_sc_hd__o21a_2
*I *3774:A1 I *D sky130_fd_sc_hd__o21a_2
*I *3788:A1 I *D sky130_fd_sc_hd__o21a_2
*I *4140:X O *D sky130_fd_sc_hd__clkdlybuf4s25_1
*CAP
1 *3804:A1 0
2 *3772:A1 3.50995e-05
3 *3771:A1 0.000414572
4 *3768:A1 0.00107951
5 *3773:A1 0
6 *3794:A1 0
7 *3805:A1 0.000203314
8 *3774:A1 6.93354e-05
9 *3788:A1 0.000175334
10 *4140:X 0.000376664
11 *879:83 0.00157511
12 *879:74 0.000427646
13 *879:68 0.000566376
14 *879:59 0.000234966
15 *879:37 0.00137315
16 *879:29 0.00142878
17 *879:25 0.000625358
18 *879:8 0.000899389
19 *3768:A1 *3370:A 3.97677e-05
20 *3768:A1 *3768:A2 2.31802e-05
21 *3768:A1 *3769:A2 7.22263e-05
22 *3768:A1 *3770:A2 9.71197e-05
23 *3768:A1 *1047:14 0.000320024
24 *3768:A1 *1047:20 5.52302e-05
25 *3768:A1 *1048:69 0.000157867
26 *3771:A1 *3771:A2 0.000833543
27 *3774:A1 *3774:A2 0.000127446
28 *3788:A1 *3788:A2 0.000373034
29 *3805:A1 *3774:A2 0.000192577
30 *3805:A1 *3805:A2 1.92789e-05
31 *3805:A1 *893:31 1.58163e-05
32 *879:8 *4140:A 3.32631e-05
33 *879:25 *3788:A2 0.000389854
34 *879:25 *893:25 0.000409356
35 *879:29 *893:27 0.00031011
36 *879:29 *893:31 1.39841e-05
37 *879:37 *893:55 5.83233e-05
38 *879:37 *1051:20 0
39 *879:59 *4291:A 3.51442e-05
40 *879:59 *893:55 0.000177948
41 *879:59 *1052:8 0.000104974
42 *879:68 *4291:A 0.000187733
43 *879:68 *893:55 5.58941e-05
44 *879:68 *893:74 0.000285894
45 *879:74 *3771:A2 0
46 *879:74 *893:80 0
47 *879:83 *3768:A2 1.39726e-05
48 *3363:A3 *3774:A1 4.1331e-06
49 *3373:A3 *3768:A1 0.000112534
50 *3768:B1 *3768:A1 2.44318e-05
51 *3770:A1 *3768:A1 0.00010009
52 *3773:B1 *3768:A1 2.28598e-05
53 *3788:B1 *3788:A1 0
54 *3804:B1 *879:25 8.57023e-05
55 *3804:B1 *879:29 0.00014183
56 *3923:RESET_B *3771:A1 0
57 *3925:RESET_B *3771:A1 0.000142023
58 *3939:CLK *879:8 1.07719e-05
59 *3939:CLK *879:25 7.73184e-05
60 *3939:D *3788:A1 3.92854e-05
61 *3939:D *879:25 2.82057e-05
62 *3939:RESET_B *879:8 3.06878e-06
63 *3940:RESET_B *3788:A1 0
64 *3940:RESET_B *879:25 0
65 *3986:RESET_B *879:37 0
66 *3986:RESET_B *879:59 0
67 *3996:D *879:29 8.07313e-05
68 *4253:A *879:37 0.000114838
69 *394:27 *3768:A1 5.56825e-05
70 *394:85 *3768:A1 4.69993e-05
71 *626:21 *3774:A1 0
72 *626:21 *3805:A1 0
73 *628:42 *879:25 0.00019196
74 *644:66 *3805:A1 0
75 *644:77 *3805:A1 0
76 *877:48 *3768:A1 2.14658e-05
*RES
1 *4140:X *879:8 18.0321 
2 *879:8 *3788:A1 18.4071 
3 *879:8 *879:25 16.1964 
4 *879:25 *879:29 11.6071 
5 *879:29 *879:37 23.2679 
6 *879:37 *3774:A1 15.4429 
7 *879:37 *3805:A1 18.2107 
8 *879:29 *879:59 2.25 
9 *879:59 *3794:A1 13.8 
10 *879:59 *879:68 4.98214 
11 *879:68 *879:74 10.3571 
12 *879:74 *3773:A1 9.3 
13 *879:74 *879:83 1.375 
14 *879:83 *3768:A1 25.3357 
15 *879:83 *3771:A1 30.0143 
16 *879:68 *3772:A1 14.3357 
17 *879:25 *3804:A1 9.3 
*END

*D_NET *880 0.0204458
*CONN
*I *4140:A I *D sky130_fd_sc_hd__clkdlybuf4s25_1
*I *4139:A I *D sky130_fd_sc_hd__clkdlybuf4s25_1
*I *3784:A1 I *D sky130_fd_sc_hd__o21a_2
*I *4138:A I *D sky130_fd_sc_hd__clkdlybuf4s25_1
*I *3782:A1 I *D sky130_fd_sc_hd__o21a_2
*I *3824:A1 I *D sky130_fd_sc_hd__o21a_2
*I *3806:A1 I *D sky130_fd_sc_hd__o21a_2
*I *3775:A1 I *D sky130_fd_sc_hd__o21a_2
*I *4141:X O *D sky130_fd_sc_hd__clkdlybuf4s25_1
*CAP
1 *4140:A 0.00070057
2 *4139:A 5.41055e-05
3 *3784:A1 0
4 *4138:A 0.00138788
5 *3782:A1 2.03441e-05
6 *3824:A1 1.69531e-05
7 *3806:A1 0.000180472
8 *3775:A1 0
9 *4141:X 0.000552676
10 *880:102 0.0012677
11 *880:91 0.00101308
12 *880:61 0.00149939
13 *880:59 0.000906211
14 *880:38 0.000873281
15 *880:21 0.000823256
16 *880:12 0.000654132
17 *3782:A1 *911:62 5.7661e-06
18 *4138:A *3434:A 0.000352989
19 *4138:A *889:34 0.000318316
20 *4138:A *911:62 3.06878e-06
21 *4140:A *3777:A1 0
22 *4140:A *3777:A2 0
23 *4140:A *4153:A 0.000528813
24 *4140:A *894:83 8.42909e-05
25 *880:12 *3329:A 8.25512e-05
26 *880:12 *894:12 0.00011292
27 *880:38 *3470:A2 4.98968e-05
28 *880:59 *4192:A 0.000368894
29 *880:59 *894:72 3.57844e-05
30 *880:59 *911:62 0.000370533
31 *880:61 *894:72 0.000310292
32 *880:61 *911:62 1.82657e-05
33 *880:91 *4261:A 0.000122101
34 *880:91 *894:72 0.000312848
35 *880:102 *894:83 0.000336059
36 *3363:A2 *4138:A 0.000208324
37 *3389:B1 *4138:A 0.000127079
38 *3430:B1 *880:38 0
39 *3430:B2 *880:38 0
40 *3469:A1 *880:12 5.1062e-05
41 *3469:A1 *880:38 0
42 *3686:B1 *880:12 0
43 *3765:B1 *4138:A 9.76946e-05
44 *3775:B1 *3806:A1 0.000218685
45 *3775:B1 *880:21 0.000335636
46 *3782:B1 *880:59 0.000114111
47 *3784:B1 *880:91 7.32955e-05
48 *3784:B1 *880:102 0.000357952
49 *3789:A1 *4138:A 0.000318107
50 *3790:B1 *4138:A 2.06112e-05
51 *3793:B1 *880:102 6.9253e-05
52 *3824:B1 *3824:A1 5.33005e-05
53 *3883:SET_B *3824:A1 5.33005e-05
54 *3934:CLK *880:59 9.76689e-05
55 *3958:D *880:38 0.00012401
56 *3998:RESET_B *3806:A1 0.000135028
57 *3998:RESET_B *880:21 0.000271352
58 *4016:D *880:59 1.37292e-05
59 *4019:D *880:12 9.60875e-05
60 *4093:A *3806:A1 3.03071e-05
61 *4122:A *880:38 0.00012401
62 *4122:A *880:59 0.000188734
63 *4195:A *4140:A 0
64 *4236:A *880:61 0.000269428
65 *4236:A *880:91 0.000299785
66 *4241:A *880:12 6.42338e-05
67 *354:20 *4138:A 0.00113937
68 *362:25 *880:12 9.25014e-06
69 *621:91 *3806:A1 7.34187e-06
70 *621:97 *880:38 0.000148605
71 *636:109 *3806:A1 9.66977e-05
72 *643:98 *4138:A 9.58624e-05
73 *646:43 *880:38 0.000538197
74 *658:68 *880:102 0.000114121
75 *678:12 *4139:A 5.33005e-05
76 *678:12 *880:102 0.000125724
77 *763:10 *880:91 0.000398815
78 *878:6 *4139:A 1.21258e-05
79 *878:62 *4138:A 0.000354098
80 *878:64 *4138:A 0.00014285
81 *879:8 *4140:A 3.32631e-05
*RES
1 *4141:X *880:12 26.4071 
2 *880:12 *3775:A1 9.3 
3 *880:12 *880:21 3.83929 
4 *880:21 *3806:A1 13.1393 
5 *880:21 *880:38 17.2321 
6 *880:38 *3824:A1 14.3357 
7 *880:38 *880:59 23.4107 
8 *880:59 *880:61 3.41071 
9 *880:61 *3782:A1 9.72857 
10 *880:61 *4138:A 47.1393 
11 *880:59 *880:91 12.4643 
12 *880:91 *3784:A1 9.3 
13 *880:91 *880:102 17.75 
14 *880:102 *4139:A 14.7464 
15 *880:102 *4140:A 29.4429 
*END

*D_NET *881 0.0218171
*CONN
*I *3626:A1 I *D sky130_fd_sc_hd__o21a_2
*I *3819:A1 I *D sky130_fd_sc_hd__o21a_2
*I *3820:A1 I *D sky130_fd_sc_hd__o21a_2
*I *3814:A1 I *D sky130_fd_sc_hd__o21a_2
*I *3815:A1 I *D sky130_fd_sc_hd__o21a_2
*I *3816:A1 I *D sky130_fd_sc_hd__o21a_2
*I *3822:A1 I *D sky130_fd_sc_hd__o21a_2
*I *3818:A1 I *D sky130_fd_sc_hd__o21a_2
*I *3821:A1 I *D sky130_fd_sc_hd__o21a_2
*I *3817:A1 I *D sky130_fd_sc_hd__o21a_2
*I *4142:X O *D sky130_fd_sc_hd__clkdlybuf4s25_1
*CAP
1 *3626:A1 0.00102491
2 *3819:A1 0
3 *3820:A1 0.000455685
4 *3814:A1 0
5 *3815:A1 0.00019228
6 *3816:A1 2.13113e-05
7 *3822:A1 0.000366034
8 *3818:A1 1.78406e-05
9 *3821:A1 8.18498e-05
10 *3817:A1 0.000254082
11 *4142:X 7.03212e-05
12 *881:107 0.000649654
13 *881:103 0.00206093
14 *881:90 0.00109414
15 *881:65 0.000646725
16 *881:31 9.96904e-05
17 *881:29 0.000474767
18 *881:23 0.00064132
19 *881:10 0.000941228
20 *881:8 0.000448543
21 *3626:A1 *3543:C1 0.000240221
22 *3626:A1 *3626:A2 0
23 *3626:A1 *3808:A1 1.21955e-05
24 *3626:A1 *3809:A1 0
25 *3626:A1 *882:90 0
26 *3626:A1 *897:60 0
27 *3626:A1 *904:8 0.000100831
28 *3626:A1 *1079:10 2.50463e-05
29 *3626:A1 *1079:16 7.80714e-06
30 *3815:A1 *3815:A2 0.000136958
31 *3815:A1 *896:110 4.18895e-05
32 *3815:A1 *1085:19 8.08022e-05
33 *3817:A1 *910:20 0.000323563
34 *3818:A1 *3818:A2 6.05161e-06
35 *3818:A1 *896:45 1.98839e-05
36 *3820:A1 *3820:A2 3.69047e-06
37 *3820:A1 *4326:A 1.00375e-05
38 *3820:A1 *904:57 6.6667e-05
39 *3820:A1 *904:63 1.08359e-05
40 *3820:A1 *1074:14 0
41 *3821:A1 *896:45 1.98839e-05
42 *3822:A1 *3820:A2 0
43 *3822:A1 *896:45 0
44 *3822:A1 *896:56 0
45 *881:8 *4142:A 9.71197e-05
46 *881:10 *910:20 0.000250386
47 *881:23 *3554:A1 5.50052e-05
48 *881:23 *4184:A 2.38501e-05
49 *881:23 *896:31 8.10737e-06
50 *881:23 *896:39 1.12713e-05
51 *881:23 *1118:14 4.51234e-05
52 *881:29 *896:39 0.000116612
53 *881:65 *896:110 0.000368104
54 *881:65 *910:20 0.00011061
55 *881:90 *896:110 9.25014e-06
56 *881:90 *896:123 0.000260731
57 *881:90 *910:20 0.00061275
58 *881:103 *896:133 0.00113048
59 *3348:A *881:103 7.43578e-06
60 *3490:C *3626:A1 0.00033763
61 *3494:B *3626:A1 2.59093e-05
62 *3494:C *3626:A1 9.86141e-05
63 *3535:A1 *3626:A1 0.000128161
64 *3548:B1 *3626:A1 0.000247791
65 *3548:B1 *881:103 7.03393e-05
66 *3549:B1 *881:103 5.71472e-05
67 *3554:A2 *3822:A1 0
68 *3554:A2 *881:23 2.34113e-05
69 *3554:B1 *881:23 0.000269747
70 *3555:A2 *3815:A1 1.98839e-05
71 *3557:B *881:65 0.000128161
72 *3564:A *3820:A1 0
73 *3567:A1 *3820:A1 0.000182659
74 *3567:A1 *881:103 1.39726e-05
75 *3634:C_N *3817:A1 4.46186e-06
76 *3808:B1 *3626:A1 0
77 *3809:B1 *3626:A1 0.000230482
78 *3816:B1 *3822:A1 9.19611e-06
79 *3816:B1 *881:23 9.58689e-05
80 *3816:B1 *881:29 1.50223e-05
81 *4006:RESET_B *881:103 5.71472e-05
82 *4007:RESET_B *881:90 0.000152333
83 *4008:RESET_B *881:23 5.50052e-05
84 *4011:RESET_B *3820:A1 0.000177234
85 *4012:RESET_B *3820:A1 0.00035086
86 *4048:D *3817:A1 0.000175974
87 *4084:A *3626:A1 0.000394719
88 *4084:A *3820:A1 2.14658e-05
89 *4084:A *881:103 0.000171375
90 *4148:A *881:23 0.000389728
91 *272:20 *3821:A1 0.00048708
92 *272:20 *881:23 9.58632e-05
93 *272:20 *881:29 0.000193995
94 *457:12 *3626:A1 0.000216771
95 *457:12 *881:103 0.000173083
96 *493:18 *3822:A1 0
97 *501:12 *3820:A1 0.000175519
98 *613:103 *3822:A1 0.00014285
99 *655:18 *3818:A1 5.50052e-05
100 *655:18 *3821:A1 0.000473851
101 *655:20 *3821:A1 5.66971e-05
102 *655:84 *3817:A1 7.48356e-05
103 *656:47 *3817:A1 0.000385465
104 *656:54 *3817:A1 0.00026876
105 *656:54 *881:10 0.000137695
106 *656:69 *881:10 0.000225981
107 *656:69 *881:65 0.000231832
108 *656:69 *881:90 6.37408e-06
109 *657:23 *3815:A1 8.25098e-05
110 *657:53 *3820:A1 0.000144773
111 *657:53 *881:107 0.000474126
112 *657:59 *3820:A1 5.52302e-05
*RES
1 *4142:X *881:8 14.7464 
2 *881:8 *881:10 6.19643 
3 *881:10 *3817:A1 23.9429 
4 *881:10 *881:23 14.8929 
5 *881:23 *881:29 7.39286 
6 *881:29 *881:31 4.5 
7 *881:31 *3821:A1 14.3536 
8 *881:31 *3818:A1 9.83571 
9 *881:29 *3822:A1 20.4786 
10 *881:23 *3816:A1 9.72857 
11 *881:8 *881:65 7.41071 
12 *881:65 *3815:A1 26.0143 
13 *881:65 *881:90 13.7143 
14 *881:90 *3814:A1 9.3 
15 *881:90 *881:103 22.8036 
16 *881:103 *881:107 9.14286 
17 *881:107 *3820:A1 31.5143 
18 *881:107 *3819:A1 9.3 
19 *881:103 *3626:A1 40.3893 
*END

*D_NET *882 0.0136176
*CONN
*I *3808:A1 I *D sky130_fd_sc_hd__o21a_2
*I *3809:A1 I *D sky130_fd_sc_hd__o21a_2
*I *3807:A1 I *D sky130_fd_sc_hd__o21a_2
*I *3810:A1 I *D sky130_fd_sc_hd__o21a_2
*I *3762:A1 I *D sky130_fd_sc_hd__o21a_2
*I *3811:A1 I *D sky130_fd_sc_hd__o21a_2
*I *3812:A1 I *D sky130_fd_sc_hd__o21a_2
*I *3813:A1 I *D sky130_fd_sc_hd__o21a_2
*I *4143:X O *D sky130_fd_sc_hd__clkdlybuf4s25_1
*CAP
1 *3808:A1 7.70421e-05
2 *3809:A1 0.000307479
3 *3807:A1 0.000809125
4 *3810:A1 0.000227626
5 *3762:A1 2.23854e-05
6 *3811:A1 0
7 *3812:A1 0
8 *3813:A1 0.000158386
9 *4143:X 5.05799e-05
10 *882:90 0.000455181
11 *882:58 0.00148974
12 *882:52 0.00152475
13 *882:41 0.00148566
14 *882:28 0.00058548
15 *882:19 0.000168073
16 *882:8 0.000253741
17 *3807:A1 *902:48 0.000698722
18 *3807:A1 *902:50 0
19 *3807:A1 *902:66 0
20 *3807:A1 *1071:21 0
21 *3809:A1 *3532:A 9.90367e-05
22 *3809:A1 *3809:A2 0.00019314
23 *3810:A1 *3490:D_N 0.000164959
24 *3810:A1 *904:44 0.000516762
25 *3810:A1 *1078:14 4.61329e-05
26 *3810:A1 *1078:16 4.37327e-05
27 *3813:A1 *3813:A2 0.000254337
28 *3813:A1 *897:17 0.00039642
29 *3813:A1 *910:20 0.000257998
30 *3813:A1 *910:22 0.00020495
31 *882:19 *897:17 0.000119618
32 *882:19 *897:26 3.51442e-05
33 *882:19 *910:22 8.15939e-05
34 *882:28 *897:26 0.000330546
35 *882:28 *897:39 6.0038e-05
36 *882:28 *910:22 0.000206028
37 *882:41 *3762:A2 5.41494e-05
38 *882:41 *897:39 0.00048225
39 *882:41 *902:96 2.6949e-05
40 *882:41 *910:22 0.000223667
41 *882:52 *3344:A 9.47613e-05
42 *882:52 *3486:B 0.00018372
43 *882:58 *3344:A 7.43578e-06
44 *882:58 *4292:A 8.14438e-05
45 *882:58 *904:44 7.6644e-05
46 *882:58 *1078:10 0.000148851
47 *882:58 *1078:12 6.42242e-05
48 *882:58 *1078:14 5.97719e-05
49 *882:58 *1087:10 0.00012544
50 *882:90 *3809:A2 2.09897e-05
51 *882:90 *897:60 0.000101545
52 *3626:A1 *3808:A1 1.21955e-05
53 *3626:A1 *3809:A1 0
54 *3626:A1 *882:90 0
55 *3807:B1 *3807:A1 2.89114e-05
56 *3809:B1 *3809:A1 0.000315158
57 *4001:RESET_B *882:58 3.34295e-05
58 *4002:D *3807:A1 0
59 *4015:D *3807:A1 0.000125724
60 *142:12 *3807:A1 2.59355e-05
61 *479:10 *3810:A1 0
62 *479:21 *3807:A1 0
*RES
1 *4143:X *882:8 14.3357 
2 *882:8 *3813:A1 21.8179 
3 *882:8 *882:19 1.94643 
4 *882:19 *3812:A1 13.8 
5 *882:19 *882:28 4.98214 
6 *882:28 *3811:A1 13.8 
7 *882:28 *882:41 15.6607 
8 *882:41 *3762:A1 9.72857 
9 *882:41 *882:52 12.0536 
10 *882:52 *882:58 13.5893 
11 *882:58 *3810:A1 20.6036 
12 *882:58 *3807:A1 34.2286 
13 *882:52 *882:90 5.99107 
14 *882:90 *3809:A1 21.0411 
15 *882:90 *3808:A1 15.0232 
*END

*D_NET *883 0.0130643
*CONN
*I *3826:A1 I *D sky130_fd_sc_hd__o21a_2
*I *3780:A1 I *D sky130_fd_sc_hd__o21a_2
*I *3785:A1 I *D sky130_fd_sc_hd__o21a_2
*I *3781:A1 I *D sky130_fd_sc_hd__o21a_2
*I *3779:A1 I *D sky130_fd_sc_hd__o21a_2
*I *3783:A1 I *D sky130_fd_sc_hd__o21a_2
*I *3827:A1 I *D sky130_fd_sc_hd__o21a_2
*I *3825:A1 I *D sky130_fd_sc_hd__o21a_2
*I *3828:A1 I *D sky130_fd_sc_hd__o21a_2
*I *3823:A1 I *D sky130_fd_sc_hd__o21a_2
*I *4144:X O *D sky130_fd_sc_hd__clkdlybuf4s25_1
*CAP
1 *3826:A1 0
2 *3780:A1 0.000193717
3 *3785:A1 0.000172255
4 *3781:A1 0
5 *3779:A1 0.000481133
6 *3783:A1 6.30299e-05
7 *3827:A1 0.000128398
8 *3825:A1 0.000129356
9 *3828:A1 0
10 *3823:A1 9.81967e-05
11 *4144:X 5.05799e-05
12 *883:122 0.000461309
13 *883:103 0.000612097
14 *883:94 0.000302525
15 *883:58 0.000787363
16 *883:38 0.000407994
17 *883:36 0.00138565
18 *883:32 0.00156903
19 *883:10 0.000241254
20 *883:8 0.000640182
21 *3779:A1 *3779:A2 0.00033261
22 *3779:A1 *898:46 6.2294e-05
23 *3779:A1 *911:24 0
24 *3779:A1 *911:30 0
25 *3780:A1 *3780:A2 0.000491151
26 *3780:A1 *898:102 7.83659e-05
27 *3783:A1 *3431:B 2.44318e-05
28 *3785:A1 *3785:A2 2.14757e-05
29 *3823:A1 *3823:A2 9.24395e-05
30 *3825:A1 *3825:A2 0.000169804
31 *3825:A1 *898:18 5.66157e-05
32 *3827:A1 *3827:A2 0.00028769
33 *883:10 *3823:A2 2.58997e-05
34 *883:10 *898:126 0.000120636
35 *883:10 *902:66 0
36 *883:32 *898:126 9.21335e-05
37 *883:32 *902:50 0
38 *883:32 *902:66 0
39 *883:36 *4315:A 0.000199924
40 *883:38 *898:18 0.00021192
41 *883:38 *898:46 0.000103267
42 *883:58 *898:46 0.000600525
43 *883:94 *898:78 0.000250208
44 *883:103 *4215:A 0
45 *883:103 *898:91 0
46 *883:103 *898:102 0
47 *883:122 *3826:A2 1.98839e-05
48 *883:122 *4212:A 3.92854e-05
49 *883:122 *4215:A 0
50 *883:122 *898:102 0
51 *3427:A1 *883:36 2.07937e-05
52 *3431:A *3783:A1 1.97695e-05
53 *3520:A *883:58 0.000116545
54 *3522:A *883:38 6.74911e-05
55 *3783:B1 *3779:A1 0.00035748
56 *3783:B1 *3783:A1 5.52302e-05
57 *3784:B1 *3779:A1 1.3701e-05
58 *3785:B1 *3780:A1 1.19402e-05
59 *3785:B1 *3785:A1 0.00014285
60 *3933:RESET_B *883:103 0
61 *3937:CLK *883:122 3.83189e-05
62 *3937:RESET_B *3785:A1 3.18676e-05
63 *3937:RESET_B *883:122 0.000136395
64 *3975:CLK *3779:A1 6.42705e-05
65 *3975:D *3779:A1 6.05161e-06
66 *3975:D *3825:A1 0
67 *3980:CLK *883:36 2.89016e-05
68 *3980:D *883:36 6.05161e-06
69 *3999:D *3823:A1 0
70 *3999:RESET_B *3823:A1 0
71 *3999:RESET_B *883:10 0
72 *4018:D *3780:A1 0.000202128
73 *4020:CLK *883:38 0
74 *4020:D *3827:A1 9.60875e-05
75 *4216:A *883:103 0
76 *4233:A *3779:A1 0.000128154
77 *111:10 *3825:A1 0
78 *360:12 *3779:A1 5.52014e-05
79 *423:38 *3780:A1 1.37292e-05
80 *611:10 *883:58 0
81 *611:12 *883:58 0
82 *611:14 *883:38 0
83 *611:14 *883:58 0
84 *651:75 *3827:A1 0.00030926
85 *658:10 *3780:A1 8.77116e-05
86 *658:36 *3780:A1 4.97555e-05
*RES
1 *4144:X *883:8 14.3357 
2 *883:8 *883:10 3.46429 
3 *883:10 *3823:A1 16.05 
4 *883:10 *3828:A1 13.8 
5 *883:8 *883:32 10.9643 
6 *883:32 *883:36 16.5357 
7 *883:36 *883:38 4.07143 
8 *883:38 *3825:A1 16.6571 
9 *883:38 *3827:A1 18.0321 
10 *883:36 *883:58 7.71429 
11 *883:58 *3783:A1 15.175 
12 *883:58 *3779:A1 27.8893 
13 *883:32 *883:94 7.66071 
14 *883:94 *3781:A1 13.8 
15 *883:94 *883:103 2.85714 
16 *883:103 *3785:A1 17.2107 
17 *883:103 *883:122 9.17857 
18 *883:122 *3780:A1 26.0143 
19 *883:122 *3826:A1 9.3 
*END

*D_NET *884 0.00230942
*CONN
*I *3646:A1 I *D sky130_fd_sc_hd__mux2_1
*I *4373:X O *D sky130_fd_sc_hd__clkdlybuf4s25_1
*CAP
1 *3646:A1 0.000752483
2 *4373:X 0.000752483
3 *3646:A1 *3646:S 1.02504e-05
4 *3646:A1 *909:37 0.000350271
5 *3646:A1 *909:48 7.76647e-05
6 *3646:A1 *909:63 4.16021e-05
7 *3868:CLK *3646:A1 0
8 *3868:D *3646:A1 0.000252947
9 *3874:D *3646:A1 0
10 *4333:A *3646:A1 7.17146e-05
11 *862:22 *3646:A1 0
*RES
1 *4373:X *3646:A1 45.5821 
*END

*D_NET *885 0.0130948
*CONN
*I *3829:A1 I *D sky130_fd_sc_hd__o21a_2
*I *3844:A1 I *D sky130_fd_sc_hd__o21a_2
*I *3843:A1 I *D sky130_fd_sc_hd__o21a_2
*I *3845:A1 I *D sky130_fd_sc_hd__o21a_2
*I *3763:A1 I *D sky130_fd_sc_hd__o21a_2
*I *3787:A1 I *D sky130_fd_sc_hd__o21a_2
*I *3777:A1 I *D sky130_fd_sc_hd__o21a_2
*I *3847:A1 I *D sky130_fd_sc_hd__o21a_2
*I *3778:A1 I *D sky130_fd_sc_hd__o21a_2
*I *3776:A1 I *D sky130_fd_sc_hd__o21a_2
*I *4145:X O *D sky130_fd_sc_hd__clkdlybuf4s25_1
*CAP
1 *3829:A1 7.20619e-05
2 *3844:A1 0.000379468
3 *3843:A1 0
4 *3845:A1 2.86957e-05
5 *3763:A1 3.82418e-05
6 *3787:A1 0.00011851
7 *3777:A1 0.000243306
8 *3847:A1 0
9 *3778:A1 0
10 *3776:A1 6.29488e-06
11 *4145:X 0.000676785
12 *885:104 0.000914028
13 *885:93 0.000700749
14 *885:64 0.000735387
15 *885:62 0.00113213
16 *885:54 0.0009946
17 *885:50 0.000344892
18 *885:39 0.000319305
19 *885:28 0.00085375
20 *3777:A1 *3777:A2 0.000516745
21 *3829:A1 *3829:A2 0.00040279
22 *3829:A1 *899:68 4.08637e-05
23 *3829:A1 *1113:16 0.000318107
24 *3844:A1 *3844:A2 4.88637e-05
25 *3845:A1 *887:67 9.90367e-05
26 *3845:A1 *899:72 0.000140933
27 *885:28 *3776:A2 8.69414e-05
28 *885:28 *899:28 0.000676455
29 *885:28 *899:47 3.03071e-05
30 *885:28 *1114:36 0
31 *885:39 *899:47 5.52302e-05
32 *885:39 *899:60 3.34366e-05
33 *885:50 *899:60 0.000367396
34 *885:50 *899:68 1.52978e-05
35 *885:50 *1113:16 6.8646e-06
36 *885:54 *899:68 9.71197e-05
37 *885:62 *899:82 3.07455e-05
38 *885:93 *901:59 1.65558e-05
39 *885:104 *887:67 0.000106542
40 *885:104 *887:82 0.000198729
41 *885:104 *899:116 0
42 *885:104 *901:59 4.98055e-06
43 *3422:B2 *885:28 1.21258e-05
44 *3422:B2 *885:39 8.55195e-05
45 *3426:C1 *885:28 0
46 *3616:B *885:104 1.59782e-05
47 *3778:B1 *885:28 9.7049e-06
48 *3842:B1 *3829:A1 6.87574e-05
49 *3842:B1 *885:54 6.42095e-05
50 *3844:B1 *3844:A1 0.000280157
51 *3844:B1 *885:104 1.19402e-05
52 *3928:CLK *885:28 0.000125674
53 *3930:RESET_B *885:28 3.57163e-05
54 *4021:CLK *885:62 9.5623e-05
55 *4035:D *885:104 0
56 *4036:D *885:104 0.000170523
57 *4037:RESET_B *885:62 0
58 *4037:RESET_B *885:93 0
59 *4039:D *885:62 5.52302e-05
60 *4039:RESET_B *885:62 1.41706e-05
61 *4043:RESET_B *885:93 0
62 *4100:A *3845:A1 2.14757e-05
63 *4133:A *885:54 0.000119125
64 *4140:A *3777:A1 0
65 *607:27 *3776:A1 5.71472e-05
66 *607:27 *885:28 3.18676e-05
67 *607:78 *885:62 0
68 *607:78 *885:93 0
69 *628:127 *885:62 3.67142e-05
70 *658:50 *3776:A1 5.71472e-05
71 *659:6 *885:54 1.92905e-05
72 *659:16 *885:62 7.50473e-05
73 *659:16 *885:64 5.04705e-05
74 *659:20 *3787:A1 0.000232399
75 *659:20 *885:64 0.00014631
76 *662:41 *885:39 0.000222892
77 *662:52 *885:50 0.00012743
*RES
1 *4145:X *3776:A1 19.1357 
2 *4145:X *885:28 33.6929 
3 *885:28 *3778:A1 9.3 
4 *885:28 *885:39 9.125 
5 *885:39 *3847:A1 13.8 
6 *885:39 *885:50 9.48214 
7 *885:50 *885:54 7.91071 
8 *885:54 *885:62 15.1964 
9 *885:62 *885:64 5.05357 
10 *885:64 *3777:A1 24.8 
11 *885:64 *3787:A1 12.2107 
12 *885:62 *3763:A1 10.0321 
13 *885:54 *885:93 2.25 
14 *885:93 *3845:A1 15.1571 
15 *885:93 *885:104 12.5714 
16 *885:104 *3843:A1 13.8 
17 *885:104 *3844:A1 20.8179 
18 *885:50 *3829:A1 13.5321 
*END

*D_NET *886 0.0116196
*CONN
*I *3839:A1 I *D sky130_fd_sc_hd__o21a_2
*I *3838:A1 I *D sky130_fd_sc_hd__o21a_2
*I *3837:A1 I *D sky130_fd_sc_hd__o21a_2
*I *3836:A1 I *D sky130_fd_sc_hd__o21a_2
*I *3835:A1 I *D sky130_fd_sc_hd__o21a_2
*I *3834:A1 I *D sky130_fd_sc_hd__o21a_2
*I *3833:A1 I *D sky130_fd_sc_hd__o21a_2
*I *3832:A1 I *D sky130_fd_sc_hd__o21a_2
*I *3831:A1 I *D sky130_fd_sc_hd__o21a_2
*I *3830:A1 I *D sky130_fd_sc_hd__o21a_2
*I *4146:X O *D sky130_fd_sc_hd__clkdlybuf4s25_1
*CAP
1 *3839:A1 0.000371737
2 *3838:A1 0
3 *3837:A1 3.72884e-05
4 *3836:A1 2.76557e-05
5 *3835:A1 7.00058e-05
6 *3834:A1 2.29413e-05
7 *3833:A1 1.7586e-05
8 *3832:A1 0
9 *3831:A1 1.645e-05
10 *3830:A1 4.96046e-05
11 *4146:X 0.00100004
12 *886:111 0.000584517
13 *886:100 0.000519044
14 *886:87 0.00044323
15 *886:74 0.000393782
16 *886:63 0.000507453
17 *886:33 0.000109611
18 *886:18 0.000680469
19 *886:16 0.001248
20 *3831:A1 *3831:A2 9.90367e-05
21 *3834:A1 *3834:A2 6.05161e-06
22 *3834:A1 *900:68 5.52302e-05
23 *3836:A1 *3836:A2 2.89016e-05
24 *3839:A1 *3839:A2 0.000276831
25 *3839:A1 *900:101 2.26327e-05
26 *886:16 *3495:A_N 9.60939e-05
27 *886:18 *900:20 0.000378269
28 *886:33 *900:33 0.000146474
29 *886:74 *900:68 0.000511901
30 *886:87 *900:68 5.83304e-05
31 *886:87 *900:81 0.000334674
32 *886:100 *3836:A2 6.05161e-06
33 *886:100 *900:81 5.13015e-05
34 *886:100 *900:92 0.000187902
35 *886:111 *900:92 2.82057e-05
36 *886:111 *900:101 0.000180408
37 *3355:A *3833:A1 2.08464e-05
38 *3355:A *886:16 0.000452691
39 *3355:A *886:18 3.18676e-05
40 *3497:B1 *886:16 5.52302e-05
41 *3516:B *886:16 0.00045293
42 *3516:B *886:63 0.000307336
43 *3636:A1 *886:63 0.000218679
44 *3637:A1 *886:63 3.67452e-05
45 *3637:A1 *886:74 2.26424e-05
46 *3830:B1 *3830:A1 3.18676e-05
47 *3830:B1 *886:18 6.57914e-05
48 *3835:B1 *886:74 0.000295963
49 *3840:B1 *3839:A1 0
50 *4026:CLK *886:16 0
51 *4027:RESET_B *886:87 8.49707e-05
52 *4030:RESET_B *886:111 0
53 *4082:A *3831:A1 9.90367e-05
54 *4132:A *886:33 0
55 *4135:A *886:63 0.000226021
56 *610:47 *886:33 0
57 *610:98 *886:16 0.000148903
58 *660:27 *886:16 6.25993e-05
59 *660:104 *886:63 0.00036496
60 *661:30 *886:87 0
61 *661:94 *3839:A1 0
62 *662:10 *3834:A1 3.69047e-06
63 *662:10 *886:63 6.91157e-05
*RES
1 *4146:X *886:16 31.4786 
2 *886:16 *886:18 10.8036 
3 *886:18 *3830:A1 10.2643 
4 *886:18 *886:33 10.9464 
5 *886:33 *3831:A1 10.2464 
6 *886:33 *3832:A1 9.3 
7 *886:16 *3833:A1 9.72857 
8 *4146:X *886:63 22.7107 
9 *886:63 *3834:A1 14.3357 
10 *886:63 *886:74 7.10714 
11 *886:74 *3835:A1 14.7464 
12 *886:74 *886:87 9.48214 
13 *886:87 *3836:A1 9.83571 
14 *886:87 *886:100 10.4286 
15 *886:100 *3837:A1 14.3357 
16 *886:100 *886:111 4.98214 
17 *886:111 *3838:A1 13.8 
18 *886:111 *3839:A1 22.05 
*END

*D_NET *887 0.0241544
*CONN
*I *3840:A1 I *D sky130_fd_sc_hd__o21a_2
*I *3842:A1 I *D sky130_fd_sc_hd__o21a_2
*I *3852:A1 I *D sky130_fd_sc_hd__o21a_2
*I *3853:A1 I *D sky130_fd_sc_hd__o21a_2
*I *3851:A1 I *D sky130_fd_sc_hd__o21a_2
*I *3841:A1 I *D sky130_fd_sc_hd__o21a_2
*I *4146:A I *D sky130_fd_sc_hd__clkdlybuf4s25_1
*I *4145:A I *D sky130_fd_sc_hd__clkdlybuf4s25_1
*I *4147:X O *D sky130_fd_sc_hd__clkdlybuf4s25_1
*CAP
1 *3840:A1 0.000683203
2 *3842:A1 0
3 *3852:A1 0
4 *3853:A1 0.000361049
5 *3851:A1 0
6 *3841:A1 0
7 *4146:A 0
8 *4145:A 0.00132822
9 *4147:X 5.54804e-05
10 *887:106 0.00104021
11 *887:82 0.000803591
12 *887:67 0.000851882
13 *887:54 0.00040934
14 *887:52 0.00338673
15 *887:14 0.00159599
16 *887:8 0.00335297
17 *3840:A1 *3840:A2 0.000567644
18 *3853:A1 *3853:A2 0.000344925
19 *4145:A *3831:A2 0.000188586
20 *4145:A *1068:19 6.58289e-05
21 *887:14 *4159:A 1.00375e-05
22 *887:14 *900:18 0
23 *887:52 *901:96 2.11419e-05
24 *887:67 *899:72 0.000113073
25 *887:67 *901:59 0.000580897
26 *887:82 *901:69 0.000186662
27 *887:106 *3840:A2 5.52302e-05
28 *887:106 *901:96 3.22304e-05
29 *887:106 *901:107 0.00092404
30 *3521:A *4145:A 3.88139e-05
31 *3608:C *887:67 2.89016e-05
32 *3610:A *887:52 0
33 *3636:A1 *887:14 0
34 *3842:B1 *887:52 2.26973e-05
35 *3842:B1 *887:106 0.000947219
36 *3845:A1 *887:67 9.90367e-05
37 *4024:RESET_B *4145:A 5.71472e-05
38 *4025:CLK *887:14 0.000167246
39 *4025:CLK *887:52 2.11372e-05
40 *4026:CLK *4145:A 0.000176234
41 *4026:CLK *887:14 0.000507757
42 *4026:CLK *887:52 3.45763e-05
43 *4032:D *3840:A1 5.62995e-05
44 *4032:RESET_B *3840:A1 0
45 *4035:D *887:82 6.5185e-05
46 *4036:CLK *3853:A1 0
47 *4036:CLK *887:82 0.00010096
48 *4081:A *887:67 0.00134347
49 *4082:A *4145:A 0.000815032
50 *4100:A *887:67 0.000269428
51 *4103:A *4145:A 8.86512e-05
52 *4248:A *3840:A1 9.90431e-05
53 *390:6 *887:67 5.17614e-05
54 *390:19 *887:67 2.89016e-05
55 *511:50 *887:52 0
56 *526:27 *887:52 0
57 *610:81 *4145:A 0.000309266
58 *659:75 *887:82 3.99614e-06
59 *659:99 *3853:A1 0.000405727
60 *660:64 *4145:A 0.00114863
61 *661:53 *887:67 3.08382e-06
62 *885:104 *887:67 0.000106542
63 *885:104 *887:82 0.000198729
*RES
1 *4147:X *887:8 14.3357 
2 *887:8 *887:14 11.9464 
3 *887:14 *4145:A 48.1036 
4 *887:14 *4146:A 9.3 
5 *887:8 *887:52 20.0776 
6 *887:52 *887:54 4.5 
7 *887:54 *3841:A1 9.3 
8 *887:54 *887:67 22.8036 
9 *887:67 *3851:A1 13.8 
10 *887:67 *887:82 14.6607 
11 *887:82 *3853:A1 27.1036 
12 *887:82 *3852:A1 9.3 
13 *887:52 *887:106 18.0179 
14 *887:106 *3842:A1 9.3 
15 *887:106 *3840:A1 32.4429 
*END

*D_NET *888 0.023594
*CONN
*I *4143:A I *D sky130_fd_sc_hd__clkdlybuf4s25_1
*I *4147:A I *D sky130_fd_sc_hd__clkdlybuf4s25_1
*I *4144:A I *D sky130_fd_sc_hd__clkdlybuf4s25_1
*I *4141:A I *D sky130_fd_sc_hd__clkdlybuf4s25_1
*I *4142:A I *D sky130_fd_sc_hd__clkdlybuf4s25_1
*I *4148:X O *D sky130_fd_sc_hd__clkdlybuf4s25_1
*CAP
1 *4143:A 0
2 *4147:A 0.00109693
3 *4144:A 0
4 *4141:A 0.00219744
5 *4142:A 0.000514089
6 *4148:X 0.000308074
7 *888:43 0.0057468
8 *888:35 0.00491997
9 *888:25 0.0012386
10 *888:10 0.00178708
11 *4142:A *902:10 7.85933e-05
12 *4147:A *3636:S 0.000779174
13 *4147:A *900:68 7.79781e-06
14 *4147:A *902:30 2.11362e-05
15 *4147:A *902:96 0.000103032
16 *4147:A *910:22 0.000923811
17 *888:35 *902:30 0.000321372
18 *888:35 *910:22 0.000349098
19 *888:43 *898:126 0
20 *888:43 *902:48 0.000132088
21 *3468:B2 *4141:A 0
22 *3637:A1 *4147:A 0.000286472
23 *3781:B1 *888:43 0
24 *3896:D *4141:A 0
25 *4015:RESET_B *4141:A 9.48025e-05
26 *4015:RESET_B *888:43 0.00014209
27 *4020:RESET_B *4141:A 9.48025e-05
28 *4020:RESET_B *888:43 3.34295e-05
29 *4351:A *4147:A 0.000428072
30 *828:42 *4147:A 0.000562087
31 *828:42 *888:10 0.000259429
32 *828:42 *888:25 0.00107057
33 *881:8 *4142:A 9.71197e-05
*RES
1 *4148:X *888:10 20.5321 
2 *888:10 *4142:A 21.7464 
3 *888:10 *888:25 29.2143 
4 *888:25 *888:35 12.3661 
5 *888:35 *888:43 15.7701 
6 *888:43 *4141:A 27.829 
7 *888:43 *4144:A 13.8 
8 *888:35 *4147:A 48.2018 
9 *888:25 *4143:A 9.3 
*END

*D_NET *889 0.023148
*CONN
*I *3663:A I *D sky130_fd_sc_hd__nand2_2
*I *3665:A I *D sky130_fd_sc_hd__nand2_2
*I *3667:A I *D sky130_fd_sc_hd__nand2_2
*I *3671:A I *D sky130_fd_sc_hd__nand2_2
*I *3669:A I *D sky130_fd_sc_hd__nand2_2
*I *3673:A I *D sky130_fd_sc_hd__nand2_2
*I *3675:A I *D sky130_fd_sc_hd__nand2_2
*I *3677:A I *D sky130_fd_sc_hd__nand2_2
*I *3397:A I *D sky130_fd_sc_hd__and2_2
*I *3662:A1 I *D sky130_fd_sc_hd__a21o_2
*I *4149:X O *D sky130_fd_sc_hd__clkdlybuf4s25_1
*CAP
1 *3663:A 0
2 *3665:A 2.23854e-05
3 *3667:A 0.00052037
4 *3671:A 0
5 *3669:A 0.000704574
6 *3673:A 0.000126434
7 *3675:A 0.000520721
8 *3677:A 0
9 *3397:A 0
10 *3662:A1 0.0010228
11 *4149:X 0.000516464
12 *889:109 0.000865651
13 *889:105 0.000498216
14 *889:97 0.00123717
15 *889:91 0.000705958
16 *889:81 0.000567609
17 *889:66 0.00122489
18 *889:57 0.00103392
19 *889:34 0.00212813
20 *889:16 0.00208881
21 *3662:A1 *911:66 2.89114e-05
22 *3667:A *3746:S 0.00010145
23 *3667:A *4276:A 0
24 *3673:A *4310:A 0
25 *3675:A *947:28 0.000223672
26 *889:16 *3423:A 4.97649e-05
27 *889:16 *911:10 0.000459407
28 *889:16 *911:24 1.78353e-05
29 *889:34 *3434:A 0.000320031
30 *889:34 *911:24 0.000222955
31 *889:66 *947:28 0.000180864
32 *889:81 *907:18 0.000509322
33 *889:105 *3671:B 9.90367e-05
34 *889:105 *3746:S 3.34672e-05
35 *889:105 *3747:S 1.92789e-05
36 *889:105 *907:104 7.15962e-05
37 *889:105 *945:12 5.33005e-05
38 o_receive_data[5] *3669:A 0.000524108
39 o_receive_data[5] *3673:A 0.000182763
40 *3397:B *889:16 0.000139907
41 *3424:B2 *889:16 0.000103285
42 *3666:S *889:105 9.74218e-05
43 *3666:S *889:109 3.48705e-05
44 *3668:S *3667:A 0.000190586
45 *3670:A0 *3669:A 7.25104e-05
46 *3670:S *3669:A 3.55471e-05
47 *3672:S *889:109 2.89114e-05
48 *3674:A1 *3669:A 9.41642e-05
49 *3674:A1 *3673:A 1.88312e-05
50 *3747:A0 *889:105 0.000228334
51 *3752:A0 *3667:A 0.000250201
52 *3777:B1 *889:16 5.33005e-05
53 *3793:B1 *889:34 0.000397924
54 *3797:A1 *3667:A 4.1331e-06
55 *3803:B1 *3667:A 0
56 *3887:D *3669:A 0.000146116
57 *3929:D *889:16 0
58 *3929:RESET_B *889:16 6.26818e-05
59 *3942:CLK *889:34 8.76257e-05
60 *3942:D *889:34 5.52302e-05
61 *3985:RESET_B *889:34 0.00044852
62 *4038:CLK *889:34 0.000185643
63 *4050:D *3667:A 6.42145e-05
64 *4050:RESET_B *3667:A 4.66203e-05
65 *4051:CLK *889:97 1.92905e-05
66 *4051:D *3667:A 1.41029e-05
67 *4051:D *889:105 0.000483172
68 *4055:D *889:91 0.000100823
69 *4073:A *889:57 1.0357e-05
70 *4073:TE_B *889:57 0.000244886
71 *4118:A *889:57 0.000525394
72 *4118:A *889:66 3.9004e-05
73 *4138:A *889:34 0.000318316
74 *4195:A *889:16 0
75 *4282:A *889:91 0.000224234
76 *51:12 *889:57 3.18676e-05
77 *359:87 *3669:A 0.000198738
78 *359:87 *889:109 9.90431e-05
79 *624:46 *3669:A 2.59355e-05
80 *624:59 *3669:A 2.77108e-05
81 *639:8 *889:57 0.000168057
82 *641:37 *889:81 0.000509322
83 *641:37 *889:91 8.54718e-05
84 *646:61 *889:91 0
85 *688:12 *889:16 0.000102545
86 *779:10 *3667:A 0.000137939
87 *867:16 *3669:A 5.33005e-05
88 *869:10 *3673:A 0
*RES
1 *4149:X *889:16 30.3714 
2 *889:16 *889:34 49.4286 
3 *889:34 *3662:A1 15.5857 
4 *889:16 *3397:A 9.3 
5 *3662:A1 *889:57 21.3714 
6 *889:57 *3677:A 9.3 
7 *889:57 *889:66 7.42857 
8 *889:66 *3675:A 16.3179 
9 *889:66 *889:81 15.5 
10 *889:81 *889:91 17.625 
11 *889:91 *889:97 7.51786 
12 *889:97 *889:105 15.8393 
13 *889:105 *889:109 5.85714 
14 *889:109 *3673:A 16.6571 
15 *889:109 *3669:A 29.3714 
16 *889:105 *3671:A 9.3 
17 *889:97 *3667:A 26.9786 
18 *889:91 *3665:A 9.72857 
19 *889:81 *3663:A 9.3 
*END

*D_NET *890 0.0130168
*CONN
*I *3803:A2 I *D sky130_fd_sc_hd__o21a_2
*I *3802:A2 I *D sky130_fd_sc_hd__o21a_2
*I *3801:A2 I *D sky130_fd_sc_hd__o21a_2
*I *3800:A2 I *D sky130_fd_sc_hd__o21a_2
*I *3799:A2 I *D sky130_fd_sc_hd__o21a_2
*I *3798:A2 I *D sky130_fd_sc_hd__o21a_2
*I *3797:A2 I *D sky130_fd_sc_hd__o21a_2
*I *3796:A2 I *D sky130_fd_sc_hd__o21a_2
*I *3795:A2 I *D sky130_fd_sc_hd__o21a_2
*I *3766:A2 I *D sky130_fd_sc_hd__o21a_2
*I *4150:X O *D sky130_fd_sc_hd__clkdlybuf4s25_1
*CAP
1 *3803:A2 0.000114561
2 *3802:A2 0.000254659
3 *3801:A2 0
4 *3800:A2 4.95133e-05
5 *3799:A2 0
6 *3798:A2 0.000104802
7 *3797:A2 9.5556e-05
8 *3796:A2 0
9 *3795:A2 3.49606e-05
10 *3766:A2 0.000302004
11 *4150:X 0.000180588
12 *890:120 0.000435921
13 *890:113 0.000341264
14 *890:92 0.000598636
15 *890:79 0.000658375
16 *890:60 0.00069176
17 *890:37 8.50549e-05
18 *890:29 0.000243289
19 *890:27 0.00196589
20 *890:8 0.0021477
21 *3766:A2 *4219:A 0
22 *3766:A2 *891:34 2.05938e-05
23 *3766:A2 *1042:10 2.56694e-05
24 *3766:A2 *1042:25 2.56601e-05
25 *3795:A2 *3507:B 0.000141729
26 *890:8 *1050:8 0.000151071
27 *890:27 *3508:A 7.77652e-05
28 *890:27 *3508:B 7.84241e-05
29 *890:27 *1043:8 7.99345e-06
30 *890:37 *3507:B 5.33005e-05
31 *890:79 *1057:12 0.000210667
32 *890:113 *1059:10 6.78202e-06
33 *890:120 *1059:10 1.13883e-05
34 *3388:A1 *3766:A2 9.80173e-05
35 *3510:B1 *890:79 0
36 *3510:C1 *3797:A2 0
37 *3510:C1 *890:29 0
38 *3510:C1 *890:60 0
39 *3510:C1 *890:79 0
40 *3767:B1 *3766:A2 8.69386e-05
41 *3795:A1 *3795:A2 5.65955e-05
42 *3795:B1 *3795:A2 1.32056e-05
43 *3796:B1 *3795:A2 1.24368e-05
44 *3796:B1 *890:37 4.27935e-05
45 *3797:A1 *3797:A2 0.000128146
46 *3798:B1 *3798:A2 0.000142856
47 *3799:A1 *890:79 0.000145621
48 *3799:A1 *890:92 1.00332e-05
49 *3799:B1 *890:79 9.79845e-05
50 *3799:B1 *890:92 1.08528e-05
51 *3800:A1 *3800:A2 5.67622e-05
52 *3801:A1 *3803:A2 2.59355e-05
53 *3801:A1 *890:120 5.20669e-05
54 *3801:B1 *890:113 6.05161e-06
55 *3802:A1 *3802:A2 0.000331878
56 *3802:B1 *3802:A2 0
57 *3803:A1 *3803:A2 1.02936e-05
58 *3918:RESET_B *3766:A2 0.000174805
59 *3919:CLK *890:27 8.08022e-05
60 *3919:D *890:27 6.49214e-05
61 *3919:RESET_B *890:27 4.73514e-05
62 *3988:RESET_B *890:27 2.51935e-05
63 *3988:RESET_B *890:29 8.39e-05
64 *3990:RESET_B *890:79 0.000104974
65 *11:10 *3766:A2 0
66 *11:10 *890:27 0
67 *387:14 *3803:A2 0.00014183
68 *625:8 *890:79 0.000480057
69 *625:21 *890:92 0
70 *641:58 *3797:A2 7.45867e-05
71 *641:84 *3797:A2 2.21639e-05
72 *641:84 *890:29 0.000115511
73 *641:84 *890:37 2.01732e-05
74 *641:84 *890:60 0.000152262
75 *641:99 *890:60 1.6271e-05
76 *641:99 *890:79 0.000151293
77 *641:124 *890:92 0.000230275
78 *641:139 *3800:A2 3.62749e-05
79 *641:139 *3802:A2 0
80 *641:139 *890:113 0.000200688
81 *876:26 *3797:A2 0
82 *876:30 *3795:A2 9.67094e-06
83 *876:87 *890:79 0.000103981
84 *876:87 *890:92 0
85 *876:100 *3802:A2 5.47029e-05
86 *877:31 *890:27 0.000181106
*RES
1 *4150:X *890:8 16.3893 
2 *890:8 *3766:A2 20.0321 
3 *890:8 *890:27 30.1607 
4 *890:27 *890:29 3.00893 
5 *890:29 *890:37 5.84821 
6 *890:37 *3795:A2 10.6571 
7 *890:37 *3796:A2 9.3 
8 *890:29 *3797:A2 16.5054 
9 *890:27 *890:60 4.375 
10 *890:60 *3798:A2 15.9786 
11 *890:60 *890:79 20.875 
12 *890:79 *3799:A2 13.8 
13 *890:79 *890:92 5.44643 
14 *890:92 *3800:A2 15.0679 
15 *890:92 *890:113 9.375 
16 *890:113 *3801:A2 9.3 
17 *890:113 *890:120 1.35714 
18 *890:120 *3802:A2 23.8179 
19 *890:120 *3803:A2 11.4786 
*END

*D_NET *891 0.00927997
*CONN
*I *3769:A2 I *D sky130_fd_sc_hd__o21a_2
*I *3770:A2 I *D sky130_fd_sc_hd__o21a_2
*I *4150:A I *D sky130_fd_sc_hd__clkdlybuf4s25_1
*I *3767:A2 I *D sky130_fd_sc_hd__o21a_2
*I *3765:A2 I *D sky130_fd_sc_hd__o21a_2
*I *3850:A2 I *D sky130_fd_sc_hd__o21a_2
*I *4151:X O *D sky130_fd_sc_hd__clkdlybuf4s25_1
*CAP
1 *3769:A2 2.81897e-05
2 *3770:A2 0.000545837
3 *4150:A 2.52229e-05
4 *3767:A2 0.000301312
5 *3765:A2 6.6898e-05
6 *3850:A2 9.45606e-05
7 *4151:X 3.72884e-05
8 *891:62 0.001325
9 *891:49 0.00143685
10 *891:34 0.001212
11 *891:10 0.000264486
12 *891:8 0.000390346
13 *3769:A2 *3768:A2 2.14658e-05
14 *4150:A *1050:6 5.52238e-05
15 *891:10 *4151:A 0
16 *891:62 *3363:A1 6.48957e-05
17 *891:62 *4237:A 3.9745e-05
18 *3765:B1 *3765:A2 0.000227532
19 *3766:A2 *891:34 2.05938e-05
20 *3767:A1 *3767:A2 1.74352e-05
21 *3767:B1 *891:34 4.02462e-05
22 *3768:A1 *3769:A2 7.22263e-05
23 *3768:A1 *3770:A2 9.71197e-05
24 *3768:B1 *3769:A2 4.27935e-05
25 *3768:B1 *3770:A2 9.90367e-05
26 *3770:A1 *3769:A2 5.52238e-05
27 *3770:A1 *3770:A2 0.000230475
28 *3770:B1 *3770:A2 2.44318e-05
29 *3850:A1 *3765:A2 4.18895e-05
30 *3850:A1 *3850:A2 9.01334e-05
31 *3850:A1 *891:10 1.52978e-05
32 *3850:B1 *3850:A2 5.71472e-05
33 *3920:RESET_B *891:62 0
34 *3921:RESET_B *3770:A2 0.000100823
35 *3922:D *3770:A2 0
36 *4097:A *891:62 0.000125918
37 *4137:A *891:49 0
38 *4137:A *891:62 0
39 *11:10 *3850:A2 9.93198e-05
40 *11:10 *891:10 0.000109409
41 *11:10 *891:34 0.000277653
42 *606:67 *891:49 0.000138015
43 *606:67 *891:62 0.000430477
44 *644:27 *891:34 4.66096e-05
45 *644:55 *891:49 0
46 *644:83 *891:62 3.93893e-05
47 *644:89 *3769:A2 5.71472e-05
48 *644:103 *891:62 6.8646e-06
49 *876:6 *3767:A2 8.86512e-05
50 *876:6 *891:49 0.000332901
51 *876:20 *3767:A2 0.00011262
52 *877:8 *3765:A2 0.000273269
53 *877:48 *891:62 0
*RES
1 *4151:X *891:8 14.3357 
2 *891:8 *891:10 2.55357 
3 *891:10 *3850:A2 16.5857 
4 *891:10 *3765:A2 16.8 
5 *891:8 *891:34 11 
6 *891:34 *3767:A2 13.55 
7 *891:34 *891:49 14.7679 
8 *891:49 *4150:A 14.3357 
9 *891:49 *891:62 21.9286 
10 *891:62 *3770:A2 29.2464 
11 *891:62 *3769:A2 10.6571 
*END

*D_NET *892 0.015619
*CONN
*I *3793:A2 I *D sky130_fd_sc_hd__o21a_2
*I *3790:A2 I *D sky130_fd_sc_hd__o21a_2
*I *3786:A2 I *D sky130_fd_sc_hd__o21a_2
*I *3848:A2 I *D sky130_fd_sc_hd__o21a_2
*I *3764:A2 I *D sky130_fd_sc_hd__o21a_2
*I *3789:A2 I *D sky130_fd_sc_hd__o21a_2
*I *3849:A2 I *D sky130_fd_sc_hd__o21a_2
*I *3846:A2 I *D sky130_fd_sc_hd__o21a_2
*I *3791:A2 I *D sky130_fd_sc_hd__o21a_2
*I *3792:A2 I *D sky130_fd_sc_hd__o21a_2
*I *4152:X O *D sky130_fd_sc_hd__clkdlybuf4s25_1
*CAP
1 *3793:A2 0.000261302
2 *3790:A2 1.72105e-05
3 *3786:A2 0.000431068
4 *3848:A2 0
5 *3764:A2 0
6 *3789:A2 0.00026869
7 *3849:A2 9.60335e-05
8 *3846:A2 0.000585641
9 *3791:A2 0.000430127
10 *3792:A2 0.000150597
11 *4152:X 0
12 *892:68 0.00102055
13 *892:66 0.00078083
14 *892:62 0.000402916
15 *892:58 0.000399232
16 *892:52 0.00109498
17 *892:46 0.000541959
18 *892:23 0.000642966
19 *892:8 0.000821484
20 *892:4 0.000749769
21 *3786:A2 *993:58 0.000153781
22 *3786:A2 *1065:10 3.06406e-05
23 *3790:A2 *3442:A1 5.59013e-05
24 *3791:A2 *1035:12 2.44318e-05
25 *3792:A2 *993:46 4.78056e-05
26 *3793:A2 *894:83 2.1892e-05
27 *3846:A2 *3396:B 0
28 *892:23 *3442:A1 5.15925e-05
29 *892:23 *993:46 6.84616e-05
30 *892:23 *1030:28 1.01417e-05
31 *892:46 *3442:A1 7.6644e-05
32 *892:58 *3440:A1 9.25014e-06
33 *892:58 *993:46 4.53757e-05
34 *3390:A2 *3846:A2 3.69865e-05
35 *3390:A2 *892:68 7.49332e-05
36 *3438:A1 *3786:A2 0.000284179
37 *3438:A1 *892:58 9.25014e-06
38 *3440:A2 *892:23 2.06178e-05
39 *3440:B1 *3792:A2 0.000301669
40 *3442:A2 *3790:A2 4.66511e-05
41 *3442:A2 *892:23 0.000120776
42 *3442:A2 *892:46 6.81083e-05
43 *3528:B1 *3786:A2 0.000148903
44 *3786:A1 *3786:A2 0.000205209
45 *3789:A1 *3789:A2 0.00045993
46 *3790:B1 *3791:A2 0
47 *3791:A1 *3791:A2 7.13681e-05
48 *3791:B1 *3791:A2 0.000511853
49 *3792:A1 *3792:A2 0.000329029
50 *3793:A1 *3793:A2 0.000322446
51 *3849:A1 *3846:A2 6.74911e-05
52 *3916:CLK *3849:A2 0.00010096
53 *3916:D *3846:A2 0.000120645
54 *3942:D *3792:A2 0
55 *3942:D *892:23 0
56 *3942:SET_B *892:23 2.92543e-05
57 *3985:CLK *3793:A2 0.000128146
58 *4038:D *892:58 0.000139907
59 *4040:D *892:68 2.61496e-05
60 *4040:RESET_B *892:62 9.90431e-05
61 *4094:A *3789:A2 0
62 *360:33 *3786:A2 9.77024e-05
63 *360:33 *892:58 6.35224e-05
64 *367:20 *3786:A2 1.21258e-05
65 *603:55 *3793:A2 0.000273555
66 *603:105 *3791:A2 2.7627e-05
67 *603:105 *892:52 4.53294e-05
68 *606:8 *3789:A2 0
69 *606:35 *3789:A2 5.10822e-05
70 *627:42 *892:8 7.49615e-05
71 *627:98 *3793:A2 4.88515e-05
72 *627:98 *892:8 0.00016191
73 *643:67 *3846:A2 0
74 *643:76 *3846:A2 0
75 *643:76 *892:68 0
76 *643:89 *3789:A2 0
77 *643:89 *892:68 0
78 *643:98 *892:62 9.90367e-05
79 *643:98 *892:66 0.000405733
80 *643:107 *892:62 0.000308494
81 *645:101 *3786:A2 9.60939e-05
82 *878:43 *892:52 4.08637e-05
83 *878:47 *892:52 0.00052642
84 *878:53 *892:58 0.000227258
85 *878:62 *892:58 2.12087e-05
86 *878:62 *892:62 2.24079e-05
*RES
1 *4152:X *892:4 9.3 
2 *892:4 *892:8 10.7857 
3 *892:8 *3792:A2 18.5679 
4 *892:8 *892:23 4.07143 
5 *892:23 *3791:A2 29.5143 
6 *892:23 *892:46 1.03571 
7 *892:46 *892:52 15.6964 
8 *892:52 *892:58 9.03571 
9 *892:58 *892:62 5.07143 
10 *892:62 *892:66 8.32143 
11 *892:66 *892:68 6.19643 
12 *892:68 *3846:A2 24.1393 
13 *892:68 *3849:A2 15.5857 
14 *892:66 *3789:A2 20.1393 
15 *892:62 *3764:A2 9.3 
16 *892:58 *3848:A2 9.3 
17 *892:52 *3786:A2 25.4964 
18 *892:46 *3790:A2 14.5321 
19 *892:4 *3793:A2 26.1571 
*END

*D_NET *893 0.0154305
*CONN
*I *3804:A2 I *D sky130_fd_sc_hd__o21a_2
*I *3772:A2 I *D sky130_fd_sc_hd__o21a_2
*I *3771:A2 I *D sky130_fd_sc_hd__o21a_2
*I *3773:A2 I *D sky130_fd_sc_hd__o21a_2
*I *3768:A2 I *D sky130_fd_sc_hd__o21a_2
*I *3794:A2 I *D sky130_fd_sc_hd__o21a_2
*I *3774:A2 I *D sky130_fd_sc_hd__o21a_2
*I *3805:A2 I *D sky130_fd_sc_hd__o21a_2
*I *3788:A2 I *D sky130_fd_sc_hd__o21a_2
*I *4153:X O *D sky130_fd_sc_hd__clkdlybuf4s25_1
*CAP
1 *3804:A2 0
2 *3772:A2 0
3 *3771:A2 0.000553092
4 *3773:A2 0
5 *3768:A2 0.000645515
6 *3794:A2 5.90249e-05
7 *3774:A2 0.000167438
8 *3805:A2 0.000100627
9 *3788:A2 0.000325315
10 *4153:X 0.000259763
11 *893:82 0.000645515
12 *893:80 0.000773213
13 *893:74 0.000455967
14 *893:55 0.000432395
15 *893:31 0.00130071
16 *893:27 0.00147382
17 *893:25 0.000576012
18 *893:8 0.000857442
19 *3788:A2 *4153:A 0.000277632
20 *893:8 *1030:16 0.00040279
21 *893:25 *4153:A 4.25523e-05
22 *3373:A3 *3768:A2 0.000157457
23 *3373:A3 *3771:A2 1.37292e-05
24 *3373:A3 *893:80 6.26559e-05
25 *3768:A1 *3768:A2 2.31802e-05
26 *3768:B1 *3768:A2 0.000229456
27 *3769:A2 *3768:A2 2.14658e-05
28 *3770:A1 *3768:A2 1.02936e-05
29 *3771:A1 *3771:A2 0.000833543
30 *3772:B1 *893:80 0.000151071
31 *3773:B1 *3768:A2 9.60939e-05
32 *3774:A1 *3774:A2 0.000127446
33 *3788:A1 *3788:A2 0.000373034
34 *3804:B1 *893:25 0.000181796
35 *3804:B1 *893:27 9.90367e-05
36 *3805:A1 *3774:A2 0.000192577
37 *3805:A1 *3805:A2 1.92789e-05
38 *3805:A1 *893:31 1.58163e-05
39 *3924:RESET_B *893:80 0.000188586
40 *3939:RESET_B *3788:A2 0.000196262
41 *3986:D *893:31 2.89016e-05
42 *3996:CLK *3794:A2 9.41642e-05
43 *3996:D *893:55 0
44 *4253:A *893:55 3.34366e-05
45 *394:12 *3768:A2 0.000440705
46 *394:27 *3768:A2 0.00022459
47 *394:44 *3768:A2 0.000172309
48 *394:85 *3768:A2 0.00030669
49 *644:66 *3774:A2 0
50 *644:89 *3768:A2 4.38128e-05
51 *877:48 *3768:A2 2.89016e-05
52 *879:25 *3788:A2 0.000389854
53 *879:25 *893:25 0.000409356
54 *879:29 *893:27 0.00031011
55 *879:29 *893:31 1.39841e-05
56 *879:37 *893:55 5.83233e-05
57 *879:59 *893:55 0.000177948
58 *879:68 *893:55 5.58941e-05
59 *879:68 *893:74 0.000285894
60 *879:74 *3771:A2 0
61 *879:74 *893:80 0
62 *879:83 *3768:A2 1.39726e-05
*RES
1 *4153:X *893:8 17.6214 
2 *893:8 *3788:A2 24.3893 
3 *893:8 *893:25 11.5536 
4 *893:25 *893:27 6.28571 
5 *893:27 *893:31 12.0536 
6 *893:31 *3805:A2 10.675 
7 *893:31 *3774:A2 22.3714 
8 *893:27 *893:55 7.96429 
9 *893:55 *3794:A2 14.7464 
10 *893:55 *893:74 9.66071 
11 *893:74 *893:80 10.1607 
12 *893:80 *893:82 4.5 
13 *893:82 *3768:A2 24.6214 
14 *893:82 *3773:A2 9.3 
15 *893:80 *3771:A2 26.6393 
16 *893:74 *3772:A2 9.3 
17 *893:25 *3804:A2 9.3 
*END

*D_NET *894 0.0186393
*CONN
*I *3775:A2 I *D sky130_fd_sc_hd__o21a_2
*I *3806:A2 I *D sky130_fd_sc_hd__o21a_2
*I *4151:A I *D sky130_fd_sc_hd__clkdlybuf4s25_1
*I *4153:A I *D sky130_fd_sc_hd__clkdlybuf4s25_1
*I *4152:A I *D sky130_fd_sc_hd__clkdlybuf4s25_1
*I *3784:A2 I *D sky130_fd_sc_hd__o21a_2
*I *3782:A2 I *D sky130_fd_sc_hd__o21a_2
*I *3824:A2 I *D sky130_fd_sc_hd__o21a_2
*I *4154:X O *D sky130_fd_sc_hd__clkdlybuf4s25_1
*CAP
1 *3775:A2 0
2 *3806:A2 0
3 *4151:A 0.00157716
4 *4153:A 0.000679195
5 *4152:A 2.52056e-05
6 *3784:A2 0
7 *3782:A2 0
8 *3824:A2 3.34103e-05
9 *4154:X 0.000124557
10 *894:83 0.00130046
11 *894:72 0.00143079
12 *894:60 0.00243038
13 *894:51 0.000254396
14 *894:32 0.00102987
15 *894:22 0.00115138
16 *894:12 0.000515388
17 *4151:A *4175:A 2.00751e-05
18 *4153:A *4234:A 0
19 *894:12 *3329:A 3.69047e-06
20 *894:32 *3470:B1 3.84385e-05
21 *894:32 *3661:A1 0
22 *894:32 *3661:A2 0
23 *894:32 *3998:D 9.65075e-05
24 *894:32 *4323:A 8.45386e-05
25 *894:32 *936:33 0
26 *894:51 *3396:A 0.00012401
27 *894:72 *4261:A 0.000227539
28 *894:72 *911:62 9.25014e-06
29 *3363:A2 *4151:A 0.000108872
30 *3428:A1 *4151:A 4.89264e-05
31 *3625:C *894:72 0.000137983
32 *3686:B1 *894:12 3.34672e-05
33 *3775:B1 *894:22 0.000560551
34 *3784:B1 *894:72 0.00010096
35 *3784:B1 *894:83 0.000315158
36 *3788:A2 *4153:A 0.000277632
37 *3790:B1 *4151:A 0
38 *3793:A1 *894:83 0.00017378
39 *3793:A2 *894:83 2.1892e-05
40 *3824:B1 *3824:A2 5.33005e-05
41 *3850:A1 *4151:A 0
42 *3915:D *4153:A 0
43 *3929:CLK *4152:A 5.52302e-05
44 *3931:SET_B *894:83 5.52302e-05
45 *3934:CLK *894:32 0.000207769
46 *3934:CLK *894:51 0.000103267
47 *3934:RESET_B *894:51 5.2475e-05
48 *3936:RESET_B *894:72 9.90431e-05
49 *3939:RESET_B *4153:A 0.000198691
50 *3985:CLK *4153:A 1.0945e-05
51 *3985:CLK *894:83 9.30125e-05
52 *4016:D *894:51 0
53 *4038:D *4151:A 0.000265808
54 *4041:D *4151:A 2.04825e-05
55 *4093:A *894:22 5.33005e-05
56 *4093:A *894:32 5.33005e-05
57 *4094:A *4151:A 0.000282079
58 *4122:A *894:51 0.000227493
59 *4140:A *4153:A 0.000528813
60 *4140:A *894:83 8.42909e-05
61 *4236:A *4151:A 0.000101545
62 *4236:A *894:51 1.02504e-05
63 *4236:A *894:60 5.58941e-05
64 *4236:A *894:72 0.000122101
65 *354:20 *4151:A 0.000814954
66 *354:20 *894:32 9.25014e-06
67 *354:20 *894:51 0.000381697
68 *354:20 *894:60 4.56437e-05
69 *360:33 *4151:A 0
70 *603:55 *894:83 0
71 *603:105 *4153:A 0
72 *606:8 *4151:A 0.000142082
73 *621:91 *894:32 0.000148903
74 *621:103 *894:32 3.51442e-05
75 *636:109 *894:22 2.6269e-05
76 *636:109 *894:32 5.59013e-05
77 *645:42 *894:72 3.34672e-05
78 *646:43 *894:32 0
79 *678:12 *894:83 0.000125724
80 *880:12 *894:12 0.00011292
81 *880:59 *894:72 3.57844e-05
82 *880:61 *894:72 0.000310292
83 *880:91 *894:72 0.000312848
84 *880:102 *894:83 0.000336059
85 *891:10 *4151:A 0
86 *893:25 *4153:A 4.25523e-05
*RES
1 *4154:X *894:12 20.5857 
2 *894:12 *894:22 7.80357 
3 *894:22 *894:32 19.6964 
4 *894:32 *3824:A2 14.3357 
5 *894:32 *894:51 8.42857 
6 *894:51 *3782:A2 13.8 
7 *894:51 *894:60 0.732143 
8 *894:60 *894:72 29.4643 
9 *894:72 *3784:A2 9.3 
10 *894:72 *894:83 20.0714 
11 *894:83 *4152:A 14.3357 
12 *894:83 *4153:A 31.2286 
13 *894:60 *4151:A 39.3124 
14 *894:22 *3806:A2 9.3 
15 *894:12 *3775:A2 9.3 
*END

*D_NET *895 0.00255567
*CONN
*I *3647:A1 I *D sky130_fd_sc_hd__mux2_1
*I *4374:X O *D sky130_fd_sc_hd__clkdlybuf4s25_1
*CAP
1 *3647:A1 0.000761957
2 *4374:X 0.000761957
3 *3647:A1 *3647:S 0
4 *3647:A1 *909:72 0
5 *3647:A1 *909:89 0
6 o_receive_data[6] *3647:A1 0
7 o_receive_data[7] *3647:A1 0.000643751
8 *3643:A1 *3647:A1 5.33882e-05
9 *3645:A1 *3647:A1 0.000184645
10 *3647:A0 *3647:A1 5.52238e-05
11 *3871:D *3647:A1 9.47456e-05
12 *3875:D *3647:A1 0
13 *4366:A *3647:A1 0
14 *4372:A *3647:A1 0
*RES
1 *4374:X *3647:A1 45.7071 
*END

*D_NET *896 0.0211527
*CONN
*I *3814:A2 I *D sky130_fd_sc_hd__o21a_2
*I *3626:A2 I *D sky130_fd_sc_hd__o21a_2
*I *3819:A2 I *D sky130_fd_sc_hd__o21a_2
*I *3815:A2 I *D sky130_fd_sc_hd__o21a_2
*I *3816:A2 I *D sky130_fd_sc_hd__o21a_2
*I *3818:A2 I *D sky130_fd_sc_hd__o21a_2
*I *3820:A2 I *D sky130_fd_sc_hd__o21a_2
*I *3822:A2 I *D sky130_fd_sc_hd__o21a_2
*I *3821:A2 I *D sky130_fd_sc_hd__o21a_2
*I *3817:A2 I *D sky130_fd_sc_hd__o21a_2
*I *4155:X O *D sky130_fd_sc_hd__clkdlybuf4s25_1
*CAP
1 *3814:A2 0
2 *3626:A2 0.00108966
3 *3819:A2 0.000373696
4 *3815:A2 5.21265e-05
5 *3816:A2 0
6 *3818:A2 7.10687e-05
7 *3820:A2 0.000987296
8 *3822:A2 0
9 *3821:A2 7.4197e-05
10 *3817:A2 0.000317543
11 *4155:X 0
12 *896:133 0.00197063
13 *896:123 0.000671307
14 *896:110 0.000459264
15 *896:56 0.00105231
16 *896:45 0.000550325
17 *896:39 0.000618394
18 *896:31 0.00069782
19 *896:10 0.00121851
20 *896:4 0.000582464
21 *3626:A2 *3488:A 0.000150625
22 *3626:A2 *3489:A_N 0
23 *3626:A2 *1069:18 0
24 *3820:A2 *3568:B1 4.0715e-05
25 *3820:A2 *904:63 5.41797e-06
26 *3820:A2 *1076:12 0
27 *3820:A2 *1077:27 6.87574e-05
28 *896:10 *4239:A 5.52302e-05
29 *896:31 *4184:A 0.000253901
30 *896:31 *1118:14 7.32884e-05
31 *896:110 *910:20 0.000369825
32 *3487:B1 *3626:A2 0.000158925
33 *3490:B *3626:A2 0.000200413
34 *3548:A2 *896:133 0.00014285
35 *3548:B1 *3626:A2 0.000341252
36 *3548:B1 *896:133 0.000460268
37 *3549:A1 *3626:A2 0
38 *3549:A2 *3626:A2 0
39 *3549:B1 *896:133 0
40 *3554:A2 *896:31 0.000399245
41 *3555:A2 *3815:A2 5.33005e-05
42 *3557:B *896:10 4.43256e-05
43 *3557:B *896:110 7.43578e-06
44 *3572:B *3820:A2 0.000437756
45 *3626:A1 *3626:A2 0
46 *3634:C_N *3817:A2 1.76135e-05
47 *3650:A1 *896:45 0
48 *3808:B1 *3626:A2 8.16036e-05
49 *3815:A1 *3815:A2 0.000136958
50 *3815:A1 *896:110 4.18895e-05
51 *3815:B1 *3815:A2 1.98839e-05
52 *3816:B1 *896:31 2.83425e-05
53 *3816:B1 *896:39 6.56265e-05
54 *3817:B1 *3817:A2 5.52238e-05
55 *3818:A1 *3818:A2 6.05161e-06
56 *3818:A1 *896:45 1.98839e-05
57 *3820:A1 *3820:A2 3.69047e-06
58 *3820:B1 *3820:A2 3.69047e-06
59 *3821:A1 *896:45 1.98839e-05
60 *3822:A1 *3820:A2 0
61 *3822:A1 *896:45 0
62 *3822:A1 *896:56 0
63 *3822:B1 *3820:A2 2.31791e-05
64 *3822:B1 *896:45 3.17148e-05
65 *3822:B1 *896:56 0.00011891
66 *4007:CLK *3626:A2 0
67 *4007:CLK *896:133 0
68 *4007:RESET_B *896:123 0.000152333
69 *4009:RESET_B *3817:A2 0.000721098
70 *4009:RESET_B *896:10 0.000447638
71 *4012:RESET_B *3820:A2 5.74499e-06
72 *4014:CLK *3820:A2 0
73 *4014:RESET_B *3820:A2 0
74 *4046:D *896:31 5.50052e-05
75 *4123:A *3817:A2 2.06112e-05
76 *4128:A *3820:A2 0.000211672
77 *4246:A *896:39 1.5864e-05
78 *4293:A *3626:A2 0
79 *272:20 *896:45 0.00040105
80 *483:86 *3626:A2 0
81 *487:12 *3626:A2 0
82 *503:16 *3820:A2 7.8178e-06
83 *613:103 *3820:A2 0
84 *655:18 *3818:A2 1.4796e-05
85 *655:18 *3821:A2 5.33005e-05
86 *655:20 *3821:A2 9.90367e-05
87 *655:84 *3817:A2 0.000362419
88 *655:84 *896:10 0.000117649
89 *656:69 *896:10 0.000275714
90 *656:69 *896:123 0.000609768
91 *657:23 *896:10 0.000167031
92 *657:53 *3819:A2 0.000785316
93 *881:23 *896:31 8.10737e-06
94 *881:23 *896:39 1.12713e-05
95 *881:29 *896:39 0.000116612
96 *881:65 *896:110 0.000368104
97 *881:90 *896:110 9.25014e-06
98 *881:90 *896:123 0.000260731
99 *881:103 *896:133 0.00113048
*RES
1 *4155:X *896:4 9.3 
2 *896:4 *896:10 15.6964 
3 *896:10 *3817:A2 24.6929 
4 *896:10 *896:31 13.8214 
5 *896:31 *896:39 12.1964 
6 *896:39 *896:45 10.4821 
7 *896:45 *3821:A2 15.1571 
8 *896:45 *896:56 1.64286 
9 *896:56 *3822:A2 13.8 
10 *896:56 *3820:A2 40.9429 
11 *896:39 *3818:A2 10.5679 
12 *896:31 *3816:A2 9.3 
13 *896:4 *896:110 16 
14 *896:110 *3815:A2 10.6571 
15 *896:110 *896:123 16.7143 
16 *896:123 *896:133 19.4464 
17 *896:133 *3819:A2 21.3179 
18 *896:133 *3626:A2 38.2107 
19 *896:123 *3814:A2 9.3 
*END

*D_NET *897 0.0128582
*CONN
*I *3808:A2 I *D sky130_fd_sc_hd__o21a_2
*I *3809:A2 I *D sky130_fd_sc_hd__o21a_2
*I *3807:A2 I *D sky130_fd_sc_hd__o21a_2
*I *3810:A2 I *D sky130_fd_sc_hd__o21a_2
*I *3762:A2 I *D sky130_fd_sc_hd__o21a_2
*I *3811:A2 I *D sky130_fd_sc_hd__o21a_2
*I *3812:A2 I *D sky130_fd_sc_hd__o21a_2
*I *3813:A2 I *D sky130_fd_sc_hd__o21a_2
*I *4156:X O *D sky130_fd_sc_hd__clkdlybuf4s25_1
*CAP
1 *3808:A2 2.83028e-05
2 *3809:A2 0.000241208
3 *3807:A2 0.000768025
4 *3810:A2 0.000180986
5 *3762:A2 7.00517e-05
6 *3811:A2 0
7 *3812:A2 0
8 *3813:A2 6.31001e-05
9 *4156:X 0
10 *897:60 0.00135192
11 *897:58 0.000703325
12 *897:54 0.000914493
13 *897:39 0.00123112
14 *897:26 0.00045306
15 *897:17 0.000261408
16 *897:6 0.000205535
17 *3809:A2 *3532:A 5.52238e-05
18 *3809:A2 *1087:10 7.08001e-05
19 *3810:A2 *3490:A 0.000130456
20 *3810:A2 *3490:D_N 0.000138881
21 *897:39 *902:96 0.000154114
22 *897:54 *902:96 0
23 *897:60 *3490:A 0.000211212
24 *897:60 *4292:A 9.11365e-06
25 *897:60 *1071:64 0.000374422
26 *897:60 *1079:10 0.000170373
27 *897:60 *1079:12 1.17968e-05
28 *897:60 *1087:10 0.000133447
29 *3530:A1 *3810:A2 0.000101545
30 *3530:A1 *897:60 5.66157e-05
31 *3530:A2 *3810:A2 2.24763e-05
32 *3539:B *897:54 7.3237e-05
33 *3626:A1 *897:60 0
34 *3762:B1 *897:54 0.000179025
35 *3807:B1 *3807:A2 4.45768e-06
36 *3808:B1 *897:54 0.00026711
37 *3808:B1 *897:58 4.87953e-05
38 *3809:A1 *3809:A2 0.00019314
39 *3809:B1 *3809:A2 0.000271345
40 *3813:A1 *3813:A2 0.000254337
41 *3813:A1 *897:17 0.00039642
42 *3855:SET_B *897:54 0.000100823
43 *4134:A *897:54 0.000230475
44 *142:12 *3807:A2 0.000559122
45 *451:10 *897:60 0.000342715
46 *485:10 *897:54 0
47 *656:69 *3813:A2 5.80706e-06
48 *656:78 *3813:A2 0.000138005
49 *656:78 *897:17 0.00027236
50 *656:78 *897:26 1.41029e-05
51 *656:89 *897:26 0.000177823
52 *656:89 *897:39 1.17968e-05
53 *882:19 *897:17 0.000119618
54 *882:19 *897:26 3.51442e-05
55 *882:28 *897:26 0.000330546
56 *882:28 *897:39 6.0038e-05
57 *882:41 *3762:A2 5.41494e-05
58 *882:41 *897:39 0.00048225
59 *882:90 *3809:A2 2.09897e-05
60 *882:90 *897:60 0.000101545
*RES
1 *4156:X *897:6 13.8 
2 *897:6 *3813:A2 16.9607 
3 *897:6 *897:17 6.5 
4 *897:17 *3812:A2 13.8 
5 *897:17 *897:26 4.67857 
6 *897:26 *3811:A2 13.8 
7 *897:26 *897:39 13.3036 
8 *897:39 *3762:A2 10.6571 
9 *897:39 *897:54 24.4107 
10 *897:54 *897:58 5.44643 
11 *897:58 *897:60 12.5714 
12 *897:60 *3810:A2 17.7286 
13 *897:60 *3807:A2 24.1036 
14 *897:58 *3809:A2 19.7643 
15 *897:54 *3808:A2 9.72857 
*END

*D_NET *898 0.0136911
*CONN
*I *3828:A2 I *D sky130_fd_sc_hd__o21a_2
*I *3823:A2 I *D sky130_fd_sc_hd__o21a_2
*I *3780:A2 I *D sky130_fd_sc_hd__o21a_2
*I *3826:A2 I *D sky130_fd_sc_hd__o21a_2
*I *3785:A2 I *D sky130_fd_sc_hd__o21a_2
*I *3781:A2 I *D sky130_fd_sc_hd__o21a_2
*I *3779:A2 I *D sky130_fd_sc_hd__o21a_2
*I *3783:A2 I *D sky130_fd_sc_hd__o21a_2
*I *3827:A2 I *D sky130_fd_sc_hd__o21a_2
*I *3825:A2 I *D sky130_fd_sc_hd__o21a_2
*I *4157:X O *D sky130_fd_sc_hd__clkdlybuf4s25_1
*CAP
1 *3828:A2 2.31425e-05
2 *3823:A2 0.000149475
3 *3780:A2 0.000164561
4 *3826:A2 8.62686e-05
5 *3785:A2 6.67936e-05
6 *3781:A2 0
7 *3779:A2 0.000470231
8 *3783:A2 6.55176e-05
9 *3827:A2 0.000253023
10 *3825:A2 7.74654e-05
11 *4157:X 0.000131919
12 *898:126 0.000375065
13 *898:102 0.000496965
14 *898:91 0.000543764
15 *898:78 0.000356954
16 *898:46 0.000877173
17 *898:18 0.000410607
18 *898:16 0.00108632
19 *898:8 0.000977835
20 *898:6 0.000521309
21 *3779:A2 *911:30 4.57352e-05
22 *3780:A2 *4212:A 0
23 *3783:A2 *3431:B 0.000136951
24 *3828:A2 *902:66 5.52302e-05
25 *898:16 *3522:B 2.59355e-05
26 *898:16 *1070:10 5.71472e-05
27 *898:18 *3522:B 5.83304e-05
28 *898:46 *3431:B 9.82074e-06
29 *898:46 *3433:A1 0
30 *898:46 *3522:B 0.000272218
31 *898:46 *911:30 0
32 *898:46 *1067:70 6.8194e-05
33 *898:91 *3335:A 5.45614e-05
34 *898:102 *4212:A 0
35 *3432:A2 *898:91 0.00014183
36 *3779:A1 *3779:A2 0.00033261
37 *3779:A1 *898:46 6.2294e-05
38 *3780:A1 *3780:A2 0.000491151
39 *3780:A1 *898:102 7.83659e-05
40 *3781:B1 *898:78 0.000167266
41 *3781:B1 *898:126 0
42 *3785:A1 *3785:A2 2.14757e-05
43 *3785:B1 *3785:A2 0.00010096
44 *3785:B1 *898:102 0
45 *3823:A1 *3823:A2 9.24395e-05
46 *3823:B1 *3823:A2 0
47 *3825:A1 *3825:A2 0.000169804
48 *3825:A1 *898:18 5.66157e-05
49 *3827:A1 *3827:A2 0.00028769
50 *3935:RESET_B *3779:A2 0.000311488
51 *3935:RESET_B *898:46 1.02504e-05
52 *3937:CLK *3826:A2 1.24368e-05
53 *3937:D *3780:A2 0
54 *3937:RESET_B *898:102 4.78056e-05
55 *3951:CLK *3823:A2 5.52302e-05
56 *3951:RESET_B *3823:A2 0
57 *3975:CLK *3779:A2 6.05161e-06
58 *3980:RESET_B *898:18 2.23987e-05
59 *4015:CLK *898:6 6.71854e-05
60 *4015:CLK *898:8 0.000139087
61 *4015:CLK *898:16 0.00095854
62 *4015:D *898:6 1.32552e-05
63 *4015:RESET_B *3823:A2 0
64 *4015:RESET_B *898:126 0
65 *4020:D *898:18 0.000103267
66 *4020:RESET_B *898:126 6.58195e-05
67 *4233:A *3779:A2 0.000128154
68 *4233:A *3783:A2 5.33005e-05
69 *423:38 *3780:A2 0.000207287
70 *651:25 *3825:A2 1.76039e-05
71 *651:69 *3825:A2 7.06957e-05
72 *651:69 *898:18 3.13225e-05
73 *651:75 *3827:A2 2.44318e-05
74 *883:10 *3823:A2 2.58997e-05
75 *883:10 *898:126 0.000120636
76 *883:32 *898:126 9.21335e-05
77 *883:38 *898:18 0.00021192
78 *883:38 *898:46 0.000103267
79 *883:58 *898:46 0.000600525
80 *883:94 *898:78 0.000250208
81 *883:103 *898:91 0
82 *883:103 *898:102 0
83 *883:122 *3826:A2 1.98839e-05
84 *883:122 *898:102 0
85 *888:43 *898:126 0
*RES
1 *4157:X *898:6 11.0679 
2 *898:6 *898:8 2.58929 
3 *898:8 *898:16 17.0893 
4 *898:16 *898:18 3.46429 
5 *898:18 *3825:A2 16.05 
6 *898:18 *3827:A2 18.5857 
7 *898:16 *898:46 10.5 
8 *898:46 *3783:A2 15.1571 
9 *898:46 *3779:A2 24.4964 
10 *898:8 *898:78 13.0714 
11 *898:78 *3781:A2 9.3 
12 *898:78 *898:91 9.05357 
13 *898:91 *3785:A2 15.1571 
14 *898:91 *898:102 3.76786 
15 *898:102 *3826:A2 15.175 
16 *898:102 *3780:A2 19.9964 
17 *898:6 *898:126 9.78571 
18 *898:126 *3823:A2 17.1929 
19 *898:126 *3828:A2 14.3357 
*END

*D_NET *899 0.0141771
*CONN
*I *3829:A2 I *D sky130_fd_sc_hd__o21a_2
*I *3844:A2 I *D sky130_fd_sc_hd__o21a_2
*I *3843:A2 I *D sky130_fd_sc_hd__o21a_2
*I *3845:A2 I *D sky130_fd_sc_hd__o21a_2
*I *3763:A2 I *D sky130_fd_sc_hd__o21a_2
*I *3777:A2 I *D sky130_fd_sc_hd__o21a_2
*I *3787:A2 I *D sky130_fd_sc_hd__o21a_2
*I *3847:A2 I *D sky130_fd_sc_hd__o21a_2
*I *3778:A2 I *D sky130_fd_sc_hd__o21a_2
*I *3776:A2 I *D sky130_fd_sc_hd__o21a_2
*I *4158:X O *D sky130_fd_sc_hd__clkdlybuf4s25_1
*CAP
1 *3829:A2 0.000167306
2 *3844:A2 0.000189302
3 *3843:A2 4.9656e-05
4 *3845:A2 2.23854e-05
5 *3763:A2 0
6 *3777:A2 0.000303945
7 *3787:A2 0.00013709
8 *3847:A2 0
9 *3778:A2 0
10 *3776:A2 0.000302085
11 *4158:X 0.000543427
12 *899:116 0.000858428
13 *899:84 0.000639901
14 *899:82 0.000607511
15 *899:72 0.00052132
16 *899:68 0.000916456
17 *899:60 0.000612577
18 *899:47 0.000409829
19 *899:28 0.000412597
20 *3777:A2 *911:10 0
21 *3829:A2 *1113:16 2.44318e-05
22 *899:60 *1113:16 6.74911e-05
23 *899:68 *1113:16 0
24 *899:72 *901:59 0.000356035
25 *3422:B2 *899:47 9.60875e-05
26 *3426:C1 *3776:A2 0.000147474
27 *3612:A2 *899:116 0
28 *3616:A *3843:A2 0.00018372
29 *3777:A1 *3777:A2 0.000516745
30 *3777:B1 *3777:A2 8.39e-05
31 *3778:B1 *899:47 5.7661e-06
32 *3829:A1 *3829:A2 0.00040279
33 *3829:A1 *899:68 4.08637e-05
34 *3844:A1 *3844:A2 4.88637e-05
35 *3844:B1 *3844:A2 0.000225261
36 *3844:B1 *899:116 1.52978e-05
37 *3845:A1 *899:72 0.000140933
38 *3845:B1 *899:82 0.000139913
39 *3928:CLK *899:28 0.000129868
40 *4021:D *899:60 0
41 *4022:D *899:28 0
42 *4035:RESET_B *3843:A2 3.69047e-06
43 *4036:RESET_B *3844:A2 0.000125731
44 *4036:RESET_B *899:116 0.000367382
45 *4037:D *899:47 6.37566e-05
46 *4037:D *899:60 5.22045e-05
47 *4037:RESET_B *899:82 0.000292715
48 *4043:RESET_B *899:82 1.17968e-05
49 *4100:A *899:72 1.55885e-05
50 *4100:A *899:82 3.48705e-05
51 *4140:A *3777:A2 0
52 *531:38 *899:116 0
53 *607:78 *899:28 0.000439656
54 *607:78 *899:47 0.000150625
55 *607:78 *899:68 3.88819e-05
56 *607:78 *899:116 7.90803e-05
57 *611:132 *3776:A2 5.27386e-05
58 *628:91 *899:82 0.00015234
59 *628:93 *899:82 0.000175519
60 *628:127 *899:82 5.52302e-05
61 *659:16 *899:82 0.000217141
62 *659:16 *899:84 9.90431e-05
63 *659:20 *3787:A2 0.000318101
64 *659:20 *899:84 0.00034756
65 *659:99 *3843:A2 9.90367e-05
66 *662:41 *899:28 0
67 *662:41 *899:47 7.83366e-05
68 *662:52 *899:68 8.07951e-05
69 *885:28 *3776:A2 8.69414e-05
70 *885:28 *899:28 0.000676455
71 *885:28 *899:47 3.03071e-05
72 *885:39 *899:47 5.52302e-05
73 *885:39 *899:60 3.34366e-05
74 *885:50 *899:60 0.000367396
75 *885:50 *899:68 1.52978e-05
76 *885:54 *899:68 9.71197e-05
77 *885:62 *899:82 3.07455e-05
78 *885:104 *899:116 0
79 *887:67 *899:72 0.000113073
*RES
1 *4158:X *3776:A2 33.1357 
2 *4158:X *899:28 27.2286 
3 *899:28 *3778:A2 9.3 
4 *899:28 *899:47 13.6964 
5 *899:47 *3847:A2 9.3 
6 *899:47 *899:60 14.9286 
7 *899:60 *899:68 8.64286 
8 *899:68 *899:72 8.32143 
9 *899:72 *899:82 19.0714 
10 *899:82 *899:84 4.23214 
11 *899:84 *3787:A2 12.3 
12 *899:84 *3777:A2 26.0143 
13 *899:82 *3763:A2 9.3 
14 *899:72 *3845:A2 9.72857 
15 *899:68 *899:116 12.875 
16 *899:116 *3843:A2 15.5679 
17 *899:116 *3844:A2 18.5321 
18 *899:60 *3829:A2 13.5321 
*END

*D_NET *900 0.0121962
*CONN
*I *3834:A2 I *D sky130_fd_sc_hd__o21a_2
*I *3839:A2 I *D sky130_fd_sc_hd__o21a_2
*I *3838:A2 I *D sky130_fd_sc_hd__o21a_2
*I *3837:A2 I *D sky130_fd_sc_hd__o21a_2
*I *3836:A2 I *D sky130_fd_sc_hd__o21a_2
*I *3835:A2 I *D sky130_fd_sc_hd__o21a_2
*I *3833:A2 I *D sky130_fd_sc_hd__o21a_2
*I *3831:A2 I *D sky130_fd_sc_hd__o21a_2
*I *3832:A2 I *D sky130_fd_sc_hd__o21a_2
*I *3830:A2 I *D sky130_fd_sc_hd__o21a_2
*I *4159:X O *D sky130_fd_sc_hd__clkdlybuf4s25_1
*CAP
1 *3834:A2 2.72857e-05
2 *3839:A2 0.00016547
3 *3838:A2 7.21865e-05
4 *3837:A2 0
5 *3836:A2 6.03438e-05
6 *3835:A2 0
7 *3833:A2 0
8 *3831:A2 5.36391e-05
9 *3832:A2 0
10 *3830:A2 6.24635e-05
11 *4159:X 0
12 *900:101 0.000388912
13 *900:92 0.000334326
14 *900:81 0.000461803
15 *900:68 0.00060587
16 *900:58 0.000577704
17 *900:33 0.000172567
18 *900:20 0.000676437
19 *900:18 0.00157129
20 *900:6 0.00123918
21 *900:18 *3495:B 0.000136951
22 *900:58 *902:96 4.58194e-05
23 *3355:A *900:18 2.77173e-05
24 *3355:A *900:20 0.00010096
25 *3516:B *900:18 0
26 *3598:B1 *900:92 0
27 *3636:A1 *900:18 0.000177941
28 *3636:A1 *900:58 0.000117189
29 *3637:A1 *900:68 8.00806e-05
30 *3830:B1 *3830:A2 0.00014285
31 *3830:B1 *900:20 9.90431e-05
32 *3830:B1 *900:33 7.60306e-05
33 *3831:A1 *3831:A2 9.90367e-05
34 *3834:A1 *3834:A2 6.05161e-06
35 *3834:A1 *900:68 5.52302e-05
36 *3836:A1 *3836:A2 2.89016e-05
37 *3838:B1 *3838:A2 0.000139913
38 *3839:A1 *3839:A2 0.000276831
39 *3839:A1 *900:101 2.26327e-05
40 *3854:D *900:20 5.52238e-05
41 *3864:D *900:18 6.07532e-05
42 *3865:D *900:18 0.000142278
43 *4082:A *3831:A2 4.43157e-05
44 *4132:A *900:33 0
45 *4145:A *3831:A2 0.000188586
46 *4147:A *900:68 7.79781e-06
47 *4188:A *900:18 5.52238e-05
48 *660:27 *900:18 0.000424983
49 *660:68 *900:33 2.39876e-05
50 *661:19 *900:18 4.86278e-05
51 *661:26 *900:18 5.49161e-05
52 *661:30 *900:18 0.000466243
53 *661:30 *900:58 0.000125724
54 *661:30 *900:81 0
55 *661:41 *900:81 0
56 *661:41 *900:92 0
57 *661:83 *900:92 3.40128e-05
58 *661:83 *900:101 0.000186397
59 *661:94 *3839:A2 0.000273321
60 *661:94 *900:101 1.76135e-05
61 *886:18 *900:20 0.000378269
62 *886:33 *900:33 0.000146474
63 *886:74 *900:68 0.000511901
64 *886:87 *900:68 5.83304e-05
65 *886:87 *900:81 0.000334674
66 *886:100 *3836:A2 6.05161e-06
67 *886:100 *900:81 5.13015e-05
68 *886:100 *900:92 0.000187902
69 *886:111 *900:92 2.82057e-05
70 *886:111 *900:101 0.000180408
71 *887:14 *900:18 0
*RES
1 *4159:X *900:6 13.8 
2 *900:6 *900:18 24.6071 
3 *900:18 *900:20 10.8036 
4 *900:20 *3830:A2 10.6571 
5 *900:20 *900:33 11.8571 
6 *900:33 *3832:A2 9.3 
7 *900:33 *3831:A2 11.4964 
8 *900:18 *3833:A2 9.3 
9 *900:6 *900:58 7.91071 
10 *900:58 *900:68 14.0179 
11 *900:68 *3835:A2 13.8 
12 *900:68 *900:81 5.64286 
13 *900:81 *3836:A2 14.7464 
14 *900:81 *900:92 4.98214 
15 *900:92 *3837:A2 13.8 
16 *900:92 *900:101 4.98214 
17 *900:101 *3838:A2 15.1571 
18 *900:101 *3839:A2 20.3 
19 *900:58 *3834:A2 9.83571 
*END

*D_NET *901 0.020464
*CONN
*I *3840:A2 I *D sky130_fd_sc_hd__o21a_2
*I *3842:A2 I *D sky130_fd_sc_hd__o21a_2
*I *3841:A2 I *D sky130_fd_sc_hd__o21a_2
*I *3851:A2 I *D sky130_fd_sc_hd__o21a_2
*I *3852:A2 I *D sky130_fd_sc_hd__o21a_2
*I *3853:A2 I *D sky130_fd_sc_hd__o21a_2
*I *4158:A I *D sky130_fd_sc_hd__clkdlybuf4s25_1
*I *4159:A I *D sky130_fd_sc_hd__clkdlybuf4s25_1
*I *4160:X O *D sky130_fd_sc_hd__clkdlybuf4s25_1
*CAP
1 *3840:A2 0.000774842
2 *3842:A2 0
3 *3841:A2 0
4 *3851:A2 0
5 *3852:A2 0
6 *3853:A2 0.00033311
7 *4158:A 0.00108215
8 *4159:A 0.000298935
9 *4160:X 0.00113365
10 *901:107 0.00121304
11 *901:96 0.00047621
12 *901:69 0.0007536
13 *901:59 0.00172026
14 *901:51 0.00202338
15 *901:32 0.00260247
16 *3853:A2 *4190:A 5.83233e-05
17 *3853:A2 *1028:8 0.000128161
18 *4158:A *3349:A 7.32173e-05
19 *4158:A *1105:6 1.00073e-05
20 *901:32 *3350:A 5.52302e-05
21 *901:32 *3351:A 5.52238e-05
22 *901:32 *3499:A_N 9.02133e-05
23 *901:32 *3499:B 0.00017772
24 *901:51 *3578:A3 0.00022117
25 *901:51 *3578:B1 0
26 *901:51 *3580:B 1.08359e-05
27 *901:51 *1104:10 0
28 *901:51 *1105:21 2.83916e-05
29 *901:69 *4190:A 0
30 *901:107 *3501:A 0.000195547
31 *901:107 *1101:10 0
32 *3504:A *901:51 9.12446e-05
33 *3504:B *901:51 0.000200413
34 *3574:A3 *901:51 7.79781e-06
35 *3579:A1 *4158:A 3.85284e-05
36 *3587:A1 *901:32 0.000185643
37 *3608:C *901:59 5.71472e-05
38 *3610:B *901:107 0
39 *3636:A1 *4159:A 0
40 *3829:B1 *901:51 0.000173804
41 *3829:B1 *901:96 2.6726e-05
42 *3840:A1 *3840:A2 0.000567644
43 *3842:B1 *901:96 1.88578e-05
44 *3851:B1 *901:69 0.000227532
45 *3853:A1 *3853:A2 0.000344925
46 *4023:CLK *4158:A 0.000183035
47 *4024:RESET_B *4158:A 0.000222885
48 *4024:RESET_B *901:51 7.46814e-05
49 *4025:CLK *4159:A 0.000125717
50 *4032:D *3840:A2 3.79467e-05
51 *4033:RESET_B *901:107 0
52 *4035:D *901:69 0
53 *4043:RESET_B *901:59 0
54 *4044:RESET_B *3853:A2 0
55 *4081:A *901:51 2.15245e-05
56 *4081:A *901:59 9.99644e-06
57 *4100:A *901:59 0
58 *4100:A *901:69 5.59013e-05
59 *390:6 *901:59 9.80173e-05
60 *390:19 *901:59 4.18895e-05
61 *460:10 *4158:A 0.000120655
62 *460:10 *901:51 0.000430804
63 *463:8 *901:51 0.000320031
64 *466:12 *901:51 0
65 *466:12 *901:96 0
66 *466:12 *901:107 0
67 *507:16 *901:51 1.18451e-05
68 *659:58 *901:69 3.34295e-05
69 *659:75 *901:69 0.000527443
70 *659:90 *3853:A2 0
71 *659:99 *3853:A2 0.000405727
72 *661:53 *901:51 5.33005e-05
73 *662:33 *901:32 4.53889e-05
74 *885:93 *901:59 1.65558e-05
75 *885:104 *901:59 4.98055e-06
76 *887:14 *4159:A 1.00375e-05
77 *887:52 *901:96 2.11419e-05
78 *887:67 *901:59 0.000580897
79 *887:82 *901:69 0.000186662
80 *887:106 *3840:A2 5.52302e-05
81 *887:106 *901:96 3.22304e-05
82 *887:106 *901:107 0.00092404
83 *899:72 *901:59 0.000356035
*RES
1 *4160:X *4159:A 31.725 
2 *4160:X *901:32 29.175 
3 *901:32 *4158:A 29.425 
4 *901:32 *901:51 22.6786 
5 *901:51 *901:59 28 
6 *901:59 *901:69 19.1607 
7 *901:69 *3853:A2 27.1036 
8 *901:69 *3852:A2 9.3 
9 *901:59 *3851:A2 9.3 
10 *901:51 *901:96 5.53571 
11 *901:96 *3841:A2 13.8 
12 *901:96 *901:107 16.4643 
13 *901:107 *3842:A2 9.3 
14 *901:107 *3840:A2 33.0857 
*END

*D_NET *902 0.0254758
*CONN
*I *4160:A I *D sky130_fd_sc_hd__clkdlybuf4s25_1
*I *4157:A I *D sky130_fd_sc_hd__clkdlybuf4s25_1
*I *4154:A I *D sky130_fd_sc_hd__clkdlybuf4s25_1
*I *4156:A I *D sky130_fd_sc_hd__clkdlybuf4s25_1
*I *4155:A I *D sky130_fd_sc_hd__clkdlybuf4s25_1
*I *4161:X O *D sky130_fd_sc_hd__clkdlybuf4s25_1
*CAP
1 *4160:A 0
2 *4157:A 0
3 *4154:A 0
4 *4156:A 4.26984e-05
5 *4155:A 0
6 *4161:X 0.000299325
7 *902:96 0.00128397
8 *902:66 0.00237876
9 *902:50 0.00251984
10 *902:48 0.0022828
11 *902:30 0.00366928
12 *902:19 0.000865073
13 *902:10 0.000878109
14 *902:10 *1072:10 5.5782e-05
15 *902:19 *910:20 0
16 *902:19 *1072:10 6.07626e-05
17 *902:30 *910:20 0
18 *902:30 *910:22 0.000116339
19 *902:48 *3346:A 7.6644e-05
20 *902:48 *3489:B 5.52238e-05
21 *902:48 *3534:A2 1.00073e-05
22 *902:48 *3534:A3 0.000324108
23 *902:48 *1082:14 3.70855e-05
24 *902:66 *4209:A 0.000138881
25 *902:96 *910:22 0
26 *3487:B1 *902:48 3.48705e-05
27 *3529:A2 *902:66 3.5707e-05
28 *3541:A *902:48 7.6644e-05
29 *3543:A1 *902:48 1.94048e-05
30 *3546:A *902:48 9.25014e-06
31 *3807:A1 *902:48 0.000698722
32 *3807:A1 *902:50 0
33 *3807:A1 *902:66 0
34 *3828:A2 *902:66 5.52302e-05
35 *3828:B1 *902:66 0.000295784
36 *3835:B1 *902:96 9.25014e-06
37 *3855:SET_B *902:96 0
38 *3999:CLK *902:66 0.000173921
39 *3999:RESET_B *902:66 0.000126439
40 *4003:RESET_B *902:96 0.000100831
41 *4004:CLK *902:48 5.33005e-05
42 *4004:D *902:48 5.70496e-05
43 *4015:D *902:66 6.8551e-05
44 *4017:RESET_B *902:66 9.60939e-05
45 *4019:CLK *902:66 0.000166416
46 *4019:D *902:66 0.000106066
47 *4026:RESET_B *902:96 2.89016e-05
48 *4142:A *902:10 7.85933e-05
49 *4147:A *902:30 2.11362e-05
50 *4147:A *902:96 0.000103032
51 *365:16 *902:66 9.71163e-05
52 *451:10 *902:48 0.000566258
53 *651:34 *902:66 0.00126829
54 *656:109 *902:48 0.00022525
55 *656:109 *902:96 3.69047e-06
56 *660:23 *902:96 0.000629818
57 *660:104 *902:96 0.000456298
58 *661:19 *902:96 0.00063154
59 *661:26 *902:96 0.000127439
60 *661:30 *902:96 0.000602421
61 *680:10 *902:96 0.000123295
62 *828:42 *902:10 0.000153047
63 *828:42 *902:19 0.00134374
64 *828:42 *902:30 0.000856284
65 *828:42 *902:96 0.00020112
66 *882:41 *902:96 2.6949e-05
67 *883:10 *902:66 0
68 *883:32 *902:50 0
69 *883:32 *902:66 0
70 *888:35 *902:30 0.000321372
71 *888:43 *902:48 0.000132088
72 *897:39 *902:96 0.000154114
73 *897:54 *902:96 0
74 *900:58 *902:96 4.58194e-05
*RES
1 *4161:X *902:10 18.7464 
2 *902:10 *4155:A 13.8 
3 *902:10 *902:19 16.8214 
4 *902:19 *4156:A 14.3357 
5 *902:19 *902:30 10.75 
6 *902:30 *902:48 49.8214 
7 *902:48 *902:50 2.25 
8 *902:50 *902:66 44.1071 
9 *902:66 *4154:A 9.3 
10 *902:50 *4157:A 13.8 
11 *902:30 *902:96 46.9286 
12 *902:96 *4160:A 9.3 
*END

*D_NET *903 0.0133413
*CONN
*I *3601:A I *D sky130_fd_sc_hd__nor3_2
*I *3596:A I *D sky130_fd_sc_hd__nor3_2
*I *3597:B1 I *D sky130_fd_sc_hd__a21oi_2
*I *3592:B1 I *D sky130_fd_sc_hd__a21o_2
*I *3587:C1 I *D sky130_fd_sc_hd__a211oi_2
*I *3578:B1 I *D sky130_fd_sc_hd__a31o_2
*I *3611:C1 I *D sky130_fd_sc_hd__a211oi_2
*I *3615:B1 I *D sky130_fd_sc_hd__a31o_2
*I *3612:B1 I *D sky130_fd_sc_hd__a21oi_2
*I *3358:A I *D sky130_fd_sc_hd__inv_2
*I *4162:X O *D sky130_fd_sc_hd__clkdlybuf4s25_1
*CAP
1 *3601:A 0.000547385
2 *3596:A 0
3 *3597:B1 0.000261241
4 *3592:B1 3.72788e-05
5 *3587:C1 0.000361849
6 *3578:B1 0.000410271
7 *3611:C1 0
8 *3615:B1 5.08126e-05
9 *3612:B1 0.000272745
10 *3358:A 0
11 *4162:X 0.00099934
12 *903:125 0.000720431
13 *903:110 0.000554328
14 *903:80 0.000506838
15 *903:78 0.000940911
16 *903:29 0.000393597
17 *903:25 0.000628044
18 *903:12 0.000850372
19 *903:6 0.000988819
20 *3578:B1 *1097:10 0.000117144
21 *3578:B1 *1097:14 7.6021e-05
22 *3578:B1 *1097:51 5.71472e-05
23 *3578:B1 *1104:51 5.52302e-05
24 *3587:C1 *3498:C 0.000142856
25 *3587:C1 *3586:A 4.1331e-06
26 *3587:C1 *3588:A 0.000196269
27 *3587:C1 *1110:14 5.67737e-05
28 *3587:C1 *1110:33 4.8476e-05
29 *3601:A *3602:B 0
30 *3612:B1 *3501:C 0.00013168
31 *3612:B1 *3501:D 5.23057e-05
32 *3615:B1 *3501:C 2.58997e-05
33 *3615:B1 *4299:A 1.99099e-05
34 *3615:B1 *1103:21 3.92854e-05
35 *903:6 *3604:A 4.70078e-05
36 *903:12 *4283:A 5.41794e-05
37 *903:25 *3501:B 0
38 *903:25 *1100:10 0
39 *903:78 *3604:A 0.000268682
40 *3503:B *3601:A 0
41 *3504:B *3578:B1 0
42 *3573:A1 *903:12 0
43 *3574:A3 *3578:B1 0
44 *3585:A *3587:C1 0
45 *3589:B *3587:C1 9.71197e-05
46 *3590:C *3587:C1 3.2886e-05
47 *3590:C *903:78 2.40379e-05
48 *3590:C *903:80 8.98897e-05
49 *3593:B1 *3587:C1 7.80929e-05
50 *3594:A1 *3597:B1 3.81226e-05
51 *3596:B *3597:B1 5.52302e-05
52 *3596:B *3601:A 0
53 *3596:B *903:125 0
54 *3600:C *3601:A 8.359e-05
55 *3601:B *3601:A 0
56 *3601:C *3601:A 0
57 *3604:B *3601:A 0
58 *3604:B *903:125 0
59 *3605:A1 *3601:A 0.000313235
60 *3605:B1 *3601:A 0
61 *3608:B *903:25 0
62 *3608:C *903:12 0
63 *3608:C *903:25 0
64 *3611:A2 *903:25 0
65 *3829:B1 *903:6 0.000318107
66 *3829:B1 *903:12 0.000135028
67 *3842:B1 *903:25 0
68 *4021:RESET_B *903:12 0
69 *4026:D *3587:C1 5.52238e-05
70 *4031:D *3601:A 3.69047e-06
71 *4034:CLK *3612:B1 0.000146474
72 *4034:CLK *3615:B1 0.000153054
73 *4034:CLK *903:25 0
74 *390:19 *3578:B1 0.000315887
75 *390:19 *903:12 7.91281e-05
76 *463:8 *3578:B1 0
77 *507:10 *3578:B1 0
78 *507:16 *3578:B1 0
79 *515:8 *3587:C1 8.97416e-05
80 *518:27 *3597:B1 9.59992e-05
81 *518:35 *3597:B1 6.05161e-06
82 *518:35 *903:110 2.19778e-05
83 *518:35 *903:125 0.000101441
84 *524:12 *3601:A 6.09572e-05
85 *526:27 *903:125 0
86 *531:14 *903:25 0.000250376
87 *531:28 *903:25 4.14279e-05
88 *531:28 *903:29 7.32272e-05
89 *609:43 *3587:C1 0.000356716
90 *609:43 *903:80 0.000146554
91 *609:43 *903:110 9.56345e-05
92 *609:43 *903:125 6.5185e-05
93 *609:95 *3601:A 0
94 *901:51 *3578:B1 0
*RES
1 *4162:X *903:6 13.5321 
2 *903:6 *903:12 9.01786 
3 *903:12 *3358:A 13.8 
4 *903:12 *903:25 14.3929 
5 *903:25 *903:29 5.85714 
6 *903:29 *3612:B1 18.6571 
7 *903:29 *3615:B1 15.7464 
8 *903:25 *3611:C1 9.3 
9 *903:6 *3578:B1 27.4607 
10 *4162:X *903:78 22.9607 
11 *903:78 *903:80 3.46429 
12 *903:80 *3587:C1 24.8179 
13 *903:80 *3592:B1 14.3357 
14 *903:78 *903:110 2.55357 
15 *903:110 *3597:B1 17.6571 
16 *903:110 *903:125 4.07143 
17 *903:125 *3596:A 13.8 
18 *903:125 *3601:A 23.5321 
*END

*D_NET *904 0.0154064
*CONN
*I *3567:C1 I *D sky130_fd_sc_hd__a211oi_2
*I *3560:A I *D sky130_fd_sc_hd__nor2_2
*I *3557:A I *D sky130_fd_sc_hd__nor3_2
*I *3553:B1 I *D sky130_fd_sc_hd__a21oi_2
*I *3571:B1 I *D sky130_fd_sc_hd__a31o_2
*I *3552:A I *D sky130_fd_sc_hd__nor3_2
*I *3568:B1 I *D sky130_fd_sc_hd__a21oi_2
*I *3357:A I *D sky130_fd_sc_hd__inv_2
*I *3534:B1 I *D sky130_fd_sc_hd__a31o_2
*I *3543:C1 I *D sky130_fd_sc_hd__a211oi_2
*I *4163:X O *D sky130_fd_sc_hd__clkdlybuf4s25_1
*CAP
1 *3567:C1 0.00017606
2 *3560:A 0
3 *3557:A 0
4 *3553:B1 8.12043e-05
5 *3571:B1 0.000734291
6 *3552:A 0
7 *3568:B1 0.000116334
8 *3357:A 9.19068e-05
9 *3534:B1 1.78252e-05
10 *3543:C1 0.00027094
11 *4163:X 4.26997e-05
12 *904:111 0.00106264
13 *904:105 0.000527646
14 *904:94 0.000527302
15 *904:86 0.00071354
16 *904:63 0.000735136
17 *904:57 0.000671557
18 *904:44 0.00120663
19 *904:25 0.000896859
20 *904:8 0.000421381
21 *3534:B1 *3534:A3 5.33005e-05
22 *3543:C1 *3488:A 0.000353079
23 *3543:C1 *3489:A_N 5.71472e-05
24 *3543:C1 *3489:B 7.32955e-05
25 *3543:C1 *1079:10 2.94103e-05
26 *3543:C1 *1079:12 7.89494e-05
27 *3543:C1 *1079:16 1.59145e-05
28 *3568:B1 *1076:31 4.11173e-05
29 *3571:B1 *3571:A1 1.97695e-05
30 *904:8 *1079:10 4.56594e-05
31 *904:25 *3534:A3 3.68898e-05
32 *904:25 *4292:A 0.000180777
33 *904:44 *3490:A 9.14032e-05
34 *904:44 *4292:A 9.25014e-06
35 *904:44 *1071:64 5.44555e-05
36 *904:44 *1080:21 6.42242e-05
37 *904:86 *3491:D 4.53834e-05
38 *904:86 *3563:A 9.41642e-05
39 *904:105 *1073:22 0.00016698
40 *904:111 *1073:22 5.7616e-05
41 *3493:A *904:86 0.000175493
42 *3493:B *904:105 7.80714e-06
43 *3529:B1 *3357:A 2.27416e-05
44 *3529:B1 *904:57 0
45 *3530:A1 *3357:A 0
46 *3530:A1 *904:44 7.06479e-05
47 *3530:A2 *904:44 0
48 *3530:A2 *904:57 0
49 *3530:A3 *904:44 0.000144773
50 *3552:B *904:105 2.8266e-06
51 *3561:B1 *904:94 8.36638e-05
52 *3563:B *904:86 0
53 *3564:A *904:57 0
54 *3567:A1 *3567:C1 6.37237e-05
55 *3570:B1 *3568:B1 5.52238e-05
56 *3572:B *3568:B1 9.60875e-05
57 *3626:A1 *3543:C1 0.000240221
58 *3626:A1 *904:8 0.000100831
59 *3810:A1 *904:44 0.000516762
60 *3820:A1 *904:57 6.6667e-05
61 *3820:A1 *904:63 1.08359e-05
62 *3820:A2 *3568:B1 4.0715e-05
63 *3820:A2 *904:63 5.41797e-06
64 *4009:D *3553:B1 0
65 *4009:D *904:111 0.000118105
66 *4010:D *3571:B1 0.000144773
67 *4010:RESET_B *3553:B1 7.50601e-05
68 *4010:RESET_B *904:111 0
69 *4011:RESET_B *904:57 9.47456e-05
70 *4012:D *3567:C1 5.71472e-05
71 *4012:RESET_B *904:57 0.00020042
72 *4012:RESET_B *904:63 0.000196262
73 *4128:A *3568:B1 7.36162e-05
74 *4128:A *904:63 5.58757e-05
75 *389:21 *3357:A 1.92789e-05
76 *389:21 *904:44 6.25993e-05
77 *451:10 *904:25 2.95726e-05
78 *479:10 *904:44 5.71472e-05
79 *479:42 *3543:C1 0.000120126
80 *493:12 *904:105 0
81 *493:18 *904:111 0
82 *493:55 *904:94 0.000181803
83 *493:55 *904:105 4.08637e-05
84 *496:10 *904:105 0
85 *496:10 *904:111 0
86 *497:12 *904:105 0.000150618
87 *498:21 *904:86 0.000795065
88 *498:21 *904:94 6.5053e-05
89 *501:12 *904:63 3.26873e-05
90 *501:12 *904:86 4.46186e-06
91 *613:97 *3553:B1 5.58941e-05
92 *656:109 *3534:B1 2.6269e-05
93 *656:109 *904:25 0.00036056
94 *657:23 *904:105 0
95 *657:59 *904:57 0.000525844
96 *657:59 *904:63 0.000218726
97 *882:58 *904:44 7.6644e-05
*RES
1 *4163:X *904:8 15.1393 
2 *904:8 *3543:C1 22.0143 
3 *904:8 *904:25 8.33929 
4 *904:25 *3534:B1 9.83571 
5 *904:25 *904:44 25.0357 
6 *904:44 *3357:A 10.9786 
7 *904:44 *904:57 14.3393 
8 *904:57 *904:63 4.99107 
9 *904:63 *3568:B1 16.5411 
10 *904:63 *904:86 16.4554 
11 *904:86 *904:94 5.625 
12 *904:94 *3552:A 9.3 
13 *904:94 *904:105 10.0179 
14 *904:105 *904:111 9.32143 
15 *904:111 *3571:B1 18.0679 
16 *904:111 *3553:B1 20.2464 
17 *904:105 *3557:A 13.8 
18 *904:86 *3560:A 9.3 
19 *904:57 *3567:C1 16.9429 
*END

*D_NET *905 0.0178173
*CONN
*I *3329:A I *D sky130_fd_sc_hd__inv_2
*I *3462:B2 I *D sky130_fd_sc_hd__a22o_2
*I *3401:B I *D sky130_fd_sc_hd__and2_2
*I *3757:S I *D sky130_fd_sc_hd__mux2_1
*I *3759:S I *D sky130_fd_sc_hd__mux2_1
*I *3754:S I *D sky130_fd_sc_hd__mux2_1
*I *3760:S I *D sky130_fd_sc_hd__mux2_1
*I *3755:S I *D sky130_fd_sc_hd__mux2_1
*I *3758:S I *D sky130_fd_sc_hd__mux2_1
*I *3753:S I *D sky130_fd_sc_hd__mux2_1
*I *4164:X O *D sky130_fd_sc_hd__clkdlybuf4s25_1
*CAP
1 *3329:A 0.00014855
2 *3462:B2 0.000822819
3 *3401:B 0.000106878
4 *3757:S 3.98689e-05
5 *3759:S 2.23854e-05
6 *3754:S 0.00016105
7 *3760:S 0
8 *3755:S 0
9 *3758:S 0.000105773
10 *3753:S 4.86254e-05
11 *4164:X 0.000325255
12 *905:54 0.000225523
13 *905:50 0.000340946
14 *905:42 0.000679654
15 *905:34 0.000715901
16 *905:30 0.000400217
17 *905:28 0.00111926
18 *905:20 0.00174045
19 *905:16 0.00210355
20 *905:8 0.000967543
21 *3329:A *4164:A 5.78571e-05
22 *3401:B *936:33 4.40142e-05
23 *3462:B2 *3525:A1 0.000142856
24 *3462:B2 *3679:B1 0
25 *3462:B2 *948:10 2.59054e-05
26 *3753:S *3753:A1 9.60875e-05
27 *3753:S *964:37 2.28499e-05
28 *3754:S *961:26 0
29 *3754:S *962:10 4.97121e-06
30 *3758:S *4057:RESET_B 0.000196269
31 *905:16 *3468:A2 0.00016478
32 *905:16 *4164:A 8.33655e-05
33 *905:20 *4249:A 3.66944e-05
34 *905:20 *948:10 1.58213e-06
35 *905:28 *936:33 0.000119718
36 *905:42 *4058:RESET_B 1.69115e-05
37 *905:42 *962:10 8.55384e-05
38 *905:42 *962:16 1.19402e-05
39 *905:50 *3760:A1 5.97398e-05
40 *905:50 *967:16 9.92409e-05
41 *905:50 *967:22 0
42 *905:50 *969:10 0.000117381
43 *905:54 *3753:A1 0.000255966
44 *905:54 *964:37 3.4855e-05
45 *3462:A2 *3462:B2 0.000475378
46 *3462:B1 *3462:B2 5.33334e-05
47 *3525:A0 *3462:B2 0
48 *3525:S *3462:B2 0
49 *3619:A *905:42 0.000216862
50 *3619:B *3754:S 0.000159697
51 *3619:B *905:42 0.000112497
52 *3679:A2 *3462:B2 0.000148047
53 *3686:B1 *3329:A 3.52432e-05
54 *3698:A1 *3758:S 0.000185368
55 *3698:B2 *3758:S 5.79582e-06
56 *3755:A0 *905:50 9.24395e-05
57 *3755:A1 *3753:S 5.33005e-05
58 *3755:A1 *905:54 0.00022459
59 *3757:A0 *3757:S 5.92418e-05
60 *3757:A0 *905:28 0.000247458
61 *3757:A0 *905:30 1.02821e-05
62 *3757:A1 *905:30 5.52302e-05
63 *3758:A0 *3758:S 0.00031293
64 *3759:A0 *3757:S 0
65 *3759:A0 *905:30 0.000174405
66 *3759:A0 *905:34 4.65258e-05
67 *3759:A1 *905:34 0.000178847
68 *3760:A0 *905:42 4.72917e-05
69 *3760:A0 *905:50 0.00014285
70 *3974:D *905:16 8.39517e-05
71 *3983:CLK *905:20 7.48091e-05
72 *3983:D *905:20 2.89016e-05
73 *3983:RESET_B *905:16 8.91726e-05
74 *3983:RESET_B *905:20 1.20135e-05
75 *4061:D *905:30 9.90431e-05
76 *4063:D *3754:S 0.000347347
77 *4076:A *905:28 9.80173e-05
78 *4115:A *905:28 0
79 *4116:A *3462:B2 0.000214485
80 *4202:A *905:8 0.000562283
81 *4260:A *3753:S 0
82 *4302:A *3462:B2 3.34295e-05
83 *114:10 *3401:B 0.000135502
84 *114:10 *905:28 0.00039229
85 *362:25 *3329:A 8.61351e-05
86 *362:25 *905:16 7.83366e-05
87 *604:70 *905:28 2.441e-05
88 *617:18 *905:16 6.5185e-05
89 *637:10 *905:16 0
90 *637:12 *905:16 0.000198305
91 *638:37 *3462:B2 0.000187893
92 *749:12 *3401:B 5.33005e-05
93 *749:12 *905:16 6.19181e-05
94 *760:6 *3758:S 1.39726e-05
95 *875:58 *3754:S 0
96 *880:12 *3329:A 8.25512e-05
97 *894:12 *3329:A 3.69047e-06
*RES
1 *4164:X *905:8 19.675 
2 *905:8 *905:16 17.0357 
3 *905:16 *905:20 13.6607 
4 *905:20 *905:28 19.0714 
5 *905:28 *905:30 5.05357 
6 *905:30 *905:34 7.08929 
7 *905:34 *905:42 13.4464 
8 *905:42 *905:50 15.4821 
9 *905:50 *905:54 3.01786 
10 *905:54 *3753:S 10.675 
11 *905:54 *3758:S 22.6214 
12 *905:50 *3755:S 9.3 
13 *905:42 *3760:S 9.3 
14 *905:34 *3754:S 19.0143 
15 *905:30 *3759:S 9.72857 
16 *905:28 *3757:S 10.675 
17 *905:20 *3401:B 16.2821 
18 *905:16 *3462:B2 36.9071 
19 *905:8 *3329:A 17.6036 
*END

*D_NET *906 0.00466387
*CONN
*I *3327:A I *D sky130_fd_sc_hd__inv_2
*I *3406:A1 I *D sky130_fd_sc_hd__a21o_2
*I *3410:A1 I *D sky130_fd_sc_hd__a2111o_2
*I *3405:A I *D sky130_fd_sc_hd__xor2_2
*I *4375:X O *D sky130_fd_sc_hd__clkdlybuf4s25_1
*CAP
1 *3327:A 0.000125577
2 *3406:A1 0.000605375
3 *3410:A1 0.000316152
4 *3405:A 0.000175346
5 *4375:X 0
6 *906:12 0.000526484
7 *906:4 0.000765937
8 *3405:B *3405:A 0
9 *3406:B1 *3406:A1 9.90431e-05
10 *3407:B *3410:A1 6.89313e-05
11 *3408:A1 *3405:A 0.00012401
12 *3408:A1 *3410:A1 2.39148e-05
13 *3408:A1 *906:12 0.000233092
14 *3408:B1 *3406:A1 0
15 *3408:B1 *906:12 4.70078e-05
16 *3410:C1 *3410:A1 2.78608e-05
17 *3410:D1 *3410:A1 5.52238e-05
18 *3410:D1 *906:12 2.44318e-05
19 *3414:A *3406:A1 6.09143e-05
20 *3799:B1 *3406:A1 0
21 *3989:D *906:12 2.89114e-05
22 *3991:D *3406:A1 0
23 *3991:RESET_B *3406:A1 0
24 *4375:A *3405:A 0
25 *4375:A *3410:A1 5.96235e-05
26 *4375:A *906:12 9.60939e-05
27 *4391:A *3327:A 0.000125731
28 *4392:A *3405:A 6.95089e-05
29 *4394:A *3327:A 0.000125731
30 *162:6 *3327:A 0.000181796
31 *412:12 *3406:A1 0.000338351
32 *412:22 *3406:A1 1.50832e-05
33 *413:22 *3406:A1 0
34 *624:91 *3405:A 0.000125724
35 *631:27 *3410:A1 3.17578e-05
36 *631:27 *906:12 0.000181796
37 *642:14 *3410:A1 4.46186e-06
*RES
1 *4375:X *906:4 9.3 
2 *906:4 *906:12 9.48214 
3 *906:12 *3405:A 18.175 
4 *906:12 *3410:A1 17.6214 
5 *906:4 *3406:A1 29.1036 
6 *3410:A1 *3327:A 31.0107 
*END

*D_NET *907 0.0229545
*CONN
*I *3749:S I *D sky130_fd_sc_hd__mux2_1
*I *3746:S I *D sky130_fd_sc_hd__mux2_1
*I *3750:S I *D sky130_fd_sc_hd__mux2_1
*I *3747:S I *D sky130_fd_sc_hd__mux2_1
*I *3745:S I *D sky130_fd_sc_hd__mux2_1
*I *3748:S I *D sky130_fd_sc_hd__mux2_1
*I *3402:A I *D sky130_fd_sc_hd__and2_2
*I *3756:S I *D sky130_fd_sc_hd__mux2_1
*I *4164:A I *D sky130_fd_sc_hd__clkdlybuf4s25_1
*I *3525:A1 I *D sky130_fd_sc_hd__mux2_1
*I *4165:X O *D sky130_fd_sc_hd__clkdlybuf4s25_1
*CAP
1 *3749:S 5.3477e-05
2 *3746:S 0.000399531
3 *3750:S 0.000326057
4 *3747:S 3.79688e-05
5 *3745:S 0
6 *3748:S 0.000124576
7 *3402:A 0
8 *3756:S 0
9 *4164:A 0.00055672
10 *3525:A1 0.000137388
11 *4165:X 0.000331729
12 *907:104 0.000440648
13 *907:102 0.000898458
14 *907:46 0.00179315
15 *907:40 0.00216193
16 *907:32 0.00168225
17 *907:26 0.00172787
18 *907:18 0.00119781
19 *907:16 0.000777454
20 *907:12 0.000526479
21 *3525:A1 *3679:B1 0
22 *3746:S *4276:A 0.000139927
23 *3749:S *3663:B 9.26765e-05
24 *4164:A *3468:A2 0.000507757
25 *4164:A *3679:B1 4.24858e-05
26 *4164:A *4301:A 0.000457962
27 *907:12 *4165:A 5.52302e-05
28 *907:12 *934:26 0.000175519
29 *907:16 *3663:B 0.000276211
30 *907:40 *939:16 0
31 *907:46 *3468:A2 7.53109e-06
32 *907:46 *961:22 0.000692824
33 *3329:A *4164:A 5.78571e-05
34 *3402:B *907:32 0
35 *3402:B *907:40 9.25014e-06
36 *3462:B2 *3525:A1 0.000142856
37 *3664:A1 *907:26 1.41029e-05
38 *3664:S *907:12 0
39 *3664:S *907:18 0.000770315
40 *3664:S *907:26 1.02504e-05
41 *3664:S *907:102 3.34366e-05
42 *3666:S *3746:S 0.000200413
43 *3666:S *3747:S 5.52238e-05
44 *3666:S *907:102 4.18895e-05
45 *3666:S *907:104 0.000305671
46 *3667:A *3746:S 0.00010145
47 *3678:A0 *907:26 2.34204e-05
48 *3686:A1 *4164:A 5.33005e-05
49 *3686:B1 *4164:A 5.7248e-05
50 *3749:A1 *907:12 0.000258812
51 *3750:A0 *3750:S 0.000439378
52 *3752:A0 *3746:S 0.000210555
53 *3756:A0 *907:40 9.60875e-05
54 *3756:A0 *907:46 4.33174e-05
55 *3905:D *907:26 9.0553e-05
56 *3905:RESET_B *907:40 0.000159858
57 *3909:CLK *907:32 2.8266e-06
58 *3974:D *3525:A1 3.92757e-05
59 *3974:D *4164:A 6.27951e-05
60 *3979:CLK *907:40 0.000212841
61 *3979:RESET_B *907:40 0.00020304
62 *3982:CLK *907:32 0
63 *3982:SET_B *907:32 0
64 *3984:D *907:40 0
65 *4042:D *3749:S 0.000119493
66 *4042:D *907:12 5.84171e-05
67 *4042:D *907:16 5.33334e-05
68 *4042:D *907:102 0
69 *4050:RESET_B *3746:S 0.000103267
70 *4052:CLK *907:26 0.000268396
71 *4054:D *3750:S 0
72 *4060:D *907:40 7.43578e-06
73 *4202:A *4164:A 5.5671e-05
74 *4270:A *3750:S 0
75 *4282:A *907:102 9.7659e-05
76 *4390:A *3750:S 0.000136676
77 *11:10 *907:32 0
78 *11:14 *907:32 0.000214793
79 *72:10 *907:40 0
80 *353:10 *907:32 0.000218741
81 *353:10 *907:40 0
82 *617:36 *907:40 0
83 *621:10 *907:40 9.12446e-05
84 *622:78 *3748:S 0
85 *622:80 *3748:S 0
86 *622:82 *907:32 0
87 *623:101 *3750:S 7.56943e-05
88 *636:57 *907:40 0.000108209
89 *636:64 *907:40 4.57445e-05
90 *636:74 *907:40 0.000143503
91 *640:14 *907:26 0.000315158
92 *640:35 *3750:S 4.22387e-05
93 *641:10 *907:18 0.000115474
94 *641:10 *907:26 0.000149904
95 *641:37 *907:18 0.000120787
96 *641:37 *907:102 7.57869e-05
97 *643:58 *907:32 0
98 *643:67 *3748:S 0
99 *643:67 *907:32 0
100 *646:61 *3746:S 0
101 *749:12 *3525:A1 1.69115e-05
102 *749:12 *907:46 0.00027503
103 *779:10 *3746:S 1.02504e-05
104 *889:81 *907:18 0.000509322
105 *889:105 *3746:S 3.34672e-05
106 *889:105 *3747:S 1.92789e-05
107 *889:105 *907:104 7.15962e-05
108 *905:16 *4164:A 8.33655e-05
*RES
1 *4165:X *907:12 26.0857 
2 *907:12 *907:16 7.91071 
3 *907:16 *907:18 9.83929 
4 *907:18 *907:26 22.5714 
5 *907:26 *907:32 16.2321 
6 *907:32 *907:40 33.5714 
7 *907:40 *907:46 19.3214 
8 *907:46 *3525:A1 16.8 
9 *907:46 *4164:A 28.0679 
10 *907:40 *3756:S 9.3 
11 *907:32 *3402:A 9.3 
12 *907:26 *3748:S 15.7464 
13 *907:18 *3745:S 13.8 
14 *907:16 *907:102 11.9107 
15 *907:102 *907:104 3 
16 *907:104 *3747:S 10.2643 
17 *907:104 *3750:S 26.4607 
18 *907:102 *3746:S 29.1036 
19 *907:12 *3749:S 11.6393 
*END

*D_NET *908 0.023006
*CONN
*I *3638:S I *D sky130_fd_sc_hd__mux2_1
*I *3633:S I *D sky130_fd_sc_hd__mux2_1
*I *3632:S I *D sky130_fd_sc_hd__mux2_1
*I *3631:S I *D sky130_fd_sc_hd__mux2_1
*I *3628:S I *D sky130_fd_sc_hd__mux2_1
*I *3627:S I *D sky130_fd_sc_hd__mux2_1
*I *3630:S I *D sky130_fd_sc_hd__mux2_1
*I *3646:S I *D sky130_fd_sc_hd__mux2_1
*I *3644:S I *D sky130_fd_sc_hd__mux2_1
*I *3629:S I *D sky130_fd_sc_hd__mux2_1
*I *4166:X O *D sky130_fd_sc_hd__clkdlybuf4s25_1
*CAP
1 *3638:S 0
2 *3633:S 0
3 *3632:S 0
4 *3631:S 7.24028e-05
5 *3628:S 0
6 *3627:S 0.000312496
7 *3630:S 0
8 *3646:S 0.000424826
9 *3644:S 0.00258617
10 *3629:S 8.97215e-05
11 *4166:X 0.000293002
12 *908:77 0.00333418
13 *908:73 0.000641879
14 *908:63 0.000757817
15 *908:59 0.00116096
16 *908:49 0.00156611
17 *908:32 0.00144959
18 *908:18 0.00114773
19 *908:16 0.000678453
20 *908:10 0.000724226
21 *3627:S *3857:RESET_B 0.000125717
22 *3627:S *913:44 0.00019763
23 *3627:S *983:14 0
24 *3644:S *929:10 0
25 *3646:S *909:37 0.00041064
26 *908:10 *3638:A0 0.000167973
27 *908:16 *3638:A0 1.99099e-05
28 *908:16 *4296:A 0.000146591
29 *908:49 *4381:A 0.000223199
30 *908:59 *3691:A0 4.58194e-05
31 *908:59 *983:14 4.36436e-05
32 *908:73 *3479:B 8.72073e-05
33 *908:77 *909:37 0.000102411
34 o_transmit_data_request *908:32 0.000247311
35 *3484:B1 *3627:S 1.00375e-05
36 *3484:B2 *908:73 0.000139338
37 *3484:C1 *3627:S 9.07502e-05
38 *3484:C1 *908:63 9.71197e-05
39 *3484:C1 *908:73 0.000136951
40 *3485:D *908:32 0
41 *3485:D *908:59 7.84811e-05
42 *3627:A0 *3627:S 0
43 *3627:A0 *908:73 0.000207178
44 *3628:A1 *908:59 4.85049e-06
45 *3628:A1 *908:63 9.35794e-06
46 *3629:A1 *3629:S 0.00015685
47 *3629:A1 *908:49 1.12323e-05
48 *3630:A0 *908:73 0.000137639
49 *3631:A1 *3631:S 0.00011294
50 *3632:A1 *908:32 5.52302e-05
51 *3633:A0 *908:16 0.000188586
52 *3633:A0 *908:18 9.80173e-05
53 *3638:A1 *908:16 0.000153054
54 *3639:A1 *908:16 0.000177948
55 *3646:A1 *3646:S 1.02504e-05
56 *3691:A1 *908:59 0.000288057
57 *3693:A1 *3627:S 5.52238e-05
58 *3857:D *908:73 0.000227532
59 *3862:D *908:18 3.30352e-05
60 *3862:RESET_B *908:10 0
61 *3862:RESET_B *908:16 0
62 *3962:D *908:16 7.43578e-06
63 *4091:A *3644:S 4.04459e-05
64 *4354:A *3644:S 0
65 *4357:A *3629:S 1.37292e-05
66 *4360:A *908:18 0.000186662
67 *4360:A *908:32 1.69961e-05
68 *4363:A *908:73 0.00021241
69 *4363:A *908:77 0.000411118
70 *4364:A *3627:S 3.18676e-05
71 *4369:A *3629:S 3.18676e-05
72 *4400:A *908:49 0.000506058
73 *4400:A *908:59 0.000934361
74 *106:18 *908:10 3.01126e-05
75 *427:55 *908:49 0
76 *564:14 *3631:S 9.5011e-05
77 *608:33 *3646:S 0
78 *618:105 *908:10 7.83587e-05
79 *618:109 *908:16 0
80 *620:58 *3631:S 1.50087e-05
81 *632:12 *3631:S 1.76135e-05
82 *646:18 *908:10 0.00022459
83 *842:10 *908:49 0.000337495
84 *850:26 *3629:S 5.09726e-05
85 *850:26 *908:49 0.000103814
86 *852:22 *908:73 1.25672e-06
87 *853:22 *3644:S 0
88 *854:26 *3629:S 5.52302e-05
89 *862:22 *3644:S 6.63305e-05
90 *862:22 *3646:S 0
*RES
1 *4166:X *908:10 20.05 
2 *908:10 *908:16 14.4643 
3 *908:16 *908:18 5.05357 
4 *908:18 *908:32 15.1087 
5 *908:32 *3629:S 16.4339 
6 *908:32 *908:49 9.83902 
7 *908:49 *908:59 12.6834 
8 *908:59 *908:63 2.19643 
9 *908:63 *908:73 18.6429 
10 *908:73 *908:77 12.3661 
11 *908:77 *3644:S 33.5586 
12 *908:77 *3646:S 23.4875 
13 *908:73 *3630:S 9.3 
14 *908:63 *3627:S 25.6393 
15 *908:59 *3628:S 9.3 
16 *908:49 *3631:S 19.6118 
17 *908:18 *3632:S 9.3 
18 *908:16 *3633:S 9.3 
19 *908:10 *3638:S 13.8 
*END

*D_NET *909 0.0215226
*CONN
*I *4166:A I *D sky130_fd_sc_hd__clkdlybuf4s25_1
*I *3647:S I *D sky130_fd_sc_hd__mux2_1
*I *3643:S I *D sky130_fd_sc_hd__mux2_1
*I *3641:S I *D sky130_fd_sc_hd__mux2_1
*I *3645:S I *D sky130_fd_sc_hd__mux2_1
*I *3640:S I *D sky130_fd_sc_hd__mux2_1
*I *3642:S I *D sky130_fd_sc_hd__mux2_1
*I *3639:S I *D sky130_fd_sc_hd__mux2_1
*I *4167:X O *D sky130_fd_sc_hd__clkdlybuf4s25_1
*CAP
1 *4166:A 3.82418e-05
2 *3647:S 9.80159e-05
3 *3643:S 0
4 *3641:S 0.000710293
5 *3645:S 0
6 *3640:S 3.04135e-05
7 *3642:S 3.56994e-05
8 *3639:S 0.000306857
9 *4167:X 6.08576e-05
10 *909:89 0.000182299
11 *909:72 0.00115164
12 *909:63 0.001019
13 *909:48 0.000813959
14 *909:37 0.00198873
15 *909:29 0.00407337
16 *909:23 0.00246655
17 *909:8 0.000554076
18 *3639:S *981:27 0.000410604
19 *3641:S *3707:A 5.7836e-06
20 *909:8 *981:27 0.000102007
21 *909:29 *3473:B 2.11693e-05
22 *909:29 *987:23 3.14193e-05
23 *909:37 *3478:B 0.000449018
24 *909:37 *3872:RESET_B 0
25 *909:37 *4309:A 0
26 *909:37 *916:77 0
27 *909:37 *916:79 0
28 *909:37 *916:81 0
29 *909:48 *916:77 0
30 *909:63 *3711:B 0
31 *909:63 *3740:B1 0.000122449
32 *909:63 *3913:RESET_B 6.97972e-05
33 *909:63 *916:77 0
34 *909:63 *977:25 0
35 *909:72 *3711:A 0
36 o_receive_data[0] *3641:S 0
37 *3473:A *909:37 0.000438857
38 *3484:A2 *909:29 0.000124427
39 *3627:A0 *909:37 2.29112e-05
40 *3639:A1 *3639:S 4.87854e-05
41 *3640:A0 *3640:S 5.33005e-05
42 *3640:A1 *909:48 5.41794e-05
43 *3640:A1 *909:63 0.000128161
44 *3642:A1 *3642:S 3.69047e-06
45 *3643:A1 *3647:S 7.30047e-05
46 *3645:A0 *909:63 4.79842e-05
47 *3645:A0 *909:72 1.19309e-05
48 *3645:A1 *909:63 0.000479637
49 *3646:A1 *909:37 0.000350271
50 *3646:A1 *909:48 7.76647e-05
51 *3646:A1 *909:63 4.16021e-05
52 *3646:S *909:37 0.00041064
53 *3647:A1 *3647:S 0
54 *3647:A1 *909:72 0
55 *3647:A1 *909:89 0
56 *3698:B2 *909:29 0.000230155
57 *3702:A2 *909:29 4.39422e-05
58 *3862:RESET_B *3639:S 0
59 *3862:RESET_B *909:8 0
60 *3870:CLK *909:63 0
61 *3873:RESET_B *909:72 9.40388e-05
62 *3903:D *909:29 9.15842e-06
63 *4113:A *909:29 0.00117375
64 *4170:A *909:29 4.58194e-05
65 *4333:A *909:63 0
66 *4354:A *909:37 4.68405e-05
67 *4363:A *909:37 0.000343793
68 *4376:A *909:23 6.05161e-06
69 *4396:A *909:72 0
70 *618:109 *3639:S 0
71 *620:6 *909:29 0.000116049
72 *620:21 *909:29 0.000273821
73 *620:54 *909:29 0.000299364
74 *623:60 *3647:S 0.000117629
75 *623:60 *909:72 8.23597e-06
76 *623:60 *909:89 8.68445e-05
77 *632:6 *909:29 2.59355e-05
78 *632:12 *909:29 0.000665909
79 *634:8 *909:23 0.000274294
80 *640:105 *909:72 6.97972e-05
81 *646:18 *909:23 0.000191474
82 *646:18 *909:29 0.000188031
83 *908:77 *909:37 0.000102411
*RES
1 *4167:X *909:8 15.1393 
2 *909:8 *3639:S 20.4429 
3 *909:8 *909:23 9.55357 
4 *909:23 *909:29 48.5536 
5 *909:29 *909:37 46.5179 
6 *909:37 *3642:S 14.3357 
7 *909:37 *909:48 2.85714 
8 *909:48 *3640:S 14.3357 
9 *909:48 *909:63 17.4821 
10 *909:63 *3645:S 13.8 
11 *909:63 *909:72 7.86607 
12 *909:72 *3641:S 22.3131 
13 *909:72 *909:89 2.09821 
14 *909:89 *3643:S 13.8 
15 *909:89 *3647:S 16.6571 
16 *909:23 *4166:A 10.0321 
*END

*D_NET *910 0.0252763
*CONN
*I *3659:S I *D sky130_fd_sc_hd__mux2_1
*I *3660:S I *D sky130_fd_sc_hd__mux2_1
*I *4167:A I *D sky130_fd_sc_hd__clkdlybuf4s25_1
*I *3636:S I *D sky130_fd_sc_hd__mux2_1
*I *3637:S I *D sky130_fd_sc_hd__mux2_1
*I *4168:X O *D sky130_fd_sc_hd__clkdlybuf4s25_1
*CAP
1 *3659:S 0
2 *3660:S 1.42885e-05
3 *4167:A 0.00230893
4 *3636:S 0.000266778
5 *3637:S 5.90098e-05
6 *4168:X 0.000307751
7 *910:60 0.00266733
8 *910:50 0.000709453
9 *910:22 0.00087491
10 *910:20 0.0038159
11 *910:10 0.00393987
12 *3660:S *1018:23 5.33005e-05
13 *4167:A *3651:A_N 9.15784e-06
14 *4167:A *4067:A 1.90936e-05
15 *4167:A *4070:A 0.000182806
16 *4167:A *4258:A 0.000177948
17 *910:10 *3395:A 8.8655e-05
18 *910:10 *4221:A 0
19 *910:10 *1013:10 8.25675e-05
20 *910:20 *4161:A 0
21 *910:20 *1072:10 0.000511193
22 *910:50 *3395:A 1.88482e-05
23 *910:50 *4218:A 0.000139907
24 *910:60 *4067:A 5.31158e-05
25 *910:60 *4258:A 3.34366e-05
26 *910:60 *1018:23 0.000178847
27 o_cmd_status_reg[5] *910:10 0.000330871
28 *3634:B *910:20 0.00109878
29 *3634:C_N *910:20 0
30 *3637:A1 *3636:S 0.000704485
31 *3637:A1 *3637:S 1.92905e-05
32 *3652:A1 *4167:A 0.000119969
33 *3652:B1 *4167:A 5.84722e-05
34 *3658:A1 *4167:A 7.48906e-05
35 *3660:A0 *910:60 0.000412842
36 *3660:A1 *910:60 1.98839e-05
37 *3813:A1 *910:20 0.000257998
38 *3813:A1 *910:22 0.00020495
39 *3817:A1 *910:20 0.000323563
40 *3877:D *4167:A 7.4057e-06
41 *3880:D *4167:A 8.51219e-05
42 *3881:D *910:60 4.48952e-05
43 *3882:D *910:60 1.32552e-05
44 *3966:CLK *4167:A 1.84865e-05
45 *4048:D *910:20 0.000174266
46 *4123:A *910:20 0
47 *4135:A *3636:S 3.45894e-05
48 *4135:A *910:22 0.000107503
49 *4147:A *3636:S 0.000779174
50 *4147:A *910:22 0.000923811
51 *4341:A *910:10 9.29696e-05
52 *4341:A *910:50 2.05484e-05
53 *4353:A *910:20 0
54 *4384:A *3660:S 5.52238e-05
55 *4384:A *910:60 2.95726e-05
56 *4385:A *910:10 0
57 *4387:A *910:10 6.86792e-05
58 *4388:A *4167:A 0
59 *4388:A *910:20 0
60 *543:31 *4167:A 2.17533e-05
61 *615:20 *4167:A 5.62846e-05
62 *656:69 *910:20 0
63 *660:23 *910:22 0
64 *728:14 *910:10 3.43519e-05
65 *728:14 *910:50 0.000152929
66 *728:14 *910:60 9.60875e-05
67 *828:10 *910:20 0
68 *881:10 *910:20 0.000250386
69 *881:65 *910:20 0.00011061
70 *881:90 *910:20 0.00061275
71 *882:19 *910:22 8.15939e-05
72 *882:28 *910:22 0.000206028
73 *882:41 *910:22 0.000223667
74 *888:35 *910:22 0.000349098
75 *896:110 *910:20 0.000369825
76 *902:19 *910:20 0
77 *902:30 *910:20 0
78 *902:30 *910:22 0.000116339
79 *902:96 *910:22 0
*RES
1 *4168:X *910:10 21.8089 
2 *910:10 *910:20 49.6342 
3 *910:20 *910:22 21.0268 
4 *910:22 *3637:S 14.7464 
5 *910:22 *3636:S 24.5857 
6 *910:10 *910:50 10.9732 
7 *910:50 *910:60 13.1964 
8 *910:60 *4167:A 44.7643 
9 *910:60 *3660:S 14.3357 
10 *910:50 *3659:S 9.3 
*END

*D_NET *911 0.0195877
*CONN
*I *3392:A1 I *D sky130_fd_sc_hd__o21a_2
*I *3391:A1 I *D sky130_fd_sc_hd__a21o_2
*I *3424:A1 I *D sky130_fd_sc_hd__a32o_2
*I *3325:A I *D sky130_fd_sc_hd__inv_2
*I *3429:A1 I *D sky130_fd_sc_hd__a22o_2
*I *3361:B I *D sky130_fd_sc_hd__nor2_2
*I *3430:A1 I *D sky130_fd_sc_hd__a22o_2
*I *3398:B I *D sky130_fd_sc_hd__nor2_2
*I *3434:A I *D sky130_fd_sc_hd__or2_2
*I *3661:A1 I *D sky130_fd_sc_hd__a21bo_2
*I *4169:X O *D sky130_fd_sc_hd__clkdlybuf4s25_1
*CAP
1 *3392:A1 0
2 *3391:A1 0.000117459
3 *3424:A1 3.68863e-05
4 *3325:A 0
5 *3429:A1 0
6 *3361:B 0.000224585
7 *3430:A1 0
8 *3398:B 0
9 *3434:A 0.00107218
10 *3661:A1 0.000470888
11 *4169:X 0.000881581
12 *911:141 0.000152383
13 *911:66 0.00156567
14 *911:62 0.000736418
15 *911:48 0.000914682
16 *911:42 0.00128698
17 *911:30 0.00129925
18 *911:24 0.0012075
19 *911:10 0.00165333
20 *3361:B *3337:A 0
21 *3361:B *993:14 0
22 *3361:B *1067:28 0.000106542
23 *3391:A1 *4190:A 0
24 *3424:A1 *3424:B1 2.44318e-05
25 *3434:A *3389:A1 0.000270243
26 *3434:A *3434:B 0.00010096
27 *3434:A *3527:A1 0
28 *3434:A *3527:A2 0.000114492
29 *3661:A1 *3998:D 0.000227764
30 *3661:A1 *936:21 1.92789e-05
31 *3661:A1 *937:12 0.000106542
32 *911:10 *3423:A 0.000139742
33 *911:10 *4169:A 0
34 *911:10 *4234:A 0
35 *911:10 *1096:8 0.000152685
36 *911:24 *3423:A 0
37 *911:24 *3424:B1 1.2747e-05
38 *911:30 *3431:B 0.000108839
39 *911:30 *3433:A1 0
40 *911:30 *1088:10 0
41 *911:30 *1092:10 6.16744e-05
42 *911:42 *3429:B2 2.44318e-05
43 *911:42 *4278:A 9.61553e-05
44 *911:42 *996:12 0.000142856
45 *911:42 *1093:18 3.91952e-05
46 *3361:A *3661:A1 0
47 *3389:B1 *3434:A 0.000127079
48 *3391:B1 *3391:A1 0.000122951
49 *3391:B1 *911:10 0
50 *3392:A2 *911:141 0.00010096
51 *3398:A *3434:A 0.000443053
52 *3398:A *3661:A1 1.02504e-05
53 *3424:B2 *911:24 0.000364253
54 *3429:A2 *911:30 9.50034e-05
55 *3430:A2 *911:42 0.000272371
56 *3430:A2 *911:48 0.000319969
57 *3430:B1 *911:62 1.02504e-05
58 *3430:B2 *3361:B 0
59 *3430:B2 *911:48 9.90367e-05
60 *3433:A2 *911:42 0.000227539
61 *3517:A *911:24 5.18923e-05
62 *3528:B1 *3434:A 1.39726e-05
63 *3662:A1 *911:66 2.89114e-05
64 *3777:A2 *911:10 0
65 *3777:B1 *911:10 0
66 *3779:A1 *911:24 0
67 *3779:A1 *911:30 0
68 *3779:A2 *911:30 4.57352e-05
69 *3782:A1 *911:62 5.7661e-06
70 *3782:B1 *911:62 0.00018427
71 *3783:B1 *911:24 0
72 *3790:B1 *3434:A 2.21972e-05
73 *3793:B1 *911:24 0
74 *3915:D *911:10 0
75 *3915:RESET_B *911:10 0.000161993
76 *3916:RESET_B *3434:A 0
77 *3929:D *911:24 3.51442e-05
78 *3930:CLK *911:10 0
79 *3930:D *911:10 0.000100823
80 *3931:D *911:42 5.30209e-05
81 *3934:RESET_B *911:62 5.33005e-05
82 *3935:RESET_B *911:30 9.11365e-06
83 *3998:RESET_B *3361:B 0
84 *4016:SET_B *3661:A1 0.000296852
85 *4040:RESET_B *3434:A 6.04162e-05
86 *4043:D *911:10 0
87 *4138:A *3434:A 0.000352989
88 *4138:A *911:62 3.06878e-06
89 *4233:A *911:30 2.51343e-06
90 *4236:A *911:62 8.40835e-05
91 *354:20 *3434:A 3.97543e-05
92 *354:20 *3661:A1 7.79781e-06
93 *359:8 *3661:A1 0
94 *360:12 *911:24 6.31653e-05
95 *424:12 *3434:A 0.000442658
96 *628:12 *911:10 0.000175526
97 *628:97 *911:10 0
98 *643:6 *911:48 3.5285e-05
99 *644:10 *3434:A 0
100 *644:55 *3434:A 0
101 *645:10 *911:62 0
102 *645:42 *911:62 0
103 *645:78 *3434:A 0
104 *645:101 *3434:A 0.000153272
105 *646:53 *3661:A1 0.000102197
106 *658:68 *911:24 0
107 *658:68 *911:30 0
108 *659:16 *911:10 0
109 *659:47 *911:10 0
110 *686:10 *3361:B 0
111 *686:10 *911:62 0
112 *723:10 *3434:A 2.2628e-05
113 *878:92 *3434:A 0
114 *880:59 *911:62 0.000370533
115 *880:61 *911:62 1.82657e-05
116 *889:16 *911:10 0.000459407
117 *889:16 *911:24 1.78353e-05
118 *889:34 *3434:A 0.000320031
119 *889:34 *911:24 0.000222955
120 *894:32 *3661:A1 0
121 *894:72 *911:62 9.25014e-06
122 *898:46 *911:30 0
*RES
1 *4169:X *911:10 38.7643 
2 *911:10 *911:24 27.6071 
3 *911:24 *911:30 13.875 
4 *911:30 *911:42 15.2143 
5 *911:42 *911:48 4.375 
6 *911:48 *911:62 22.6429 
7 *911:62 *911:66 5.03571 
8 *911:66 *3661:A1 25.4071 
9 *911:66 *3434:A 41.9964 
10 *911:62 *3398:B 9.3 
11 *911:48 *3430:A1 9.3 
12 *911:42 *3361:B 22.675 
13 *911:30 *3429:A1 9.3 
14 *911:24 *3325:A 13.8 
15 *911:10 *3424:A1 9.83571 
16 *4169:X *911:141 10.2464 
17 *911:141 *3391:A1 21.1571 
18 *911:141 *3392:A1 9.3 
*END

*D_NET *912 0.0036486
*CONN
*I *4381:A I *D sky130_fd_sc_hd__clkbuf_4
*I *3858:RESET_B I *D sky130_fd_sc_hd__dfrtp_2
*I *4170:X O *D sky130_fd_sc_hd__clkdlybuf4s25_1
*CAP
1 *4381:A 0.000479342
2 *3858:RESET_B 0.000857433
3 *4170:X 0.000378091
4 *3858:RESET_B *3476:B 0.000129868
5 *3858:RESET_B *3695:A0 2.31791e-05
6 *4381:A *3482:B 5.56679e-05
7 *4381:A *3695:A0 0
8 o_transmit_data_request *3858:RESET_B 6.39829e-05
9 *3485:B *4381:A 9.60875e-05
10 *3696:B2 *4381:A 0.000361914
11 *3861:CLK *3858:RESET_B 1.68581e-05
12 *4357:A *3858:RESET_B 0.000344162
13 *4369:A *3858:RESET_B 1.32552e-05
14 *427:55 *4381:A 0.000118595
15 *564:14 *4381:A 2.44287e-05
16 *850:26 *4381:A 0.000191194
17 *854:26 *3858:RESET_B 0.000271345
18 *908:49 *4381:A 0.000223199
*RES
1 *4170:X *3858:RESET_B 25.9518 
2 *3858:RESET_B *4381:A 29.1393 
*END

*D_NET *913 0.0105177
*CONN
*I *4062:RESET_B I *D sky130_fd_sc_hd__dfrtp_2
*I *4057:RESET_B I *D sky130_fd_sc_hd__dfrtp_2
*I *3903:RESET_B I *D sky130_fd_sc_hd__dfrtp_2
*I *3901:RESET_B I *D sky130_fd_sc_hd__dfrtp_2
*I *3902:RESET_B I *D sky130_fd_sc_hd__dfrtp_2
*I *3859:RESET_B I *D sky130_fd_sc_hd__dfrtp_2
*I *3857:RESET_B I *D sky130_fd_sc_hd__dfrtp_2
*I *3856:RESET_B I *D sky130_fd_sc_hd__dfrtp_2
*I *3860:RESET_B I *D sky130_fd_sc_hd__dfrtp_2
*I *4381:X O *D sky130_fd_sc_hd__clkbuf_4
*CAP
1 *4062:RESET_B 0.000566301
2 *4057:RESET_B 0.000881102
3 *3903:RESET_B 6.16821e-05
4 *3901:RESET_B 1.33111e-05
5 *3902:RESET_B 0.000861939
6 *3859:RESET_B 8.27118e-05
7 *3857:RESET_B 8.64498e-05
8 *3856:RESET_B 2.3197e-05
9 *3860:RESET_B 0.000905433
10 *4381:X 0.000250508
11 *913:88 0.0004853
12 *913:78 0.000330663
13 *913:44 0.000888359
14 *913:35 0.000238693
15 *913:27 0.000678122
16 *3859:RESET_B *985:6 5.33005e-05
17 *3902:RESET_B *3472:B 4.0444e-05
18 *3902:RESET_B *3477:B 7.36469e-05
19 *3902:RESET_B *4318:A 0.000218685
20 *3902:RESET_B *982:48 6.34436e-05
21 *4057:RESET_B *3622:B1 0
22 *4057:RESET_B *4224:A 0
23 *4057:RESET_B *969:14 0
24 *4062:RESET_B *4288:A 0
25 *4062:RESET_B *964:12 7.20217e-06
26 *913:27 *986:10 0.000134979
27 *913:44 *3479:B 0.00012401
28 *913:44 *4318:A 2.24646e-05
29 *913:78 *4224:A 0
30 *3484:A1 *3856:RESET_B 2.51837e-05
31 *3484:A1 *3902:RESET_B 0.000347267
32 *3484:A1 *913:27 5.44778e-05
33 *3484:A1 *913:44 0.000328029
34 *3484:A2 *913:27 9.6428e-05
35 *3484:B1 *913:27 0.000185118
36 *3484:B1 *913:44 0
37 *3484:C1 *913:27 2.41649e-05
38 *3484:C1 *913:44 4.60232e-06
39 *3485:D *913:27 1.32552e-05
40 *3627:A0 *3857:RESET_B 0
41 *3627:A0 *913:44 0
42 *3627:S *3857:RESET_B 0.000125717
43 *3627:S *913:44 0.00019763
44 *3694:B2 *3860:RESET_B 0.000174648
45 *3698:A1 *4057:RESET_B 5.5782e-05
46 *3700:B1 *3901:RESET_B 4.83849e-05
47 *3702:B1 *913:78 3.43988e-06
48 *3755:A0 *4057:RESET_B 0.000105565
49 *3758:A0 *4057:RESET_B 1.08359e-05
50 *3758:S *4057:RESET_B 0.000196269
51 *3902:CLK *3902:RESET_B 0.000101859
52 *3902:D *3902:RESET_B 3.78449e-05
53 *4057:CLK *4062:RESET_B 1.41642e-05
54 *4059:D *4057:RESET_B 0.000179656
55 *4062:D *4062:RESET_B 4.96155e-05
56 *4091:A *4062:RESET_B 2.2351e-05
57 *427:67 *3860:RESET_B 0
58 *435:22 *3901:RESET_B 2.48941e-05
59 *563:22 *913:78 3.57074e-05
60 *563:39 *913:78 5.96135e-05
61 *563:39 *913:88 6.93626e-06
62 *564:14 *3860:RESET_B 0.00022459
63 *604:24 *4062:RESET_B 0.000268762
64 *608:6 *4062:RESET_B 3.17684e-05
65 *608:10 *4062:RESET_B 3.00989e-05
66 *608:27 *4062:RESET_B 0.00013576
67 *608:122 *4062:RESET_B 4.16473e-05
68 *620:21 *3859:RESET_B 9.16671e-05
69 *792:10 *4057:RESET_B 2.26424e-05
70 *792:10 *4062:RESET_B 4.93875e-05
*RES
1 *4381:X *3860:RESET_B 22.7286 
2 *3860:RESET_B *913:27 10.0804 
3 *913:27 *3856:RESET_B 0.473214 
4 *913:27 *913:35 4.5 
5 *913:35 *3857:RESET_B 6.14286 
6 *913:35 *913:44 4.98214 
7 *913:44 *3859:RESET_B 6.20536 
8 *913:44 *3902:RESET_B 16.7768 
9 *3902:RESET_B *913:78 8.25893 
10 *913:78 *3901:RESET_B 4.97321 
11 *913:78 *913:88 1.64286 
12 *913:88 *3903:RESET_B 5.38393 
13 *913:88 *4057:RESET_B 12.8214 
14 *4057:RESET_B *4062:RESET_B 27.0268 
*END

*D_NET *914 0.0053306
*CONN
*I *4064:RESET_B I *D sky130_fd_sc_hd__dfrtp_2
*I *4059:RESET_B I *D sky130_fd_sc_hd__dfrtp_2
*I *4058:RESET_B I *D sky130_fd_sc_hd__dfrtp_2
*I *3899:RESET_B I *D sky130_fd_sc_hd__dfrtp_2
*I *3900:RESET_B I *D sky130_fd_sc_hd__dfrtp_2
*I *3898:RESET_B I *D sky130_fd_sc_hd__dfrtp_2
*I *4171:X O *D sky130_fd_sc_hd__clkdlybuf4s25_1
*CAP
1 *4064:RESET_B 0.000170748
2 *4059:RESET_B 0.000103488
3 *4058:RESET_B 0.000979966
4 *3899:RESET_B 0
5 *3900:RESET_B 0
6 *3898:RESET_B 0.000193741
7 *4171:X 0.000112207
8 *914:57 0.000739792
9 *914:29 0.00069529
10 *914:20 0.000262415
11 *4058:RESET_B *3620:A2 0.000272014
12 *4058:RESET_B *3621:B1 0
13 *4058:RESET_B *3753:A1 0.000197984
14 *4058:RESET_B *4223:A 0
15 *4058:RESET_B *961:26 0.000353139
16 *4058:RESET_B *962:16 0
17 *4064:RESET_B *967:10 2.34204e-05
18 *4064:RESET_B *967:16 3.6666e-05
19 *914:20 *4243:A 0.000147921
20 *914:29 *3620:A2 8.84088e-05
21 *914:29 *4243:A 3.50522e-05
22 *3619:B *4058:RESET_B 0.000388883
23 *4058:CLK *4059:RESET_B 0.000264678
24 *4058:CLK *914:57 0.000186379
25 *4058:D *914:57 5.52238e-05
26 *4063:RESET_B *4058:RESET_B 0
27 *4064:D *4064:RESET_B 0
28 *4092:A *4064:RESET_B 6.27272e-06
29 *4274:A *4064:RESET_B 0
30 *905:42 *4058:RESET_B 1.69115e-05
*RES
1 *4171:X *3898:RESET_B 20.2464 
2 *3898:RESET_B *914:20 6.44643 
3 *914:20 *3900:RESET_B 4.5 
4 *914:20 *914:29 3.69643 
5 *914:29 *3899:RESET_B 4.5 
6 *914:29 *4058:RESET_B 18.8929 
7 *4058:RESET_B *914:57 8.16964 
8 *914:57 *4059:RESET_B 2.52679 
9 *914:57 *4064:RESET_B 12.1607 
*END

*D_NET *915 0.00109666
*CONN
*I *4382:A I *D sky130_fd_sc_hd__clkbuf_4
*I *3906:RESET_B I *D sky130_fd_sc_hd__dfrtp_2
*I *4172:X O *D sky130_fd_sc_hd__clkdlybuf4s25_1
*CAP
1 *4382:A 9.90113e-05
2 *3906:RESET_B 0.000147461
3 *4172:X 8.61437e-05
4 *915:10 0.000332616
5 *3906:RESET_B *3907:RESET_B 0.000183726
6 *3906:RESET_B *971:8 3.69047e-06
7 *4382:A *3907:RESET_B 4.38128e-05
8 *3721:B *3906:RESET_B 4.25809e-05
9 *3722:A2 *3906:RESET_B 0
10 *3906:D *3906:RESET_B 7.8327e-05
11 *3906:D *915:10 7.92879e-05
12 *621:35 *915:10 0
13 *621:49 *915:10 0
*RES
1 *4172:X *915:10 20.2464 
2 *915:10 *3906:RESET_B 12.7143 
3 *915:10 *4382:A 11.0679 
*END

*D_NET *916 0.00811181
*CONN
*I *3870:RESET_B I *D sky130_fd_sc_hd__dfrtp_2
*I *3868:RESET_B I *D sky130_fd_sc_hd__dfrtp_2
*I *3874:RESET_B I *D sky130_fd_sc_hd__dfrtp_2
*I *3872:RESET_B I *D sky130_fd_sc_hd__dfrtp_2
*I *3913:RESET_B I *D sky130_fd_sc_hd__dfrtp_2
*I *3912:RESET_B I *D sky130_fd_sc_hd__dfrtp_2
*I *3911:RESET_B I *D sky130_fd_sc_hd__dfrtp_2
*I *3910:RESET_B I *D sky130_fd_sc_hd__dfrtp_2
*I *3907:RESET_B I *D sky130_fd_sc_hd__dfrtp_2
*I *4382:X O *D sky130_fd_sc_hd__clkbuf_4
*CAP
1 *3870:RESET_B 0
2 *3868:RESET_B 0
3 *3874:RESET_B 5.59547e-05
4 *3872:RESET_B 0.0001158
5 *3913:RESET_B 3.75945e-05
6 *3912:RESET_B 0.00090443
7 *3911:RESET_B 0.000135386
8 *3910:RESET_B 0.000369509
9 *3907:RESET_B 0.00108944
10 *4382:X 0.000198048
11 *916:81 0.000282267
12 *916:79 0.000179305
13 *916:77 0.000566118
14 *916:32 0.00102678
15 *3872:RESET_B *4309:A 6.48957e-05
16 *3907:RESET_B *971:8 3.3523e-05
17 *3912:RESET_B *974:8 0.00013551
18 *3912:RESET_B *976:8 6.25963e-05
19 *3912:RESET_B *976:21 1.98839e-05
20 *3913:RESET_B *3740:B1 0.000129868
21 *916:32 *3732:A 0.000180496
22 *916:32 *971:8 0.000160277
23 *916:77 *3706:A 9.49989e-05
24 *916:77 *3740:B1 0.000131491
25 *916:77 *4311:A 0
26 *916:77 *925:8 0
27 *916:79 *3706:A 4.79842e-05
28 *916:81 *3706:A 6.39262e-05
29 *916:81 *4309:A 2.42082e-05
30 *3640:A0 *916:77 4.00121e-05
31 *3640:A1 *916:77 5.9483e-05
32 *3727:B *916:32 0.000185643
33 *3739:A *916:77 0
34 *3739:C *916:77 0
35 *3906:RESET_B *3907:RESET_B 0.000183726
36 *3907:CLK *916:32 0.00059244
37 *3907:D *916:32 5.42547e-05
38 *3910:D *916:32 7.70035e-05
39 *3911:D *3911:RESET_B 1.77009e-05
40 *3912:D *916:77 0.000459684
41 *3913:D *916:77 5.54602e-05
42 *4382:A *3907:RESET_B 4.38128e-05
43 *595:24 *3912:RESET_B 9.66977e-05
44 *619:34 *3911:RESET_B 3.4846e-06
45 *619:34 *916:32 3.38504e-05
46 *619:51 *3911:RESET_B 2.84749e-05
47 *909:37 *3872:RESET_B 0
48 *909:37 *916:77 0
49 *909:37 *916:79 0
50 *909:37 *916:81 0
51 *909:48 *916:77 0
52 *909:63 *3913:RESET_B 6.97972e-05
53 *909:63 *916:77 0
*RES
1 *4382:X *3907:RESET_B 13.0768 
2 *3907:RESET_B *916:32 21.9018 
3 *916:32 *3910:RESET_B 4.5 
4 *916:32 *3911:RESET_B 7.10714 
5 *3910:RESET_B *3912:RESET_B 6.16071 
6 *3912:RESET_B *3913:RESET_B 10.6429 
7 *3912:RESET_B *916:77 17.6786 
8 *916:77 *916:79 1.64286 
9 *916:79 *916:81 2.85714 
10 *916:81 *3872:RESET_B 6.75 
11 *916:81 *3874:RESET_B 5.40179 
12 *916:79 *3868:RESET_B 4.5 
13 *916:77 *3870:RESET_B 4.5 
*END

*D_NET *917 0.00136319
*CONN
*I *4187:A I *D sky130_fd_sc_hd__dlygate4sd3_1
*I *3864:Q O *D sky130_fd_sc_hd__dfrtp_2
*CAP
1 *4187:A 0.000295552
2 *3864:Q 0.000295552
3 *4352:A *4187:A 0.00026117
4 *828:42 *4187:A 0.000510916
*RES
1 *3864:Q *4187:A 35.4571 
*END

*D_NET *918 0.00208357
*CONN
*I *4191:A I *D sky130_fd_sc_hd__dlygate4sd3_1
*I *3516:A I *D sky130_fd_sc_hd__nor2_2
*I *3865:Q O *D sky130_fd_sc_hd__dfrtp_2
*CAP
1 *4191:A 3.82418e-05
2 *3516:A 9.94074e-05
3 *3865:Q 0.000807932
4 *918:6 0.000945581
5 *3855:CLK *3516:A 1.02504e-05
6 *3865:D *918:6 5.33005e-05
7 *610:94 *918:6 1.58163e-05
8 *610:98 *3516:A 0.000113038
9 *685:10 *3516:A 0
*RES
1 *3865:Q *918:6 17.6393 
2 *918:6 *3516:A 19.9429 
3 *918:6 *4191:A 10.0321 
*END

*D_NET *919 0.00189085
*CONN
*I *4181:A I *D sky130_fd_sc_hd__dlygate4sd3_1
*I *3649:B I *D sky130_fd_sc_hd__and2b_2
*I *3973:Q O *D sky130_fd_sc_hd__dfrtp_2
*CAP
1 *4181:A 0
2 *3649:B 0.000294412
3 *3973:Q 0.000304261
4 *919:10 0.000598673
5 *3649:B *3649:A_N 0.000163747
6 *919:10 *1076:31 0
7 *3973:RESET_B *919:10 5.33334e-05
8 *4013:D *919:10 0.000103253
9 *4128:A *919:10 0
10 *503:24 *919:10 5.52238e-05
11 *745:10 *3649:B 0.000300788
12 *745:10 *919:10 1.71619e-05
*RES
1 *3973:Q *919:10 20.0321 
2 *919:10 *3649:B 21.5143 
3 *919:10 *4181:A 13.8 
*END

*D_NET *920 0.000937162
*CONN
*I *3649:A_N I *D sky130_fd_sc_hd__and2b_2
*I *3967:Q O *D sky130_fd_sc_hd__dfrtp_2
*CAP
1 *3649:A_N 0.000243768
2 *3967:Q 0.000243768
3 *3649:B *3649:A_N 0.000163747
4 *4086:A *3649:A_N 0.00012377
5 *4379:A *3649:A_N 0.000102283
6 *543:25 *3649:A_N 4.82744e-06
7 *614:101 *3649:A_N 5.49995e-05
*RES
1 *3967:Q *3649:A_N 33.0464 
*END

*D_NET *921 0.00323056
*CONN
*I *4245:A I *D sky130_fd_sc_hd__dlygate4sd3_1
*I *4065:A I *D sky130_fd_sc_hd__buf_2
*I *3876:Q O *D sky130_fd_sc_hd__dfrtp_2
*CAP
1 *4245:A 0
2 *4065:A 0.000849639
3 *3876:Q 0.000139652
4 *921:12 0.000989291
5 *4065:A *3393:A2 0.000295822
6 *4065:A *3393:B1_N 4.8035e-05
7 *921:12 *3393:A2 0.000180777
8 *921:12 *3395:A 0.000144749
9 *3635:C *4065:A 0.000125724
10 *3969:CLK *921:12 0.000144749
11 *4048:CLK *4065:A 0.000186401
12 *4246:A *4065:A 0.000125724
*RES
1 *3876:Q *921:12 22.0143 
2 *921:12 *4065:A 31.7286 
3 *921:12 *4245:A 9.3 
*END

*D_NET *922 0.00203491
*CONN
*I *4297:A I *D sky130_fd_sc_hd__dlygate4sd3_1
*I *3960:Q O *D sky130_fd_sc_hd__dfrtp_2
*CAP
1 *4297:A 0.000538465
2 *3960:Q 0.000538465
3 *4297:A *3651:B 4.07505e-05
4 *4297:A *3653:B 0.000182742
5 *4297:A *3685:B2 0.000137639
6 *4297:A *4177:A 0.000295741
7 *4297:A *990:10 2.50556e-05
8 *4297:A *1016:10 4.28484e-05
9 *4297:A *1023:10 8.49275e-05
10 *3970:D *4297:A 0.000148272
11 *3970:RESET_B *4297:A 0
12 *3978:D *4297:A 0
*RES
1 *3960:Q *4297:A 40.85 
*END

*D_NET *923 0.000658872
*CONN
*I *4179:A I *D sky130_fd_sc_hd__dlygate4sd3_1
*I *3962:Q O *D sky130_fd_sc_hd__dfrtp_2
*CAP
1 *4179:A 0.000176887
2 *3962:Q 0.000176887
3 *3960:D *4179:A 3.18676e-05
4 *4340:A *4179:A 0.00027323
*RES
1 *3962:Q *4179:A 23.2429 
*END

*D_NET *924 0.00543222
*CONN
*I *3452:C I *D sky130_fd_sc_hd__and3_2
*I *3447:B I *D sky130_fd_sc_hd__nand2b_2
*I *3689:A2 I *D sky130_fd_sc_hd__a21oi_2
*I *3690:A2 I *D sky130_fd_sc_hd__a21o_2
*I *3638:A0 I *D sky130_fd_sc_hd__mux2_1
*I *3866:Q O *D sky130_fd_sc_hd__dfrtp_2
*CAP
1 *3452:C 6.64933e-05
2 *3447:B 0.000189553
3 *3689:A2 1.92287e-05
4 *3690:A2 0.000204245
5 *3638:A0 0.000259669
6 *3866:Q 0.00019306
7 *924:51 0.000420874
8 *924:27 0.000766332
9 *924:19 0.000736714
10 *924:8 0.000481757
11 *3447:B *3464:A 5.49995e-05
12 *3447:B *3687:A2 7.02212e-05
13 *3447:B *1007:14 5.33005e-05
14 *3690:A2 *3689:A1 5.49995e-05
15 *924:51 *3452:B 4.06003e-05
16 *3465:A2 *3447:B 9.58689e-05
17 *3687:B1 *3690:A2 4.79864e-05
18 *3689:B1 *3690:A2 4.22794e-05
19 *3866:CLK *924:27 5.23822e-05
20 *3866:D *3638:A0 0
21 *3866:RESET_B *924:8 2.48941e-05
22 *3904:RESET_B *3447:B 5.33005e-05
23 *3977:D *3638:A0 0.000199932
24 *3977:D *924:19 3.8206e-05
25 *3977:D *924:51 0.000160604
26 *106:18 *3690:A2 5.13432e-05
27 *106:18 *924:8 0.000117392
28 *106:18 *924:27 7.52731e-05
29 *431:10 *3447:B 4.36555e-05
30 *431:10 *3452:C 1.32293e-05
31 *562:14 *3690:A2 5.50052e-05
32 *618:105 *3638:A0 7.63907e-05
33 *618:105 *924:19 2.64731e-05
34 *618:105 *924:51 4.68532e-05
35 *618:134 *924:51 2.97906e-05
36 *634:42 *3447:B 0.000208361
37 *634:42 *3452:C 2.83425e-05
38 *646:41 *3447:B 0.000144732
39 *908:10 *3638:A0 0.000167973
40 *908:16 *3638:A0 1.99099e-05
*RES
1 *3866:Q *924:8 17.6214 
2 *924:8 *3638:A0 21.2107 
3 *924:8 *924:19 1.03571 
4 *924:19 *924:27 11.75 
5 *924:27 *3690:A2 22.5321 
6 *924:27 *3689:A2 9.72857 
7 *924:19 *924:51 8.875 
8 *924:51 *3447:B 23.925 
9 *924:51 *3452:C 10.675 
*END

*D_NET *925 0.00211605
*CONN
*I *4311:A I *D sky130_fd_sc_hd__dlygate4sd3_1
*I *3710:A I *D sky130_fd_sc_hd__xnor2_2
*I *3868:Q O *D sky130_fd_sc_hd__dfrtp_2
*CAP
1 *4311:A 0.000135396
2 *3710:A 0.000382308
3 *3868:Q 0.000194413
4 *925:8 0.000712117
5 *3710:A *3706:B 9.60875e-05
6 *4311:A *3705:A 8.16036e-05
7 *4311:A *3706:B 6.76178e-05
8 *925:8 *3705:A 0.000198738
9 *925:8 *3706:A 0
10 *3739:C *4311:A 0.000247771
11 *916:77 *4311:A 0
12 *916:77 *925:8 0
*RES
1 *3868:Q *925:8 18.4786 
2 *925:8 *3710:A 19.2821 
3 *925:8 *4311:A 18.175 
*END

*D_NET *926 0.00153477
*CONN
*I *4300:A I *D sky130_fd_sc_hd__dlygate4sd3_1
*I *3712:A I *D sky130_fd_sc_hd__xnor2_2
*I *3869:Q O *D sky130_fd_sc_hd__dfrtp_2
*CAP
1 *4300:A 0.000171405
2 *3712:A 0.00010043
3 *3869:Q 0.000218429
4 *926:8 0.000490264
5 *3712:A *3707:B 0
6 *3869:RESET_B *926:8 3.77053e-05
7 *359:45 *4300:A 2.89016e-05
8 *623:107 *4300:A 0
9 *623:107 *926:8 0.000318101
10 *640:14 *926:8 2.95641e-05
11 *646:61 *3712:A 6.58195e-05
12 *646:61 *4300:A 7.41547e-05
*RES
1 *3869:Q *926:8 18.4429 
2 *926:8 *3712:A 16.05 
3 *926:8 *4300:A 17.1929 
*END

*D_NET *927 0.0025556
*CONN
*I *4303:A I *D sky130_fd_sc_hd__dlygate4sd3_1
*I *3708:A I *D sky130_fd_sc_hd__xnor2_2
*I *3870:Q O *D sky130_fd_sc_hd__dfrtp_2
*CAP
1 *4303:A 0.000844626
2 *3708:A 0.000369867
3 *3870:Q 0.00121449
4 *3870:CLK *4303:A 6.21562e-05
5 *4373:A *4303:A 6.44623e-05
*RES
1 *3870:Q *3708:A 24.4929 
2 *3870:Q *4303:A 37.9929 
*END

*D_NET *928 0.00325906
*CONN
*I *4305:A I *D sky130_fd_sc_hd__dlygate4sd3_1
*I *3707:A I *D sky130_fd_sc_hd__xnor2_2
*I *3871:Q O *D sky130_fd_sc_hd__dfrtp_2
*CAP
1 *4305:A 0.000414441
2 *3707:A 0.000217479
3 *3871:Q 0.000276524
4 *928:8 0.000908443
5 *4305:A *4310:A 0
6 *4305:A *942:12 2.07878e-05
7 *3641:A0 *928:8 7.95804e-05
8 *3641:A1 *3707:A 0.000347339
9 *3641:S *3707:A 5.7836e-06
10 *3869:CLK *3707:A 0
11 *3869:D *3707:A 0
12 *3871:RESET_B *928:8 1.46231e-05
13 *4095:A *4305:A 1.08359e-05
14 *359:61 *3707:A 4.98872e-05
15 *359:61 *4305:A 0.000685804
16 *623:8 *4305:A 0
17 *623:25 *928:8 0.000227532
*RES
1 *3871:Q *928:8 18.8536 
2 *928:8 *3707:A 19.3893 
3 *928:8 *4305:A 23.6036 
*END

*D_NET *929 0.00208652
*CONN
*I *3705:A I *D sky130_fd_sc_hd__xnor2_2
*I *4313:A I *D sky130_fd_sc_hd__dlygate4sd3_1
*I *3872:Q O *D sky130_fd_sc_hd__dfrtp_2
*CAP
1 *3705:A 0.000357917
2 *4313:A 0
3 *3872:Q 0.000382439
4 *929:10 0.000740356
5 *3705:A *3706:A 0
6 *3705:A *3706:B 0.000173804
7 *929:10 *3706:A 0
8 *929:10 *4309:A 0
9 *3644:S *929:10 0
10 *3714:B *3705:A 6.05161e-06
11 *3872:D *929:10 9.34348e-05
12 *4091:A *3705:A 0
13 *4091:A *929:10 0
14 *4311:A *3705:A 8.16036e-05
15 *862:22 *929:10 5.21799e-05
16 *925:8 *3705:A 0.000198738
*RES
1 *3872:Q *929:10 20.3536 
2 *929:10 *4313:A 13.8 
3 *929:10 *3705:A 22.2643 
*END

*D_NET *930 0.00149624
*CONN
*I *3709:A I *D sky130_fd_sc_hd__xnor2_2
*I *4298:A I *D sky130_fd_sc_hd__dlygate4sd3_1
*I *3873:Q O *D sky130_fd_sc_hd__dfrtp_2
*CAP
1 *3709:A 0.000289951
2 *4298:A 9.8898e-05
3 *3873:Q 0.000127108
4 *930:10 0.000515958
5 *3713:C *3709:A 0.000146724
6 *4396:A *4298:A 0.000202128
7 *4396:A *930:10 0.000115474
*RES
1 *3873:Q *930:10 15.9786 
2 *930:10 *4298:A 16.3536 
3 *930:10 *3709:A 19.2643 
*END

*D_NET *931 0.00161395
*CONN
*I *3706:A I *D sky130_fd_sc_hd__xnor2_2
*I *4309:A I *D sky130_fd_sc_hd__dlygate4sd3_1
*I *3874:Q O *D sky130_fd_sc_hd__dfrtp_2
*CAP
1 *3706:A 0.000328467
2 *4309:A 0.000330501
3 *3874:Q 0
4 *931:6 0.000658968
5 *3705:A *3706:A 0
6 *3872:D *4309:A 0
7 *3872:RESET_B *4309:A 6.48957e-05
8 *862:22 *4309:A 0
9 *909:37 *4309:A 0
10 *916:77 *3706:A 9.49989e-05
11 *916:79 *3706:A 4.79842e-05
12 *916:81 *3706:A 6.39262e-05
13 *916:81 *4309:A 2.42082e-05
14 *925:8 *3706:A 0
15 *929:10 *3706:A 0
16 *929:10 *4309:A 0
*RES
1 *3874:Q *931:6 13.8 
2 *931:6 *4309:A 19.925 
3 *931:6 *3706:A 21.1393 
*END

*D_NET *932 0.00330488
*CONN
*I *4310:A I *D sky130_fd_sc_hd__dlygate4sd3_1
*I *3711:A I *D sky130_fd_sc_hd__xnor2_2
*I *3875:Q O *D sky130_fd_sc_hd__dfrtp_2
*CAP
1 *4310:A 0.00089858
2 *3711:A 0.00021209
3 *3875:Q 0.00111067
4 *4310:A *3673:B 0.00027275
5 *4310:A *942:12 0
6 *3643:A0 *4310:A 0
7 *3647:A0 *4310:A 6.05161e-06
8 *3673:A *4310:A 0
9 *3674:A1 *4310:A 0
10 *3869:CLK *4310:A 0.000256708
11 *3869:D *4310:A 7.6644e-05
12 *3873:RESET_B *3711:A 0
13 *4204:A *4310:A 0
14 *4305:A *4310:A 0
15 *4396:A *3711:A 0.000297566
16 *4396:A *4310:A 0
17 *623:8 *4310:A 0.000173816
18 *909:72 *3711:A 0
*RES
1 *3875:Q *3711:A 32.3321 
2 *3875:Q *4310:A 44.1357 
*END

*D_NET *933 0.0030226
*CONN
*I *3339:A I *D sky130_fd_sc_hd__inv_2
*I *3444:B I *D sky130_fd_sc_hd__and2_2
*I *3984:Q O *D sky130_fd_sc_hd__dfrtp_2
*CAP
1 *3339:A 2.774e-05
2 *3444:B 0.000340616
3 *3984:Q 0.000435771
4 *933:12 0.000804127
5 *3339:A *4240:A 5.52302e-05
6 *3444:B *4254:A 0.000132872
7 *3444:B *936:33 0
8 *933:12 *3343:A 0
9 *933:12 *936:33 0
10 *3444:A *3444:B 5.72899e-05
11 *3450:A2 *3444:B 7.80929e-05
12 *3450:B1 *3444:B 4.90803e-05
13 *3979:CLK *3444:B 0
14 *3979:CLK *933:12 0
15 *109:14 *3444:B 0.00057215
16 *114:10 *3444:B 9.91086e-05
17 *617:32 *3444:B 0.000271345
18 *636:109 *933:12 9.91812e-05
*RES
1 *3984:Q *933:12 19.8 
2 *933:12 *3444:B 24.3714 
3 *933:12 *3339:A 14.3357 
*END

*D_NET *934 0.00939336
*CONN
*I *4165:A I *D sky130_fd_sc_hd__clkdlybuf4s25_1
*I *3752:S I *D sky130_fd_sc_hd__mux2_1
*I *3751:S I *D sky130_fd_sc_hd__mux2_1
*I *3985:Q O *D sky130_fd_sc_hd__dfrtp_2
*CAP
1 *4165:A 4.04846e-05
2 *3752:S 0.00104895
3 *3751:S 0
4 *3985:Q 0.00219513
5 *934:32 0.00120593
6 *934:28 0.000197459
7 *934:26 0.00219513
8 *3752:S *3751:A1 0.000471192
9 *934:26 *3389:A2 3.18676e-05
10 *934:26 *3440:A1 0.00014183
11 *934:26 *4175:A 1.50524e-05
12 *934:26 *4186:A 0.000402784
13 *3390:B1 *934:26 0.000476709
14 *3440:A2 *934:26 2.61613e-05
15 *3440:B1 *934:26 0.000212569
16 *3441:B *934:26 2.59921e-06
17 *3749:A1 *4165:A 1.98839e-05
18 *3749:A1 *934:32 4.70078e-05
19 *3751:A0 *3752:S 2.07491e-05
20 *3751:A0 *934:32 7.15846e-05
21 *3752:A0 *3752:S 2.5547e-05
22 *3803:B1 *3752:S 0
23 *4042:CLK *934:26 0.000141985
24 *4042:D *934:26 1.02504e-05
25 *4050:RESET_B *3752:S 1.27739e-05
26 *4055:D *3752:S 8.06331e-05
27 *4282:A *3752:S 2.51343e-06
28 *624:44 *3752:S 3.38463e-05
29 *641:37 *934:26 0
30 *646:61 *3752:S 0
31 *679:8 *934:26 1.00073e-05
32 *785:10 *934:26 2.19778e-05
33 *907:12 *4165:A 5.52302e-05
34 *907:12 *934:26 0.000175519
*RES
1 *3985:Q *934:26 49.3893 
2 *934:26 *934:28 4.5 
3 *934:28 *934:32 3.42857 
4 *934:32 *3751:S 9.3 
5 *934:32 *3752:S 34.4429 
6 *934:28 *4165:A 10.2464 
*END

*D_NET *935 0.00151922
*CONN
*I *3343:A I *D sky130_fd_sc_hd__inv_2
*I *4240:A I *D sky130_fd_sc_hd__dlygate4sd3_1
*I *3981:Q O *D sky130_fd_sc_hd__dfrtp_2
*CAP
1 *3343:A 0.00036756
2 *4240:A 0.000203037
3 *3981:Q 0.000570597
4 *3343:A *936:33 0
5 *3339:A *4240:A 5.52302e-05
6 *3957:D *3343:A 1.55885e-05
7 *3979:CLK *3343:A 0
8 *3984:D *3343:A 8.15939e-05
9 *621:10 *3343:A 0.000225616
10 *933:12 *3343:A 0
*RES
1 *3981:Q *4240:A 22.0107 
2 *3981:Q *3343:A 34.6893 
*END

*D_NET *936 0.0150651
*CONN
*I *3661:A2 I *D sky130_fd_sc_hd__a21bo_2
*I *3683:B I *D sky130_fd_sc_hd__and3b_2
*I *3443:B I *D sky130_fd_sc_hd__nor3_2
*I *3682:A1 I *D sky130_fd_sc_hd__a21oi_2
*I *3715:B1 I *D sky130_fd_sc_hd__a21oi_2
*I *3905:Q O *D sky130_fd_sc_hd__dfrtp_2
*CAP
1 *3661:A2 3.5968e-05
2 *3683:B 0
3 *3443:B 0.000305883
4 *3682:A1 0
5 *3715:B1 0.0005997
6 *3905:Q 0
7 *936:58 0.000431026
8 *936:47 0.00118799
9 *936:33 0.0034909
10 *936:21 0.0034422
11 *936:4 0.00157788
12 *3443:B *3519:A 0.000118339
13 *3443:B *990:18 0.00015643
14 *3443:B *1001:21 3.92854e-05
15 *3715:B1 *3712:B 0
16 *936:21 *3661:B1_N 0.000118724
17 *936:33 *4249:A 0.000100625
18 *936:47 *3679:A1 0.000114881
19 *936:47 *3682:A2 5.52238e-05
20 *936:47 *948:10 4.18853e-05
21 *936:47 *949:25 0.000357323
22 *936:58 *990:18 0.000131472
23 *936:58 *1001:21 6.49413e-05
24 *936:58 *1001:32 6.5185e-05
25 *3343:A *936:33 0
26 *3361:A *3661:A2 0
27 *3361:A *936:33 0
28 *3401:B *936:33 4.40142e-05
29 *3443:C *3443:B 0.000314139
30 *3444:B *936:33 0
31 *3450:A1 *936:33 2.49484e-05
32 *3450:A2 *936:33 0
33 *3470:B2 *936:33 0
34 *3471:A1 *936:33 0
35 *3525:A0 *936:47 0.000121418
36 *3661:A1 *936:21 1.92789e-05
37 *3662:B1 *936:21 1.32552e-05
38 *3679:B2 *936:33 1.88619e-05
39 *3716:B *3715:B1 0.000482877
40 *3892:CLK *936:47 3.04808e-05
41 *3905:RESET_B *3715:B1 0.000100625
42 *3905:RESET_B *936:21 0.000264134
43 *3954:RESET_B *936:33 9.90431e-05
44 *3955:CLK *936:33 0.000175519
45 *3972:RESET_B *936:47 0.000166485
46 *3983:D *936:33 0
47 *4093:A *936:33 0
48 *4115:A *936:33 8.32242e-05
49 *4377:A *936:33 2.22999e-05
50 *114:10 *936:33 0
51 *364:45 *936:47 0.000187872
52 *426:10 *3443:B 2.44318e-05
53 *621:91 *936:33 5.48488e-05
54 *636:109 *936:33 0
55 *646:53 *3715:B1 2.03532e-05
56 *646:53 *936:21 5.03878e-05
57 *707:10 *936:33 0.000191066
58 *871:10 *3715:B1 0
59 *894:32 *3661:A2 0
60 *894:32 *936:33 0
61 *905:28 *936:33 0.000119718
62 *933:12 *936:33 0
*RES
1 *3905:Q *936:4 9.3 
2 *936:4 *3715:B1 28.6214 
3 *936:4 *936:21 17.3571 
4 *936:21 *936:33 49.3214 
5 *936:33 *936:47 23.0714 
6 *936:47 *3682:A1 9.3 
7 *936:47 *936:58 8.19643 
8 *936:58 *3443:B 21.4071 
9 *936:58 *3683:B 13.8 
10 *936:21 *3661:A2 14.5321 
*END

*D_NET *937 0.00213311
*CONN
*I *3396:D I *D sky130_fd_sc_hd__and4_2
*I *3662:A2 I *D sky130_fd_sc_hd__a21o_2
*I *3883:Q O *D sky130_fd_sc_hd__dfstp_2
*CAP
1 *3396:D 0
2 *3662:A2 0.000494551
3 *3883:Q 0.000184198
4 *937:12 0.000678749
5 *3662:A2 *3396:B 0
6 *3662:A2 *3396:C 0.000356028
7 *3662:A2 *939:16 0.000175519
8 *937:12 *3396:B 2.14658e-05
9 *937:12 *3396:C 4.38128e-05
10 *3361:A *937:12 0
11 *3661:A1 *937:12 0.000106542
12 *3662:B1 *3662:A2 5.66564e-05
13 *4073:TE_B *3662:A2 1.55885e-05
*RES
1 *3883:Q *937:12 21.8 
2 *937:12 *3662:A2 26.4964 
3 *937:12 *3396:D 9.3 
*END

*D_NET *938 0.00293437
*CONN
*I *4323:A I *D sky130_fd_sc_hd__dlygate4sd3_1
*I *3470:B1 I *D sky130_fd_sc_hd__a22o_2
*I *3957:Q O *D sky130_fd_sc_hd__dfstp_2
*CAP
1 *4323:A 0.000301372
2 *3470:B1 0.000178188
3 *3957:Q 0.000483202
4 *938:12 0.000962763
5 *938:12 *3470:A2 5.84515e-05
6 *938:12 *939:16 3.05446e-05
7 *3958:RESET_B *3470:B1 0.000335922
8 *3958:RESET_B *4323:A 9.25014e-06
9 *3958:RESET_B *938:12 9.19474e-05
10 *4093:A *3470:B1 0.000198698
11 *621:91 *938:12 2.87631e-05
12 *636:109 *3470:B1 1.08359e-05
13 *646:43 *4323:A 0.000121456
14 *894:32 *3470:B1 3.84385e-05
15 *894:32 *4323:A 8.45386e-05
*RES
1 *3957:Q *938:12 20.6393 
2 *938:12 *3470:B1 18.7107 
3 *938:12 *4323:A 19.9607 
*END

*D_NET *939 0.00942942
*CONN
*I *3470:A2 I *D sky130_fd_sc_hd__a22o_2
*I *3677:B I *D sky130_fd_sc_hd__nand2_2
*I *3745:A1 I *D sky130_fd_sc_hd__mux2_1
*I *3958:Q O *D sky130_fd_sc_hd__dfrtp_2
*CAP
1 *3470:A2 0.000721353
2 *3677:B 0.000131775
3 *3745:A1 0.00055219
4 *3958:Q 0
5 *939:16 0.00167281
6 *939:4 0.00171019
7 *3745:A1 *4285:A 3.56662e-05
8 *939:16 *3396:B 0
9 *939:16 *3396:C 0.000223751
10 *939:16 *3661:B1_N 0.000311014
11 *939:16 *3748:A1 0.000183726
12 *939:16 *4228:A 0.000291883
13 *3361:A *939:16 0
14 *3402:B *939:16 0
15 *3469:A1 *3470:A2 0
16 *3470:A1 *3470:A2 7.13226e-06
17 *3471:A1 *939:16 7.83659e-05
18 *3662:A2 *939:16 0.000175519
19 *3662:B1 *939:16 2.49484e-05
20 *3664:A0 *3745:A1 0.000134519
21 *3664:A0 *939:16 0.00112802
22 *3664:A1 *3745:A1 4.88637e-05
23 *3664:S *3745:A1 9.60939e-05
24 *3678:S *3745:A1 7.80714e-06
25 *3745:A0 *3745:A1 6.30774e-05
26 *3748:A0 *939:16 0.000142053
27 *3958:D *3470:A2 0.000193118
28 *4016:CLK *939:16 0.000116412
29 *4049:RESET_B *3745:A1 3.67364e-05
30 *4053:RESET_B *3677:B 4.25523e-05
31 *4229:A *939:16 1.32552e-05
32 *4378:A *3677:B 4.43046e-05
33 *4378:A *3745:A1 8.88635e-05
34 *11:10 *3677:B 1.02442e-05
35 *11:10 *3745:A1 5.85943e-06
36 *72:10 *939:16 0.000272658
37 *621:91 *3470:A2 0.000158137
38 *640:8 *3745:A1 9.71197e-05
39 *640:14 *3745:A1 1.08359e-05
40 *646:43 *3470:A2 0.000459677
41 *880:38 *3470:A2 4.98968e-05
42 *907:40 *939:16 0
43 *938:12 *3470:A2 5.84515e-05
44 *938:12 *939:16 3.05446e-05
*RES
1 *3958:Q *939:4 9.3 
2 *939:4 *939:16 40.875 
3 *939:16 *3745:A1 33.1929 
4 *939:16 *3677:B 16.05 
5 *939:4 *3470:A2 31.0366 
*END

*D_NET *940 0.00539478
*CONN
*I *4276:A I *D sky130_fd_sc_hd__dlygate4sd3_1
*I *3669:B I *D sky130_fd_sc_hd__nand2_2
*I *4056:Q O *D sky130_fd_sc_hd__dfrtp_2
*CAP
1 *4276:A 0.000296175
2 *3669:B 0
3 *4056:Q 0.00204932
4 *940:12 0.00175314
5 o_receive_data[1] *940:12 9.80193e-05
6 o_receive_data[2] *940:12 6.74867e-05
7 *3667:A *4276:A 0
8 *3668:A1 *940:12 6.78055e-06
9 *3668:S *940:12 0.000115639
10 *3746:S *4276:A 0.000139927
11 *3803:B1 *4276:A 0.000359127
12 *3885:D *940:12 4.87669e-06
13 *3886:D *940:12 4.00276e-06
14 *4055:CLK *4276:A 3.67257e-05
15 *4055:CLK *940:12 0.000216862
16 *4056:CLK *940:12 1.93007e-05
17 *646:61 *4276:A 7.86904e-05
18 *779:10 *4276:A 0
19 *865:12 *940:12 4.4073e-05
20 *867:16 *940:12 5.7616e-05
21 *868:18 *940:12 4.7024e-05
*RES
1 *4056:Q *940:12 40.8893 
2 *940:12 *3669:B 9.3 
3 *4056:Q *4276:A 35.0464 
*END

*D_NET *941 0.00189971
*CONN
*I *4281:A I *D sky130_fd_sc_hd__dlygate4sd3_1
*I *3665:B I *D sky130_fd_sc_hd__nand2_2
*I *4055:Q O *D sky130_fd_sc_hd__dfrtp_2
*CAP
1 *4281:A 6.82389e-05
2 *3665:B 0.000728542
3 *4055:Q 0.000796781
4 *4055:D *3665:B 8.15843e-05
5 *646:61 *3665:B 0.000154762
6 *785:10 *4281:A 0
7 *877:14 *4281:A 6.97972e-05
*RES
1 *4055:Q *3665:B 37.0643 
2 *4055:Q *4281:A 29.2429 
*END

*D_NET *942 0.00134761
*CONN
*I *4269:A I *D sky130_fd_sc_hd__dlygate4sd3_1
*I *3673:B I *D sky130_fd_sc_hd__nand2_2
*I *4054:Q O *D sky130_fd_sc_hd__dfrtp_2
*CAP
1 *4269:A 0.00013981
2 *3673:B 0.000156129
3 *4054:Q 0.000150036
4 *942:12 0.000445975
5 *3647:A0 *3673:B 3.30237e-05
6 *4305:A *942:12 2.07878e-05
7 *4310:A *3673:B 0.00027275
8 *4310:A *942:12 0
9 *869:10 *3673:B 0.000129094
*RES
1 *4054:Q *942:12 20.4786 
2 *942:12 *3673:B 13.9786 
3 *942:12 *4269:A 11.4786 
*END

*D_NET *943 0.00334223
*CONN
*I *4284:A I *D sky130_fd_sc_hd__dlygate4sd3_1
*I *3663:B I *D sky130_fd_sc_hd__nand2_2
*I *3748:A1 I *D sky130_fd_sc_hd__mux2_1
*I *4053:Q O *D sky130_fd_sc_hd__dfrtp_2
*CAP
1 *4284:A 5.68661e-05
2 *3663:B 0.000351024
3 *3748:A1 0.000291757
4 *4053:Q 0
5 *943:21 0.000464331
6 *943:6 0.000348198
7 *3748:A0 *3748:A1 5.71472e-05
8 *3749:A0 *3663:B 0.000342026
9 *3749:S *3663:B 9.26765e-05
10 *4016:CLK *3748:A1 2.14757e-05
11 *4042:D *3663:B 6.65725e-05
12 *4229:A *3748:A1 1.92789e-05
13 *11:10 *3748:A1 0.000354571
14 *11:10 *943:21 8.13194e-05
15 *622:78 *3748:A1 0.000169252
16 *622:126 *3748:A1 0.000110017
17 *622:126 *943:21 5.5782e-05
18 *907:16 *3663:B 0.000276211
19 *939:16 *3748:A1 0.000183726
*RES
1 *4053:Q *943:6 13.8 
2 *943:6 *3748:A1 23.5857 
3 *943:6 *943:21 6.44643 
4 *943:21 *3663:B 18.1929 
5 *943:21 *4284:A 10.2464 
*END

*D_NET *944 0.00256179
*CONN
*I *4228:A I *D sky130_fd_sc_hd__dlygate4sd3_1
*I *3661:B1_N I *D sky130_fd_sc_hd__a21bo_2
*I *4052:Q O *D sky130_fd_sc_hd__dfrtp_2
*CAP
1 *4228:A 0.000105155
2 *3661:B1_N 0.000185201
3 *4052:Q 0.000160222
4 *944:8 0.000450577
5 *3402:B *3661:B1_N 0
6 *3662:B1 *3661:B1_N 0.000513139
7 *3662:B1 *4228:A 0.000236814
8 *4016:CLK *4228:A 9.41642e-05
9 *4073:TE_B *944:8 4.87854e-05
10 *646:53 *3661:B1_N 4.61137e-05
11 *936:21 *3661:B1_N 0.000118724
12 *939:16 *3661:B1_N 0.000311014
13 *939:16 *4228:A 0.000291883
*RES
1 *4052:Q *944:8 15.5679 
2 *944:8 *3661:B1_N 20.8759 
3 *944:8 *4228:A 17.9071 
*END

*D_NET *945 0.00196776
*CONN
*I *3752:A1 I *D sky130_fd_sc_hd__mux2_1
*I *4280:A I *D sky130_fd_sc_hd__dlygate4sd3_1
*I *3671:B I *D sky130_fd_sc_hd__nand2_2
*I *4051:Q O *D sky130_fd_sc_hd__dfrtp_2
*CAP
1 *3752:A1 0.000422377
2 *4280:A 0
3 *3671:B 2.22238e-05
4 *4051:Q 0.000514692
5 *945:12 0.000114538
6 *3666:S *3671:B 3.67142e-05
7 *3666:S *945:12 1.46264e-05
8 *3752:A0 *3752:A1 5.60962e-05
9 *4056:D *3752:A1 0.000127439
10 *4095:A *3752:A1 0.000285672
11 *624:44 *3752:A1 9.7688e-05
12 *869:10 *945:12 0.000123359
13 *889:105 *3671:B 9.90367e-05
14 *889:105 *945:12 5.33005e-05
*RES
1 *4051:Q *945:12 20.4786 
2 *945:12 *3671:B 10.2464 
3 *945:12 *4280:A 9.3 
4 *4051:Q *3752:A1 35.5643 
*END

*D_NET *946 0.00292201
*CONN
*I *3667:B I *D sky130_fd_sc_hd__nand2_2
*I *4287:A I *D sky130_fd_sc_hd__dlygate4sd3_1
*I *3751:A1 I *D sky130_fd_sc_hd__mux2_1
*I *4050:Q O *D sky130_fd_sc_hd__dfrtp_2
*CAP
1 *3667:B 0.000451475
2 *4287:A 2.52056e-05
3 *3751:A1 0.000137594
4 *4050:Q 5.05799e-05
5 *946:21 0.000548522
6 *946:8 0.000260015
7 *3667:B *3364:B 8.07951e-05
8 *3751:A0 *3751:A1 1.92789e-05
9 *3752:S *3751:A1 0.000471192
10 *3803:B1 *3667:B 0
11 *3803:B1 *946:21 0
12 *3917:CLK *4287:A 5.52302e-05
13 *4055:D *3751:A1 1.00375e-05
14 *391:10 *3667:B 2.89016e-05
15 *641:37 *3751:A1 0.000222878
16 *641:54 *3667:B 0.000377025
17 *641:54 *3751:A1 0.000118095
18 *641:54 *946:21 6.5185e-05
*RES
1 *4050:Q *946:8 14.3357 
2 *946:8 *3751:A1 19.925 
3 *946:8 *946:21 1.64286 
4 *946:21 *4287:A 14.3357 
5 *946:21 *3667:B 23.7286 
*END

*D_NET *947 0.00378331
*CONN
*I *3675:B I *D sky130_fd_sc_hd__nand2_2
*I *3750:A1 I *D sky130_fd_sc_hd__mux2_1
*I *4285:A I *D sky130_fd_sc_hd__dlygate4sd3_1
*I *4049:Q O *D sky130_fd_sc_hd__dfrtp_2
*CAP
1 *3675:B 0
2 *3750:A1 0.000360818
3 *4285:A 0.000354012
4 *4049:Q 0.000784353
5 *947:28 0.000791159
6 *3675:A *947:28 0.000223672
7 *3678:S *4285:A 0.00034545
8 *3745:A0 *4285:A 7.25984e-05
9 *3745:A1 *4285:A 3.56662e-05
10 *3884:D *4285:A 3.69697e-05
11 *4049:RESET_B *4285:A 0
12 *4118:A *947:28 0.000300221
13 *4286:A *3750:A1 4.25622e-05
14 *4390:A *3750:A1 6.12902e-05
15 *623:101 *3750:A1 0.000137983
16 *871:10 *4285:A 5.56943e-05
17 *889:66 *947:28 0.000180864
*RES
1 *4049:Q *4285:A 35.5821 
2 *4049:Q *947:28 20.1214 
3 *947:28 *3750:A1 23.3536 
4 *947:28 *3675:B 9.3 
*END

*D_NET *948 0.00477147
*CONN
*I *3331:A I *D sky130_fd_sc_hd__inv_2
*I *3458:A I *D sky130_fd_sc_hd__and3_2
*I *3448:B I *D sky130_fd_sc_hd__and4_2
*I *3465:A1 I *D sky130_fd_sc_hd__a21oi_2
*I *3452:B I *D sky130_fd_sc_hd__and3_2
*I *3983:Q O *D sky130_fd_sc_hd__dfrtp_2
*CAP
1 *3331:A 0
2 *3458:A 0
3 *3448:B 0.000406532
4 *3465:A1 0
5 *3452:B 0.00011083
6 *3983:Q 0.000338676
7 *948:20 0.000328767
8 *948:14 0.00066341
9 *948:12 0.000209053
10 *948:10 0.000508788
11 *948:20 *4306:A 0
12 *948:20 *1002:16 0
13 *948:20 *1002:45 9.41642e-05
14 *948:20 *1007:10 0.000178503
15 *3449:B1 *3448:B 0.000222666
16 *3453:A1 *3448:B 0.000226513
17 *3458:B *948:12 3.2871e-05
18 *3458:B *948:14 1.00375e-05
19 *3458:C *3448:B 1.21289e-05
20 *3458:C *948:14 3.92854e-05
21 *3458:C *948:20 3.49114e-05
22 *3459:A1 *948:12 7.17932e-05
23 *3462:B2 *948:10 2.59054e-05
24 *3465:A2 *3452:B 4.21415e-05
25 *3466:B *948:20 3.97677e-05
26 *3524:A2 *948:14 9.22948e-05
27 *3524:A2 *948:20 0.000259629
28 *3525:A0 *948:10 0
29 *3525:A0 *948:12 0
30 *3947:CLK *3448:B 4.13496e-05
31 *3972:CLK *948:12 9.17495e-05
32 *364:12 *948:12 0.000270243
33 *426:16 *948:20 1.91418e-05
34 *618:134 *3452:B 0.000239603
35 *749:12 *948:10 7.6644e-05
36 *905:20 *948:10 1.58213e-06
37 *924:51 *3452:B 4.06003e-05
38 *936:47 *948:10 4.18853e-05
*RES
1 *3983:Q *948:10 19.5321 
2 *948:10 *948:12 5.28571 
3 *948:12 *948:14 1.33929 
4 *948:14 *948:20 9.73214 
5 *948:20 *3452:B 21.4607 
6 *948:20 *3465:A1 9.3 
7 *948:14 *3448:B 19.2643 
8 *948:12 *3458:A 13.8 
9 *948:10 *3331:A 13.8 
*END

*D_NET *949 0.00477071
*CONN
*I *3403:A I *D sky130_fd_sc_hd__and2_2
*I *3404:A I *D sky130_fd_sc_hd__and2_2
*I *3443:A I *D sky130_fd_sc_hd__nor3_2
*I *3679:A1 I *D sky130_fd_sc_hd__a22o_2
*I *3892:Q O *D sky130_fd_sc_hd__dfrtp_2
*CAP
1 *3403:A 9.83221e-05
2 *3404:A 0.00017869
3 *3443:A 3.32527e-06
4 *3679:A1 0.000179046
5 *3892:Q 0
6 *949:38 0.000399635
7 *949:25 0.000614542
8 *949:4 0.000667639
9 *3404:A *3330:A 0.000140684
10 *3404:A *3404:B 1.32293e-05
11 *3404:A *981:76 0.000176941
12 *3404:A *989:20 0.000168237
13 *949:25 *3460:A_N 0
14 *949:38 *3330:A 3.29297e-05
15 *949:38 *989:20 0.000185397
16 *3403:B *3403:A 0.000115509
17 *3457:A1 *949:38 2.06112e-05
18 *3462:A2 *3679:A1 7.90803e-05
19 *3525:A0 *3679:A1 0
20 *3679:A2 *3679:A1 0.000140511
21 *3744:B1 *949:25 0
22 *3892:CLK *949:25 0.000334125
23 *3892:D *949:25 9.25014e-06
24 *3892:RESET_B *949:25 6.14123e-05
25 *3972:RESET_B *3679:A1 0.000138881
26 *3972:RESET_B *949:25 2.14658e-05
27 *3978:D *949:25 3.65833e-05
28 *3978:D *949:38 0.000102558
29 *615:86 *3403:A 6.82998e-05
30 *615:97 *3443:A 2.26973e-05
31 *615:97 *949:25 0.000177708
32 *615:97 *949:38 1.91414e-05
33 *615:121 *3403:A 2.12647e-05
34 *691:10 *949:25 7.07908e-05
35 *936:47 *3679:A1 0.000114881
36 *936:47 *949:25 0.000357323
*RES
1 *3892:Q *949:4 9.3 
2 *949:4 *3679:A1 22.9429 
3 *949:4 *949:25 18.0446 
4 *949:25 *3443:A 14.0768 
5 *949:25 *949:38 3.84821 
6 *949:38 *3404:A 19.2464 
7 *949:38 *3403:A 15.9964 
*END

*D_NET *950 0.000634313
*CONN
*I *4231:A I *D sky130_fd_sc_hd__dlygate4sd3_1
*I *3623:A2 I *D sky130_fd_sc_hd__a221o_2
*I *3897:Q O *D sky130_fd_sc_hd__dfrtp_2
*CAP
1 *4231:A 0.000128341
2 *3623:A2 4.26856e-05
3 *3897:Q 7.41029e-05
4 *950:10 0.00024513
5 *3623:A2 *3623:A1 3.28686e-05
6 *950:10 *3621:A2 3.57844e-05
7 *950:10 *3623:A1 5.58941e-05
8 *3624:C *3623:A2 1.58163e-05
9 *3624:C *4231:A 3.69047e-06
10 *3688:A1 *950:10 0
*RES
1 *3897:Q *950:10 19.9429 
2 *950:10 *3623:A2 10.0411 
3 *950:10 *4231:A 11.4786 
*END

*D_NET *951 0.00259255
*CONN
*I *3621:A2 I *D sky130_fd_sc_hd__a221o_2
*I *4244:A I *D sky130_fd_sc_hd__dlygate4sd3_1
*I *3898:Q O *D sky130_fd_sc_hd__dfrtp_2
*CAP
1 *3621:A2 0.000464871
2 *4244:A 1.58368e-05
3 *3898:Q 0.000166161
4 *951:10 0.000646868
5 *3621:A2 *3621:A1 7.86112e-05
6 *3621:A2 *3621:B1 9.08751e-05
7 *3621:A2 *3623:A1 0.000110304
8 *3621:A2 *3623:B1 9.24491e-05
9 *3621:A2 *4223:A 1.5864e-05
10 *3621:A2 *952:8 0.000170491
11 *3624:A *3621:A2 0.000120501
12 *3624:C *3621:A2 0.000148189
13 *3704:A1 *3621:A2 1.30914e-05
14 *3704:A1 *951:10 2.53112e-06
15 *3704:A2 *3621:A2 3.75868e-05
16 *434:22 *4244:A 1.84865e-05
17 *562:14 *951:10 5.66971e-05
18 *563:22 *4244:A 5.50052e-05
19 *634:110 *3621:A2 0.000252347
20 *950:10 *3621:A2 3.57844e-05
*RES
1 *3898:Q *951:10 16.2821 
2 *951:10 *4244:A 14.3357 
3 *951:10 *3621:A2 27.2196 
*END

*D_NET *952 0.00133196
*CONN
*I *3623:B1 I *D sky130_fd_sc_hd__a221o_2
*I *4242:A I *D sky130_fd_sc_hd__dlygate4sd3_1
*I *3899:Q O *D sky130_fd_sc_hd__dfrtp_2
*CAP
1 *3623:B1 5.63141e-05
2 *4242:A 8.64742e-05
3 *3899:Q 9.44294e-05
4 *952:8 0.000237218
5 *3623:B1 *3621:B1 0.000166276
6 *952:8 *3621:B1 0.000177941
7 *952:8 *4223:A 0.000152718
8 *3621:A2 *3623:B1 9.24491e-05
9 *3621:A2 *952:8 0.000170491
10 *4063:RESET_B *4242:A 9.76491e-05
*RES
1 *3899:Q *952:8 17.8714 
2 *952:8 *4242:A 15.5679 
3 *952:8 *3623:B1 16.05 
*END

*D_NET *953 0.00337484
*CONN
*I *3620:A2 I *D sky130_fd_sc_hd__a22o_2
*I *4243:A I *D sky130_fd_sc_hd__dlygate4sd3_1
*I *3900:Q O *D sky130_fd_sc_hd__dfrtp_2
*CAP
1 *3620:A2 0.000455725
2 *4243:A 0.000236328
3 *3900:Q 0.000162964
4 *953:8 0.000855016
5 *3620:A2 *3753:A1 0.000206009
6 *3620:A2 *962:16 0.000205711
7 *3696:B2 *4243:A 0
8 *3898:D *3620:A2 0.000256412
9 *3898:D *4243:A 0.000217505
10 *4058:RESET_B *3620:A2 0.000272014
11 *4400:A *3620:A2 0.00011617
12 *563:22 *953:8 0.000119607
13 *914:20 *4243:A 0.000147921
14 *914:29 *3620:A2 8.84088e-05
15 *914:29 *4243:A 3.50522e-05
*RES
1 *3900:Q *953:8 15.9786 
2 *953:8 *4243:A 19.3893 
3 *953:8 *3620:A2 26.3179 
*END

*D_NET *954 0.00265092
*CONN
*I *3620:B1 I *D sky130_fd_sc_hd__a22o_2
*I *4230:A I *D sky130_fd_sc_hd__dlygate4sd3_1
*I *3901:Q O *D sky130_fd_sc_hd__dfrtp_2
*CAP
1 *3620:B1 0.000156058
2 *4230:A 0.000111423
3 *3901:Q 0.000445982
4 *954:10 0.000713463
5 *3620:B1 *3617:A 0.000183726
6 *3620:B1 *3620:B2 9.71197e-05
7 *3620:B1 *3622:A2 0.000166983
8 *3620:B1 *3753:A1 3.30352e-05
9 *954:10 *3622:A2 0.000171978
10 *3694:B2 *4230:A 4.41588e-05
11 *3700:A1 *954:10 3.69047e-06
12 *3700:B1 *954:10 0.000210033
13 *3700:B2 *954:10 8.25843e-06
14 *4092:A *3620:B1 4.75521e-05
15 *435:22 *954:10 2.13481e-06
16 *632:12 *3620:B1 0.000168217
17 *632:12 *954:10 8.71069e-05
*RES
1 *3901:Q *954:10 20.6929 
2 *954:10 *4230:A 15.5857 
3 *954:10 *3620:B1 19.6393 
*END

*D_NET *955 0.00211075
*CONN
*I *3622:A2 I *D sky130_fd_sc_hd__a22o_2
*I *4225:A I *D sky130_fd_sc_hd__dlygate4sd3_1
*I *3902:Q O *D sky130_fd_sc_hd__dfrtp_2
*CAP
1 *3622:A2 0.000341271
2 *4225:A 0
3 *3902:Q 7.6238e-05
4 *955:6 0.000417509
5 *3620:B1 *3622:A2 0.000166983
6 *3700:A1 *3622:A2 0.00012342
7 *3700:B2 *3622:A2 0.000144732
8 *3899:CLK *3622:A2 3.51314e-05
9 *4092:A *3622:A2 0.00021721
10 *563:22 *3622:A2 0.000221058
11 *563:22 *955:6 0.000181899
12 *632:12 *3622:A2 1.33248e-05
13 *954:10 *3622:A2 0.000171978
*RES
1 *3902:Q *955:6 11.0679 
2 *955:6 *4225:A 9.3 
3 *955:6 *3622:A2 28.0366 
*END

*D_NET *956 0.00234014
*CONN
*I *3622:B1 I *D sky130_fd_sc_hd__a22o_2
*I *4224:A I *D sky130_fd_sc_hd__dlygate4sd3_1
*I *3903:Q O *D sky130_fd_sc_hd__dfrtp_2
*CAP
1 *3622:B1 0.000248296
2 *4224:A 0.000367156
3 *3903:Q 0.00015646
4 *956:6 0.000771912
5 *3622:B1 *3622:A1 5.33005e-05
6 *3622:B1 *969:14 9.25014e-06
7 *3694:B2 *3622:B1 3.63061e-05
8 *3694:B2 *4224:A 0.000514418
9 *3698:A1 *3622:B1 0
10 *3698:A1 *4224:A 3.17067e-05
11 *3702:B1 *4224:A 0
12 *4057:RESET_B *3622:B1 0
13 *4057:RESET_B *4224:A 0
14 *4092:A *3622:B1 0.000151333
15 *4092:A *4224:A 0
16 *913:78 *4224:A 0
*RES
1 *3903:Q *956:6 11.0679 
2 *956:6 *4224:A 26.3179 
3 *956:6 *3622:B1 22.55 
*END

*D_NET *957 0.00216977
*CONN
*I *3621:B1 I *D sky130_fd_sc_hd__a221o_2
*I *4223:A I *D sky130_fd_sc_hd__dlygate4sd3_1
*I *3904:Q O *D sky130_fd_sc_hd__dfrtp_2
*CAP
1 *3621:B1 0.000336827
2 *4223:A 0.000159685
3 *3904:Q 0
4 *957:6 0.000496512
5 *3621:B1 *3621:A1 6.85983e-05
6 *3621:B1 *3621:B2 5.7661e-06
7 *3621:B1 *3623:A1 0
8 *3621:B1 *3623:B2 0.000270958
9 *3621:A2 *3621:B1 9.08751e-05
10 *3621:A2 *4223:A 1.5864e-05
11 *3623:B1 *3621:B1 0.000166276
12 *3623:C1 *3621:B1 6.1684e-05
13 *3624:A *3621:B1 1.55885e-05
14 *3692:A1 *4223:A 7.7939e-05
15 *4058:RESET_B *3621:B1 0
16 *4058:RESET_B *4223:A 0
17 *4063:RESET_B *3621:B1 6.8646e-06
18 *435:14 *4223:A 6.56786e-05
19 *952:8 *3621:B1 0.000177941
20 *952:8 *4223:A 0.000152718
*RES
1 *3904:Q *957:6 13.8 
2 *957:6 *4223:A 18.1214 
3 *957:6 *3621:B1 23.1929 
*END

*D_NET *958 0.0045377
*CONN
*I *4264:A I *D sky130_fd_sc_hd__dlygate4sd3_1
*I *3337:A I *D sky130_fd_sc_hd__inv_2
*I *3974:Q O *D sky130_fd_sc_hd__dfrtp_2
*CAP
1 *4264:A 6.55305e-05
2 *3337:A 0.000617681
3 *3974:Q 0.000699404
4 *958:18 0.00138261
5 *3337:A *3679:B1 0
6 *3337:A *1067:28 0
7 *4264:A *4201:A 5.33433e-05
8 *958:18 *3744:A1 5.39629e-06
9 *958:18 *993:6 4.00276e-06
10 *958:18 *993:14 0.000983931
11 *3361:B *3337:A 0
12 *3468:B2 *4264:A 9.90431e-05
13 *3468:B2 *958:18 0.000298057
14 *3927:D *3337:A 5.41494e-05
15 *3998:RESET_B *3337:A 0.00012501
16 *4302:A *958:18 8.55534e-05
17 *365:16 *958:18 6.39808e-05
*RES
1 *3974:Q *958:18 35.4607 
2 *958:18 *3337:A 26.4429 
3 *958:18 *4264:A 11.0679 
*END

*D_NET *959 0.00162218
*CONN
*I *3396:C I *D sky130_fd_sc_hd__and4_2
*I *3982:Q O *D sky130_fd_sc_hd__dfstp_2
*CAP
1 *3396:C 0.000322485
2 *3982:Q 0.000322485
3 *3396:C *3396:B 0.000283276
4 *3361:A *3396:C 0
5 *3662:A2 *3396:C 0.000356028
6 *4073:TE_B *3396:C 7.03393e-05
7 *937:12 *3396:C 4.38128e-05
8 *939:16 *3396:C 0.000223751
*RES
1 *3982:Q *3396:C 37.0107 
*END

*D_NET *960 0.00245118
*CONN
*I *4301:A I *D sky130_fd_sc_hd__dlygate4sd3_1
*I *3469:A2 I *D sky130_fd_sc_hd__a21o_2
*I *3955:Q O *D sky130_fd_sc_hd__dfstp_2
*CAP
1 *4301:A 0.000428822
2 *3469:A2 0.0001854
3 *3955:Q 0
4 *960:4 0.000614222
5 *4301:A *3679:B1 6.38661e-05
6 *3468:B1 *4301:A 0.000158726
7 *3469:A1 *3469:A2 0.000129595
8 *4164:A *4301:A 0.000457962
9 *4302:A *4301:A 9.60875e-05
10 *362:25 *3469:A2 0.000151333
11 *362:25 *4301:A 6.58013e-05
12 *617:107 *4301:A 9.41642e-05
13 *637:6 *4301:A 5.19842e-06
14 *646:41 *3469:A2 0
*RES
1 *3955:Q *960:4 9.3 
2 *960:4 *3469:A2 22.8357 
3 *960:4 *4301:A 27.7286 
*END

*D_NET *961 0.0120261
*CONN
*I *3468:A2 I *D sky130_fd_sc_hd__a22o_2
*I *3618:A I *D sky130_fd_sc_hd__or4_2
*I *3621:B2 I *D sky130_fd_sc_hd__a221o_2
*I *3753:A1 I *D sky130_fd_sc_hd__mux2_1
*I *3956:Q O *D sky130_fd_sc_hd__dfrtp_2
*CAP
1 *3468:A2 0.000656182
2 *3618:A 0
3 *3621:B2 0.000103281
4 *3753:A1 0.000719929
5 *3956:Q 0.0017571
6 *961:26 0.00107588
7 *961:22 0.00135359
8 *3753:A1 *3617:A 5.94851e-05
9 *3753:A1 *3620:B2 0.000157254
10 *3753:A1 *962:16 2.72899e-05
11 *3753:A1 *964:37 0.000117745
12 *961:22 *3618:B 0.000268403
13 *961:22 *3618:C 0.000400906
14 *961:22 *4267:A 6.4443e-05
15 *3469:B1 *3468:A2 5.33005e-05
16 *3619:A *3753:A1 0.000229456
17 *3619:B *961:26 6.39901e-05
18 *3620:A2 *3753:A1 0.000206009
19 *3620:B1 *3753:A1 3.30352e-05
20 *3621:B1 *3621:B2 5.7661e-06
21 *3621:C1 *3753:A1 0.000525241
22 *3624:A *3621:B2 5.76373e-05
23 *3753:S *3753:A1 9.60875e-05
24 *3754:S *961:26 0
25 *3756:A0 *961:22 2.14757e-05
26 *3757:A0 *961:22 3.2534e-05
27 *3974:D *3468:A2 0.000293422
28 *3983:CLK *961:22 9.7659e-05
29 *4058:RESET_B *3753:A1 0.000197984
30 *4058:RESET_B *961:26 0.000353139
31 *4063:RESET_B *3753:A1 0
32 *4063:RESET_B *961:26 0
33 *4164:A *3468:A2 0.000507757
34 *114:10 *961:22 3.0285e-05
35 *362:25 *3468:A2 7.10673e-05
36 *617:40 *961:22 0.00024425
37 *637:6 *3468:A2 3.45806e-05
38 *749:12 *3468:A2 0.000172431
39 *749:12 *961:22 0.000650928
40 *875:58 *961:26 0.000165494
41 *905:16 *3468:A2 0.00016478
42 *905:54 *3753:A1 0.000255966
43 *907:46 *3468:A2 7.53109e-06
44 *907:46 *961:22 0.000692824
*RES
1 *3956:Q *961:22 41.0143 
2 *961:22 *961:26 11.3036 
3 *961:26 *3753:A1 32.675 
4 *961:26 *3621:B2 15.7152 
5 *961:22 *3618:A 9.3 
6 *3956:Q *3468:A2 40.6893 
*END

*D_NET *962 0.00311227
*CONN
*I *3754:A1 I *D sky130_fd_sc_hd__mux2_1
*I *4273:A I *D sky130_fd_sc_hd__dlygate4sd3_1
*I *3620:A1 I *D sky130_fd_sc_hd__a22o_2
*I *3617:A I *D sky130_fd_sc_hd__or4_2
*I *4064:Q O *D sky130_fd_sc_hd__dfrtp_2
*CAP
1 *3754:A1 8.45414e-05
2 *4273:A 0
3 *3620:A1 0
4 *3617:A 0.00025542
5 *4064:Q 0.00022323
6 *962:16 0.000547843
7 *962:10 0.000440267
8 *962:8 0.000455615
9 *3617:A *3620:B2 2.28499e-05
10 *3619:A *962:10 0
11 *3619:A *962:16 0
12 *3620:A2 *962:16 0.000205711
13 *3620:B1 *3617:A 0.000183726
14 *3753:A1 *3617:A 5.94851e-05
15 *3753:A1 *962:16 2.72899e-05
16 *3754:S *962:10 4.97121e-06
17 *3759:A1 *3754:A1 0.000260993
18 *3759:A1 *962:8 2.59355e-05
19 *3759:A1 *962:10 5.66157e-05
20 *4058:RESET_B *962:16 0
21 *4063:D *3754:A1 0.000145584
22 *4063:D *962:10 4.46186e-06
23 *632:12 *962:10 0
24 *632:12 *962:16 0
25 *774:10 *3754:A1 1.02504e-05
26 *905:42 *962:10 8.55384e-05
27 *905:42 *962:16 1.19402e-05
*RES
1 *4064:Q *962:8 16.3893 
2 *962:8 *962:10 3.46429 
3 *962:10 *962:16 9.94643 
4 *962:16 *3617:A 13.4607 
5 *962:16 *3620:A1 9.3 
6 *962:10 *4273:A 13.8 
7 *962:8 *3754:A1 17.2643 
*END

*D_NET *963 0.00334638
*CONN
*I *3618:B I *D sky130_fd_sc_hd__or4_2
*I *4267:A I *D sky130_fd_sc_hd__dlygate4sd3_1
*I *3621:A1 I *D sky130_fd_sc_hd__a221o_2
*I *4063:Q O *D sky130_fd_sc_hd__dfrtp_2
*CAP
1 *3618:B 0.000186263
2 *4267:A 0.000144054
3 *3621:A1 0.000302561
4 *4063:Q 0.000291027
5 *963:16 0.000508485
6 *963:14 0.000539159
7 *3621:A1 *3623:A1 4.7665e-05
8 *3621:A1 *3623:B2 5.07604e-05
9 *3621:A1 *4271:A 1.19402e-05
10 *3621:A1 *965:27 1.78353e-05
11 *3621:A1 *968:21 5.85228e-05
12 *4267:A *3618:C 0.000140933
13 *963:14 *4254:A 2.70413e-05
14 *963:14 *4271:A 1.78241e-05
15 *963:16 *4254:A 1.37292e-05
16 *963:16 *4271:A 2.1527e-05
17 *963:16 *965:27 9.69119e-06
18 *3621:A2 *3621:A1 7.86112e-05
19 *3621:B1 *3621:A1 6.85983e-05
20 *3624:A *3621:A1 2.98258e-05
21 *4061:D *3621:A1 0.000128154
22 *769:10 *3621:A1 0.000319323
23 *961:22 *3618:B 0.000268403
24 *961:22 *4267:A 6.4443e-05
*RES
1 *4063:Q *963:14 17.675 
2 *963:14 *963:16 1.03571 
3 *963:16 *3621:A1 21.9607 
4 *963:16 *4267:A 16.8 
5 *963:14 *3618:B 16.3893 
*END

*D_NET *964 0.00417708
*CONN
*I *3617:C I *D sky130_fd_sc_hd__or4_2
*I *3622:A1 I *D sky130_fd_sc_hd__a22o_2
*I *4288:A I *D sky130_fd_sc_hd__dlygate4sd3_1
*I *4062:Q O *D sky130_fd_sc_hd__dfrtp_2
*CAP
1 *3617:C 0
2 *3622:A1 0.000135212
3 *4288:A 0.000409677
4 *4062:Q 0.000154505
5 *964:37 0.000695706
6 *964:12 0.00112468
7 *3622:A1 *969:10 3.34295e-05
8 *3622:A1 *969:14 0.000127446
9 *964:37 *3620:B2 6.05161e-06
10 *3622:B1 *3622:A1 5.33005e-05
11 *3644:A0 *4288:A 3.13199e-05
12 *3753:A0 *964:37 3.26907e-05
13 *3753:A1 *964:37 0.000117745
14 *3753:S *964:37 2.28499e-05
15 *3755:A1 *964:37 0.000268409
16 *4057:D *964:12 2.59355e-05
17 *4057:D *964:37 0.000126439
18 *4062:RESET_B *4288:A 0
19 *4062:RESET_B *964:12 7.20217e-06
20 *4091:A *4288:A 0.000359974
21 *4092:A *3622:A1 0.000150625
22 *608:27 *964:12 6.60357e-05
23 *608:77 *4288:A 3.17148e-05
24 *608:77 *964:12 0.000127651
25 *608:77 *964:37 3.36286e-05
26 *608:128 *4288:A 0
27 *792:10 *4288:A 0
28 *905:54 *964:37 3.4855e-05
*RES
1 *4062:Q *964:12 17.2464 
2 *964:12 *4288:A 21.2643 
3 *964:12 *964:37 15.6607 
4 *964:37 *3622:A1 21.6214 
5 *964:37 *3617:C 9.3 
*END

*D_NET *965 0.00502351
*CONN
*I *4254:A I *D sky130_fd_sc_hd__dlygate4sd3_1
*I *3618:C I *D sky130_fd_sc_hd__or4_2
*I *3623:A1 I *D sky130_fd_sc_hd__a221o_2
*I *4061:Q O *D sky130_fd_sc_hd__dfrtp_2
*CAP
1 *4254:A 0.000677854
2 *3618:C 0.000122643
3 *3623:A1 0.00049277
4 *4061:Q 0.000246257
5 *965:27 0.000953809
6 *965:8 0.00089234
7 *3618:C *3618:D 7.32272e-05
8 *4254:A *4271:A 0
9 *3444:A *4254:A 3.93346e-05
10 *3444:B *4254:A 0.000132872
11 *3621:A1 *3623:A1 4.7665e-05
12 *3621:A1 *965:27 1.78353e-05
13 *3621:A2 *3623:A1 0.000110304
14 *3621:B1 *3623:A1 0
15 *3623:A2 *3623:A1 3.28686e-05
16 *3624:C *3623:A1 0.000148196
17 *3718:B *4254:A 0
18 *4061:CLK *965:8 0.00010353
19 *4061:RESET_B *965:8 7.70134e-05
20 *4267:A *3618:C 0.000140933
21 *109:14 *4254:A 3.48705e-05
22 *353:10 *3623:A1 0
23 *353:10 *4254:A 0
24 *353:10 *965:27 0
25 *604:12 *3623:A1 4.65158e-06
26 *769:10 *3623:A1 9.24395e-05
27 *769:10 *965:27 7.48356e-05
28 *950:10 *3623:A1 5.58941e-05
29 *961:22 *3618:C 0.000400906
30 *963:14 *4254:A 2.70413e-05
31 *963:16 *4254:A 1.37292e-05
32 *963:16 *965:27 9.69119e-06
*RES
1 *4061:Q *965:8 18.8536 
2 *965:8 *3623:A1 23.8536 
3 *965:8 *965:27 2.85714 
4 *965:27 *3618:C 18.0321 
5 *965:27 *4254:A 26.5143 
*END

*D_NET *966 0.0015932
*CONN
*I *4249:A I *D sky130_fd_sc_hd__dlygate4sd3_1
*I *4060:Q O *D sky130_fd_sc_hd__dfrtp_2
*CAP
1 *4249:A 0.000546028
2 *4060:Q 0.000546028
3 *3983:CLK *4249:A 3.67142e-05
4 *3983:D *4249:A 2.27416e-05
5 *604:89 *4249:A 0.00015304
6 *646:41 *4249:A 0.000151333
7 *905:20 *4249:A 3.66944e-05
8 *936:33 *4249:A 0.000100625
*RES
1 *4060:Q *4249:A 36.3679 
*END

*D_NET *967 0.00356472
*CONN
*I *4290:A I *D sky130_fd_sc_hd__dlygate4sd3_1
*I *3760:A1 I *D sky130_fd_sc_hd__mux2_1
*I *3620:B2 I *D sky130_fd_sc_hd__a22o_2
*I *3617:B I *D sky130_fd_sc_hd__or4_2
*I *4059:Q O *D sky130_fd_sc_hd__dfrtp_2
*CAP
1 *4290:A 0.000446893
2 *3760:A1 6.38441e-05
3 *3620:B2 0.000191838
4 *3617:B 0
5 *4059:Q 8.39946e-05
6 *967:22 0.000265399
7 *967:16 0.000358514
8 *967:10 0.000751996
9 *967:22 *969:10 7.83587e-05
10 *3617:A *3620:B2 2.28499e-05
11 *3620:B1 *3620:B2 9.71197e-05
12 *3753:A1 *3620:B2 0.000157254
13 *3755:A0 *4290:A 9.00795e-06
14 *3755:A0 *967:16 0.000103253
15 *3755:A0 *967:22 0
16 *3760:A0 *3760:A1 5.71472e-05
17 *4058:CLK *967:10 2.89114e-05
18 *4059:D *967:16 0
19 *4064:CLK *4290:A 4.58194e-05
20 *4064:D *967:10 3.48235e-05
21 *4064:D *967:16 3.17067e-05
22 *4064:RESET_B *967:10 2.34204e-05
23 *4064:RESET_B *967:16 3.6666e-05
24 *4092:A *3620:B2 4.25523e-05
25 *4092:A *967:16 0
26 *4092:A *967:22 0.000173804
27 *4274:A *3760:A1 9.60939e-05
28 *4274:A *967:16 5.52238e-05
29 *604:24 *4290:A 2.15245e-05
30 *604:24 *967:16 4.65158e-06
31 *608:122 *4290:A 9.04241e-05
32 *632:12 *3620:B2 2.66026e-05
33 *905:50 *3760:A1 5.97398e-05
34 *905:50 *967:16 9.92409e-05
35 *905:50 *967:22 0
36 *964:37 *3620:B2 6.05161e-06
*RES
1 *4059:Q *967:10 15.3714 
2 *967:10 *967:16 9.53571 
3 *967:16 *967:22 11.25 
4 *967:22 *3617:B 9.3 
5 *967:22 *3620:B2 22.05 
6 *967:16 *3760:A1 11.0679 
7 *967:10 *4290:A 19.5857 
*END

*D_NET *968 0.00283827
*CONN
*I *4271:A I *D sky130_fd_sc_hd__dlygate4sd3_1
*I *3618:D I *D sky130_fd_sc_hd__or4_2
*I *3623:B2 I *D sky130_fd_sc_hd__a221o_2
*I *4058:Q O *D sky130_fd_sc_hd__dfrtp_2
*CAP
1 *4271:A 0.000319118
2 *3618:D 7.83625e-05
3 *3623:B2 0.000243213
4 *4058:Q 0.000121851
5 *968:21 0.000493752
6 *968:8 0.000461335
7 *3618:C *3618:D 7.32272e-05
8 *3621:A1 *3623:B2 5.07604e-05
9 *3621:A1 *4271:A 1.19402e-05
10 *3621:A1 *968:21 5.85228e-05
11 *3621:B1 *3623:B2 0.000270958
12 *3623:C1 *3623:B2 1.02504e-05
13 *4061:CLK *968:8 1.40306e-05
14 *4061:D *3623:B2 3.69697e-05
15 *4061:D *968:21 3.17163e-05
16 *4063:RESET_B *3623:B2 0.000267915
17 *4063:RESET_B *4271:A 0.000137855
18 *4063:RESET_B *968:21 0.000117144
19 *4254:A *4271:A 0
20 *875:58 *4271:A 0
21 *963:14 *4271:A 1.78241e-05
22 *963:16 *4271:A 2.1527e-05
*RES
1 *4058:Q *968:8 15.1571 
2 *968:8 *3623:B2 20.733 
3 *968:8 *968:21 2.85714 
4 *968:21 *3618:D 15.1571 
5 *968:21 *4271:A 20.4429 
*END

*D_NET *969 0.00104517
*CONN
*I *3617:D I *D sky130_fd_sc_hd__or4_2
*I *3622:B2 I *D sky130_fd_sc_hd__a22o_2
*I *4259:A I *D sky130_fd_sc_hd__dlygate4sd3_1
*I *4057:Q O *D sky130_fd_sc_hd__dfrtp_2
*CAP
1 *3617:D 0
2 *3622:B2 0
3 *4259:A 5.88446e-05
4 *4057:Q 0.000166189
5 *969:14 0.000152016
6 *969:10 0.00025936
7 *3622:A1 *969:10 3.34295e-05
8 *3622:A1 *969:14 0.000127446
9 *3622:B1 *969:14 9.25014e-06
10 *3755:A0 *969:14 0
11 *4057:RESET_B *969:14 0
12 *4092:A *969:10 2.14474e-05
13 *4092:A *969:14 2.14474e-05
14 *905:50 *969:10 0.000117381
15 *967:22 *969:10 7.83587e-05
*RES
1 *4057:Q *969:10 17.1036 
2 *969:10 *969:14 6.75 
3 *969:14 *4259:A 10.2464 
4 *969:14 *3622:B2 9.3 
5 *969:10 *3617:D 13.8 
*END

*D_NET *970 0.00617961
*CONN
*I *3722:A1 I *D sky130_fd_sc_hd__a21o_2
*I *3725:B1 I *D sky130_fd_sc_hd__o2111a_2
*I *3720:A I *D sky130_fd_sc_hd__nand2_2
*I *3723:A I *D sky130_fd_sc_hd__and3_2
*I *3710:B I *D sky130_fd_sc_hd__xnor2_2
*I *3719:A I *D sky130_fd_sc_hd__or2_2
*I *3906:Q O *D sky130_fd_sc_hd__dfrtp_2
*CAP
1 *3722:A1 0.000260908
2 *3725:B1 0.000102826
3 *3720:A 7.97117e-05
4 *3723:A 2.33352e-05
5 *3710:B 0.000411082
6 *3719:A 0.000207079
7 *3906:Q 0
8 *970:47 0.000237235
9 *970:36 0.000120887
10 *970:23 0.000694622
11 *970:4 0.000708672
12 *3719:A *971:22 2.59355e-05
13 *3720:A *3708:B 6.07232e-05
14 *3720:A *971:22 7.90803e-05
15 *3722:A1 *3722:B1 6.05161e-06
16 *3722:A1 *3726:A 0.000372942
17 *3722:A1 *971:22 0.000122413
18 *3722:A1 *971:44 4.78056e-05
19 *3725:B1 *3708:B 4.08637e-05
20 *3725:B1 *972:12 9.41642e-05
21 *970:23 *971:22 5.66157e-05
22 *970:36 *3723:B 3.7114e-05
23 *970:47 *3708:B 9.41642e-05
24 *970:47 *3723:B 8.43535e-06
25 *3714:D *3710:B 5.62995e-05
26 *3719:B *3719:A 0.000429934
27 *3719:B *3722:A1 8.50152e-05
28 *3719:B *970:23 0.000122063
29 *3720:B *3720:A 9.10431e-06
30 *3720:B *970:23 3.4323e-06
31 *3721:A *3722:A1 0.0001479
32 *3721:B *3719:A 4.43256e-05
33 *3721:B *3722:A1 1.21258e-05
34 *3721:C *3720:A 0.000197977
35 *3723:C *970:23 2.04825e-05
36 *582:29 *3719:A 2.89016e-05
37 *582:31 *3719:A 0.000137447
38 *582:33 *3719:A 6.05161e-06
39 *583:16 *970:23 7.35921e-05
40 *587:8 *970:23 0.00020821
41 *588:16 *3710:B 0.000575092
42 *588:16 *3723:A 3.99614e-06
43 *588:16 *970:36 7.46166e-05
44 *588:16 *970:47 5.03772e-05
45 *632:12 *970:23 0
46 *875:58 *3720:A 0
*RES
1 *3906:Q *970:4 9.3 
2 *970:4 *3719:A 14.7821 
3 *970:4 *970:23 15.1607 
4 *970:23 *3710:B 18.4607 
5 *970:23 *970:36 1.61607 
6 *970:36 *3723:A 9.7375 
7 *970:36 *970:47 1.35714 
8 *970:47 *3720:A 21.1571 
9 *970:47 *3725:B1 11.0679 
10 *970:4 *3722:A1 25.6036 
*END

*D_NET *971 0.00664772
*CONN
*I *3712:B I *D sky130_fd_sc_hd__xnor2_2
*I *3722:B1 I *D sky130_fd_sc_hd__a21o_2
*I *3725:C1 I *D sky130_fd_sc_hd__o2111a_2
*I *3723:B I *D sky130_fd_sc_hd__and3_2
*I *3907:Q O *D sky130_fd_sc_hd__dfrtp_2
*CAP
1 *3712:B 0.000841274
2 *3722:B1 2.4452e-05
3 *3725:C1 0.000152476
4 *3723:B 0.000143276
5 *3907:Q 0.000372321
6 *971:44 0.000962534
7 *971:22 0.000729694
8 *971:8 0.000903072
9 *3712:B *3726:A 9.69119e-06
10 *3722:B1 *3726:A 9.90431e-05
11 *3723:B *3708:B 2.59355e-05
12 *3725:C1 *3708:B 4.58194e-05
13 *3725:C1 *972:12 7.57851e-05
14 *971:22 *3708:B 5.66157e-05
15 *971:22 *3726:A 0.000103253
16 *971:44 *3726:A 1.69115e-05
17 *3678:A0 *3712:B 3.34295e-05
18 *3678:A1 *3712:B 0.000465804
19 *3715:A1 *3712:B 0.000106552
20 *3715:B1 *3712:B 0
21 *3718:B *3725:C1 0
22 *3719:A *971:22 2.59355e-05
23 *3719:B *971:22 0.000126042
24 *3720:A *971:22 7.90803e-05
25 *3720:B *971:22 1.7897e-05
26 *3721:A *3722:B1 3.91935e-05
27 *3721:C *3712:B 0
28 *3721:C *3725:C1 0.000103267
29 *3721:C *971:22 0.000107119
30 *3722:A1 *3722:B1 6.05161e-06
31 *3722:A1 *971:22 0.000122413
32 *3722:A1 *971:44 4.78056e-05
33 *3726:B *971:22 7.95581e-05
34 *3726:B *971:44 0
35 *3891:D *3712:B 5.33334e-05
36 *3905:CLK *3712:B 0
37 *3905:D *3712:B 3.90513e-05
38 *3906:RESET_B *971:8 3.69047e-06
39 *3907:RESET_B *971:8 3.3523e-05
40 *4172:A *3712:B 0
41 *579:10 *3712:B 0.000181378
42 *582:23 *3712:B 0
43 *583:12 *971:22 2.09897e-05
44 *583:16 *971:22 9.53173e-05
45 *587:8 *971:22 3.56976e-05
46 *641:10 *3712:B 0
47 *871:10 *3712:B 0
48 *916:32 *971:8 0.000160277
49 *970:23 *971:22 5.66157e-05
50 *970:36 *3723:B 3.7114e-05
51 *970:47 *3723:B 8.43535e-06
*RES
1 *3907:Q *971:8 18.4429 
2 *971:8 *971:22 24.4464 
3 *971:22 *3723:B 11.0679 
4 *971:22 *3725:C1 20.9964 
5 *971:8 *971:44 1.94643 
6 *971:44 *3722:B1 14.7464 
7 *971:44 *3712:B 31.5321 
*END

*D_NET *972 0.00507724
*CONN
*I *3726:A I *D sky130_fd_sc_hd__or2_2
*I *3725:D1 I *D sky130_fd_sc_hd__o2111a_2
*I *3708:B I *D sky130_fd_sc_hd__xnor2_2
*I *3908:Q O *D sky130_fd_sc_hd__dfrtp_2
*CAP
1 *3726:A 0.000482076
2 *3725:D1 0
3 *3708:B 0.000852606
4 *3908:Q 0.000606403
5 *972:12 0.000976934
6 *972:12 *3725:A1 0
7 *3712:B *3726:A 9.69119e-06
8 *3719:B *3726:A 2.04866e-05
9 *3720:A *3708:B 6.07232e-05
10 *3720:B *3708:B 0.000175519
11 *3721:A *3726:A 7.65689e-05
12 *3721:C *3726:A 0.000577587
13 *3721:C *972:12 4.98872e-05
14 *3722:A1 *3726:A 0.000372942
15 *3722:B1 *3726:A 9.90431e-05
16 *3723:B *3708:B 2.59355e-05
17 *3724:C *3726:A 8.25843e-06
18 *3725:B1 *3708:B 4.08637e-05
19 *3725:B1 *972:12 9.41642e-05
20 *3725:C1 *3708:B 4.58194e-05
21 *3725:C1 *972:12 7.57851e-05
22 *583:6 *3726:A 5.52302e-05
23 *583:12 *3726:A 9.60875e-05
24 *774:10 *3708:B 3.69047e-06
25 *970:47 *3708:B 9.41642e-05
26 *971:22 *3708:B 5.66157e-05
27 *971:22 *3726:A 0.000103253
28 *971:44 *3726:A 1.69115e-05
*RES
1 *3908:Q *972:12 21.1929 
2 *972:12 *3708:B 34.0857 
3 *972:12 *3725:D1 9.3 
4 *3908:Q *3726:A 40.1893 
*END

*D_NET *973 0.00638521
*CONN
*I *3728:A I *D sky130_fd_sc_hd__nand2_2
*I *3729:A I *D sky130_fd_sc_hd__or2_2
*I *3707:B I *D sky130_fd_sc_hd__xnor2_2
*I *3732:A I *D sky130_fd_sc_hd__and3_2
*I *3731:A1 I *D sky130_fd_sc_hd__a21o_2
*I *3735:A I *D sky130_fd_sc_hd__and4_2
*I *3909:Q O *D sky130_fd_sc_hd__dfrtp_2
*CAP
1 *3728:A 6.61693e-05
2 *3729:A 0
3 *3707:B 0.000557723
4 *3732:A 0.000286156
5 *3731:A1 0.000123147
6 *3735:A 2.54044e-05
7 *3909:Q 4.23836e-05
8 *973:66 0.000230844
9 *973:25 0.000805524
10 *973:12 0.000510818
11 *973:10 0.00108788
12 *973:6 0.000648026
13 *3707:B *3709:B 0
14 *3707:B *975:21 0
15 *3732:A *3732:B 6.73527e-05
16 *3641:A1 *3707:B 0
17 *3712:A *3707:B 0
18 *3713:A *3707:B 7.83659e-05
19 *3713:D *3707:B 3.69047e-06
20 *3715:A2 *3728:A 9.71197e-05
21 *3717:A2 *973:66 0.000181223
22 *3728:B *3728:A 9.47028e-05
23 *3730:C *973:66 2.82057e-05
24 *3732:C *3732:A 0.000173431
25 *3734:B *3732:A 4.65258e-05
26 *3735:D *3735:A 0.000142575
27 *3735:D *973:25 0
28 *3735:D *973:66 0.000118349
29 *3907:CLK *3732:A 1.24368e-05
30 *3909:RESET_B *973:66 0
31 *4397:A *3735:A 5.66384e-05
32 *588:29 *3731:A1 0
33 *588:49 *3731:A1 0
34 *588:49 *973:25 0
35 *588:49 *973:66 5.80706e-06
36 *588:58 *973:25 0
37 *588:58 *973:66 3.17067e-05
38 *593:6 *3732:A 2.84026e-05
39 *619:6 *3732:A 5.52238e-05
40 *619:14 *3731:A1 0.000150618
41 *619:34 *3731:A1 3.17148e-05
42 *619:34 *973:25 0.000187012
43 *619:51 *973:25 0.000176234
44 *619:87 *3732:A 5.33005e-05
45 *646:61 *3707:B 0
46 *916:32 *3732:A 0.000180496
*RES
1 *3909:Q *973:6 9.83571 
2 *973:6 *973:10 9.55357 
3 *973:10 *973:12 1.33929 
4 *973:12 *3735:A 15.1571 
5 *973:12 *973:25 7.94643 
6 *973:25 *3731:A1 16.05 
7 *973:25 *3732:A 20.9607 
8 *973:10 *3707:B 22.6929 
9 *973:6 *973:66 13.375 
10 *973:66 *3729:A 9.3 
11 *973:66 *3728:A 11.0679 
*END

*D_NET *974 0.00417736
*CONN
*I *3735:B I *D sky130_fd_sc_hd__and4_2
*I *3732:B I *D sky130_fd_sc_hd__and3_2
*I *3731:B1 I *D sky130_fd_sc_hd__a21o_2
*I *3705:B I *D sky130_fd_sc_hd__xnor2_2
*I *3910:Q O *D sky130_fd_sc_hd__dfrtp_2
*CAP
1 *3735:B 0.000326121
2 *3732:B 0.000215724
3 *3731:B1 9.31899e-05
4 *3705:B 0.000156339
5 *3910:Q 0.000173359
6 *974:12 0.000440503
7 *974:10 0.000518083
8 *974:8 0.000610865
9 *3735:B *975:10 0.000163125
10 *3735:B *975:21 4.46186e-06
11 *3714:B *3705:B 3.1367e-05
12 *3732:A *3732:B 6.73527e-05
13 *3733:C *3731:B1 5.85953e-05
14 *3734:B *3732:B 9.66977e-05
15 *3734:B *3735:B 9.30065e-05
16 *3734:B *974:10 9.97648e-05
17 *3734:B *974:12 1.52978e-05
18 *3910:D *3731:B1 0.000143652
19 *3911:D *3735:B 0.000216793
20 *3912:RESET_B *974:8 0.00013551
21 *4091:A *3705:B 0.000108848
22 *4091:A *974:12 8.89289e-05
23 *582:33 *3731:B1 0.000165615
24 *582:44 *3731:B1 1.24368e-05
25 *593:6 *3732:B 0.000141729
*RES
1 *3910:Q *974:8 15.9786 
2 *974:8 *974:10 2.55357 
3 *974:10 *974:12 3.46429 
4 *974:12 *3705:B 16.8893 
5 *974:12 *3731:B1 17.2286 
6 *974:10 *3732:B 16.8 
7 *974:8 *3735:B 20.0857 
*END

*D_NET *975 0.00229001
*CONN
*I *3709:B I *D sky130_fd_sc_hd__xnor2_2
*I *3734:A I *D sky130_fd_sc_hd__or2_2
*I *3735:C I *D sky130_fd_sc_hd__and4_2
*I *3911:Q O *D sky130_fd_sc_hd__dfrtp_2
*CAP
1 *3709:B 0.000109982
2 *3734:A 0
3 *3735:C 4.32788e-05
4 *3911:Q 0.000346663
5 *975:21 0.000170567
6 *975:10 0.000450527
7 *3641:A1 *3709:B 0.000150632
8 *3707:B *3709:B 0
9 *3707:B *975:21 0
10 *3734:B *975:10 0.000172375
11 *3734:B *975:21 0.000115474
12 *3735:B *975:10 0.000163125
13 *3735:B *975:21 4.46186e-06
14 *3735:D *3735:C 5.49544e-05
15 *3736:C *3735:C 5.33005e-05
16 *3736:C *975:21 0.00010326
17 *4397:A *3735:C 0.000139208
18 *619:51 *975:10 0.000212202
*RES
1 *3911:Q *975:10 19.8714 
2 *975:10 *3735:C 15.1571 
3 *975:10 *975:21 1.94643 
4 *975:21 *3734:A 13.8 
5 *975:21 *3709:B 16.3536 
*END

*D_NET *976 0.00398112
*CONN
*I *3741:A I *D sky130_fd_sc_hd__nand3_2
*I *3740:A1 I *D sky130_fd_sc_hd__a21o_2
*I *3737:A I *D sky130_fd_sc_hd__or2_2
*I *3706:B I *D sky130_fd_sc_hd__xnor2_2
*I *3738:A I *D sky130_fd_sc_hd__nand2_2
*I *3912:Q O *D sky130_fd_sc_hd__dfrtp_2
*CAP
1 *3741:A 0.00017714
2 *3740:A1 0.000375156
3 *3737:A 2.80661e-05
4 *3706:B 0.000261805
5 *3738:A 2.23854e-05
6 *3912:Q 0.000299381
7 *976:23 0.000370687
8 *976:21 0.000637183
9 *976:8 0.000325837
10 *3741:A *3711:B 4.1331e-06
11 *3741:A *977:25 2.6949e-05
12 *3705:A *3706:B 0.000173804
13 *3710:A *3706:B 9.60875e-05
14 *3714:B *3706:B 3.84349e-05
15 *3736:B *3740:A1 0.000128496
16 *3736:B *3741:A 0
17 *3736:B *976:21 1.08359e-05
18 *3737:B *3740:A1 2.14658e-05
19 *3737:B *976:21 2.71557e-05
20 *3737:B *976:23 4.93875e-05
21 *3739:C *3706:B 0
22 *3739:C *976:23 0
23 *3740:A2 *3740:A1 0.000137505
24 *3742:B *3740:A1 1.15172e-05
25 *3742:C *3741:A 0.000271958
26 *3912:RESET_B *976:8 6.25963e-05
27 *3912:RESET_B *976:21 1.98839e-05
28 *4311:A *3706:B 6.76178e-05
29 *582:44 *3737:A 2.84109e-05
30 *582:59 *3740:A1 5.52302e-05
31 *595:24 *3741:A 0
32 *595:24 *976:21 5.33005e-05
33 *595:30 *976:21 0.000198705
34 *595:63 *3741:A 0
*RES
1 *3912:Q *976:8 11.4964 
2 *976:8 *3738:A 9.72857 
3 *976:8 *976:21 8.60714 
4 *976:21 *976:23 1.64286 
5 *976:23 *3706:B 19.7286 
6 *976:23 *3737:A 14.3357 
7 *976:21 *3740:A1 18.8536 
8 *3912:Q *3741:A 31.975 
*END

*D_NET *977 0.00314545
*CONN
*I *3711:B I *D sky130_fd_sc_hd__xnor2_2
*I *3741:B I *D sky130_fd_sc_hd__nand3_2
*I *3740:B1 I *D sky130_fd_sc_hd__a21o_2
*I *3913:Q O *D sky130_fd_sc_hd__dfrtp_2
*CAP
1 *3711:B 0.000217034
2 *3741:B 0
3 *3740:B1 0.000230359
4 *3913:Q 0.000367638
5 *977:25 0.000429643
6 *977:6 0.000810606
7 *3645:A0 *3711:B 0
8 *3741:A *3711:B 4.1331e-06
9 *3741:A *977:25 2.6949e-05
10 *3742:B *3740:B1 2.89016e-05
11 *3742:C *3740:B1 0
12 *3742:C *977:25 3.92854e-05
13 *3913:D *3740:B1 0
14 *3913:RESET_B *3740:B1 0.000129868
15 *4396:A *3711:B 0.000225314
16 *619:59 *977:6 0.000285619
17 *619:59 *977:25 9.61553e-05
18 *909:63 *3711:B 0
19 *909:63 *3740:B1 0.000122449
20 *909:63 *977:25 0
21 *916:77 *3740:B1 0.000131491
*RES
1 *3913:Q *977:6 14.3536 
2 *977:6 *3740:B1 24.7286 
3 *977:6 *977:25 8.21429 
4 *977:25 *3741:B 13.8 
5 *977:25 *3711:B 18.4786 
*END

*D_NET *978 0.0042229
*CONN
*I *3686:A2 I *D sky130_fd_sc_hd__a21o_2
*I *4275:A I *D sky130_fd_sc_hd__dlygate4sd3_1
*I *3342:A I *D sky130_fd_sc_hd__inv_2
*I *3896:Q O *D sky130_fd_sc_hd__dfrtp_2
*CAP
1 *3686:A2 0
2 *4275:A 0
3 *3342:A 0.000134709
4 *3896:Q 0.000146842
5 *978:18 0.00101672
6 *978:10 0.00102885
7 *3342:A *3451:B2 9.90431e-05
8 *978:10 *3679:B1 0.000280423
9 *978:18 *3451:A2 1.74352e-05
10 *978:18 *3451:B2 9.21604e-05
11 *978:18 *3679:B1 0.00017309
12 *3451:A1 *978:18 1.49769e-05
13 *3451:B1 *3342:A 1.65558e-05
14 *3468:B2 *978:18 1.21258e-05
15 *3953:D *3342:A 0.000129868
16 *4019:CLK *3342:A 0
17 *4116:A *978:18 1.58163e-05
18 *4256:A *978:18 0.000317082
19 *4302:A *978:18 0.00026353
20 *616:29 *3342:A 0
21 *617:124 *978:10 0.000290592
22 *617:124 *978:18 0.00017309
*RES
1 *3896:Q *978:10 18.1036 
2 *978:10 *978:18 18.2857 
3 *978:18 *3342:A 21.8 
4 *978:18 *4275:A 9.3 
5 *978:10 *3686:A2 13.8 
*END

*D_NET *979 0.000694434
*CONN
*I *4201:A I *D sky130_fd_sc_hd__dlygate4sd3_1
*I *3927:Q O *D sky130_fd_sc_hd__dfrtp_2
*CAP
1 *4201:A 0.000287406
2 *3927:Q 0.000287406
3 *3468:B2 *4201:A 5.23057e-05
4 *4264:A *4201:A 5.33433e-05
5 *603:13 *4201:A 0
6 *766:6 *4201:A 1.39726e-05
*RES
1 *3927:Q *4201:A 31.8321 
*END

*D_NET *980 0.00329797
*CONN
*I *4263:A I *D sky130_fd_sc_hd__dlygate4sd3_1
*I *3332:A I *D sky130_fd_sc_hd__inv_2
*I *3680:B2 I *D sky130_fd_sc_hd__a2bb2o_2
*I *4020:Q O *D sky130_fd_sc_hd__dfrtp_2
*CAP
1 *4263:A 0.000259159
2 *3332:A 8.70208e-05
3 *3680:B2 0.000321606
4 *4020:Q 0.000351992
5 *980:25 0.00034618
6 *980:12 0.000673599
7 *3332:A *1006:14 5.33005e-05
8 *3680:B2 *3456:A1 0
9 *3680:B2 *3680:A2_N 0.000139913
10 *3680:B2 *3680:B1 0.000143408
11 *3680:B2 *1006:14 0.000101545
12 *4263:A *1006:14 0.000137983
13 *980:12 *3680:B1 1.52978e-05
14 *980:12 *1006:14 1.08359e-05
15 *3455:A2 *3332:A 6.69712e-05
16 *3467:A2 *3332:A 2.67107e-05
17 *3467:A2 *3680:B2 0.000138826
18 *3467:B1 *3680:B2 0
19 *3467:B2 *3680:B2 0
20 *3781:B1 *980:12 0
21 *3828:B1 *4263:A 4.72917e-05
22 *3945:D *3680:B2 7.50697e-05
23 *4020:RESET_B *980:12 4.17828e-05
24 *651:34 *3332:A 0.000117428
25 *651:34 *4263:A 0.000142053
*RES
1 *4020:Q *980:12 18.7643 
2 *980:12 *3680:B2 22.2643 
3 *980:12 *980:25 4.5 
4 *980:25 *3332:A 11.6214 
5 *980:25 *4263:A 14.3714 
*END

*D_NET *981 0.0143835
*CONN
*I *3330:A I *D sky130_fd_sc_hd__inv_2
*I *3685:B2 I *D sky130_fd_sc_hd__a22o_2
*I *3404:B I *D sky130_fd_sc_hd__and2_2
*I *3448:A I *D sky130_fd_sc_hd__and4_2
*I *3687:A2 I *D sky130_fd_sc_hd__a221o_2
*I *3639:A0 I *D sky130_fd_sc_hd__mux2_1
*I *3867:Q O *D sky130_fd_sc_hd__dfrtp_2
*CAP
1 *3330:A 5.05468e-05
2 *3685:B2 0.000628818
3 *3404:B 3.42297e-05
4 *3448:A 0.000248767
5 *3687:A2 0.000296291
6 *3639:A0 0
7 *3867:Q 0
8 *981:76 0.000749378
9 *981:65 0.000597215
10 *981:27 0.00163912
11 *981:10 0.00149432
12 *981:4 0.000893231
13 *3685:B2 *4325:A 0.000143633
14 *3687:A2 *3464:A 0.000118629
15 *3687:A2 *3689:A1 9.15842e-06
16 *3687:A2 *3690:A1 1.46576e-05
17 *3687:A2 *1002:51 0.000157815
18 *981:27 *3445:A 0.000308008
19 *981:65 *4068:A 0.000105258
20 *981:65 *989:20 5.8954e-05
21 *981:76 *989:20 1.13495e-05
22 *3404:A *3330:A 0.000140684
23 *3404:A *3404:B 1.32293e-05
24 *3404:A *981:76 0.000176941
25 *3447:B *3687:A2 7.02212e-05
26 *3458:C *3448:A 9.60875e-05
27 *3464:B *3687:A2 9.86486e-06
28 *3639:S *981:27 0.000410604
29 *3684:B2 *3685:B2 8.21706e-05
30 *3685:A1 *3685:B2 1.7858e-05
31 *3685:A2 *3685:B2 3.34295e-05
32 *3685:B1 *3685:B2 3.34295e-05
33 *3687:B1 *3687:A2 8.55493e-06
34 *3688:B1 *3687:A2 5.01234e-05
35 *3867:D *981:10 0
36 *3867:RESET_B *981:10 0.000104974
37 *3867:RESET_B *981:27 0.000434783
38 *3894:D *3685:B2 4.038e-06
39 *3946:RESET_B *3685:B2 0.000546948
40 *3952:D *3448:A 0
41 *3960:D *981:65 2.78822e-05
42 *3962:CLK *981:10 0
43 *3962:RESET_B *981:10 0
44 *3971:CLK *981:65 0.000170612
45 *3977:D *3448:A 0.000188623
46 *3977:D *981:27 0.00012249
47 *3978:D *3330:A 0.000172884
48 *3978:D *981:65 0.000574507
49 *3978:D *981:76 0.000222616
50 *4087:A *3685:B2 0.000188844
51 *4297:A *3685:B2 0.000137639
52 *4386:A *981:65 9.27418e-05
53 *109:28 *3448:A 4.55294e-05
54 *428:12 *3687:A2 4.51148e-05
55 *431:10 *3448:A 0.000281337
56 *434:12 *3687:A2 0.000139344
57 *435:8 *3687:A2 0.000534146
58 *615:8 *3685:B2 5.49995e-05
59 *615:20 *981:65 0.000174236
60 *615:22 *981:65 0.000222878
61 *615:33 *981:65 0.000175519
62 *618:109 *981:10 0
63 *618:109 *981:27 0
64 *618:134 *3448:A 0
65 *633:10 *981:27 0.000333898
66 *634:42 *3448:A 2.77693e-05
67 *634:42 *3687:A2 9.67754e-05
68 *634:42 *981:27 1.46689e-05
69 *638:26 *981:27 1.78393e-05
70 *638:37 *981:27 2.47755e-05
71 *649:46 *981:65 0
72 *802:12 *3685:B2 0.000367557
73 *909:8 *981:27 0.000102007
74 *949:38 *3330:A 3.29297e-05
*RES
1 *3867:Q *981:4 9.3 
2 *981:4 *981:10 11.5 
3 *981:10 *3639:A0 13.8 
4 *981:10 *981:27 30.3393 
5 *981:27 *3687:A2 32.0366 
6 *981:27 *3448:A 19.425 
7 *981:4 *981:65 19.7679 
8 *981:65 *3404:B 14.3357 
9 *981:65 *981:76 2.85714 
10 *981:76 *3685:B2 39.1036 
11 *981:76 *3330:A 16.05 
*END

*D_NET *982 0.00624346
*CONN
*I *4307:A I *D sky130_fd_sc_hd__dlygate4sd3_1
*I *3477:B I *D sky130_fd_sc_hd__or2_2
*I *3478:B I *D sky130_fd_sc_hd__nand2_2
*I *3691:A0 I *D sky130_fd_sc_hd__mux2_1
*I *3856:Q O *D sky130_fd_sc_hd__dfrtp_2
*CAP
1 *4307:A 0
2 *3477:B 0.000285786
3 *3478:B 0.000344543
4 *3691:A0 0.000267223
5 *3856:Q 0.000234828
6 *982:48 0.000525401
7 *982:21 0.000720531
8 *982:10 0.000638424
9 *3477:B *3472:B 6.75878e-05
10 *3478:B *3472:B 0.000178425
11 *982:10 *983:14 0.000170511
12 *982:21 *983:14 0.000331915
13 *3472:A *3477:B 2.67589e-05
14 *3473:A *3478:B 9.66977e-05
15 *3473:A *982:21 2.07809e-05
16 *3473:A *982:48 1.03904e-05
17 *3477:A *3477:B 5.49995e-05
18 *3478:A *3478:B 0.000136727
19 *3484:A1 *3477:B 0.00014829
20 *3484:A1 *982:10 0.000114704
21 *3484:B1 *982:48 5.0919e-05
22 *3484:B2 *3478:B 0.000214024
23 *3484:B2 *982:10 0.000172226
24 *3484:B2 *982:21 0.000299008
25 *3630:A0 *3478:B 0.000268835
26 *3630:A1 *3478:B 0.000115387
27 *3691:S *3691:A0 9.71197e-05
28 *3702:A2 *982:48 0
29 *3902:RESET_B *3477:B 7.36469e-05
30 *3902:RESET_B *982:48 6.34436e-05
31 *4368:A *982:48 1.94879e-05
32 *908:59 *3691:A0 4.58194e-05
33 *909:37 *3478:B 0.000449018
*RES
1 *3856:Q *982:10 18.2286 
2 *982:10 *3691:A0 17.6214 
3 *982:10 *982:21 4.67857 
4 *982:21 *3478:B 24.4786 
5 *982:21 *982:48 8.76786 
6 *982:48 *3477:B 24.8714 
7 *982:48 *4307:A 9.3 
*END

*D_NET *983 0.00727428
*CONN
*I *3693:A0 I *D sky130_fd_sc_hd__mux2_1
*I *3473:B I *D sky130_fd_sc_hd__or2_2
*I *4308:A I *D sky130_fd_sc_hd__dlygate4sd3_1
*I *3472:B I *D sky130_fd_sc_hd__nand2_2
*I *3857:Q O *D sky130_fd_sc_hd__dfrtp_2
*CAP
1 *3693:A0 0.000664883
2 *3473:B 0.000589977
3 *4308:A 0
4 *3472:B 0.000372301
5 *3857:Q 0
6 *983:31 0.000700012
7 *983:14 0.000958
8 *983:4 0.00114055
9 *3472:B *4318:A 5.54817e-06
10 *3693:A0 *986:27 1.74352e-05
11 *3473:A *3472:B 1.98839e-05
12 *3473:A *3473:B 0.000768319
13 *3473:A *983:31 0.000120604
14 *3477:B *3472:B 6.75878e-05
15 *3478:B *3472:B 0.000178425
16 *3484:A1 *3472:B 3.69047e-06
17 *3484:A2 *3473:B 0.000182598
18 *3484:A2 *983:14 0
19 *3484:B1 *3472:B 0.000399987
20 *3484:B2 *3472:B 0.000136727
21 *3484:B2 *983:14 3.57844e-05
22 *3627:S *983:14 0
23 *3628:A0 *3472:B 1.98839e-05
24 *3693:A1 *3693:A0 9.60939e-05
25 *3694:B2 *3473:B 2.71964e-05
26 *3698:B2 *3473:B 2.15688e-05
27 *3702:A2 *3473:B 1.38323e-05
28 *3702:A2 *983:31 6.05161e-06
29 *3902:RESET_B *3472:B 4.0444e-05
30 *3903:D *3473:B 4.13122e-06
31 *427:67 *3693:A0 1.21258e-05
32 *853:22 *3472:B 4.82354e-05
33 *853:22 *3473:B 5.51649e-05
34 *908:59 *983:14 4.36436e-05
35 *909:29 *3473:B 2.11693e-05
36 *982:10 *983:14 0.000170511
37 *982:21 *983:14 0.000331915
*RES
1 *3857:Q *983:4 9.3 
2 *983:4 *983:14 18.5893 
3 *983:14 *3472:B 27.5321 
4 *983:14 *983:31 2.17857 
5 *983:31 *4308:A 9.3 
6 *983:31 *3473:B 37.5321 
7 *983:4 *3693:A0 16.8179 
*END

*D_NET *984 0.00145347
*CONN
*I *4317:A I *D sky130_fd_sc_hd__dlygate4sd3_1
*I *3695:A0 I *D sky130_fd_sc_hd__mux2_1
*I *3476:B I *D sky130_fd_sc_hd__xor2_2
*I *3858:Q O *D sky130_fd_sc_hd__dfrtp_2
*CAP
1 *4317:A 0.000224367
2 *3695:A0 0.000252724
3 *3476:B 0.000286975
4 *3858:Q 0
5 *984:6 0.000315332
6 *3476:A *4317:A 4.70821e-05
7 *3485:B *3695:A0 5.49489e-05
8 *3858:RESET_B *3476:B 0.000129868
9 *3858:RESET_B *3695:A0 2.31791e-05
10 *4357:A *3695:A0 1.08359e-05
11 *4381:A *3695:A0 0
12 *427:55 *4317:A 5.52238e-05
13 *850:26 *3695:A0 5.2931e-05
14 *854:26 *3476:B 0
15 *854:26 *3695:A0 0
*RES
1 *3858:Q *984:6 13.8 
2 *984:6 *3476:B 6.14286 
3 *984:6 *3695:A0 18.1036 
4 *3476:B *4317:A 13.0589 
*END

*D_NET *985 0.00361021
*CONN
*I *3697:A0 I *D sky130_fd_sc_hd__mux2_1
*I *4318:A I *D sky130_fd_sc_hd__dlygate4sd3_1
*I *3479:B I *D sky130_fd_sc_hd__xor2_2
*I *3859:Q O *D sky130_fd_sc_hd__dfrtp_2
*CAP
1 *3697:A0 0.000584736
2 *4318:A 9.0165e-05
3 *3479:B 0.000137001
4 *3859:Q 8.12892e-05
5 *985:8 0.000227166
6 *985:6 0.000666025
7 *3472:B *4318:A 5.54817e-06
8 *3484:B1 *3479:B 1.69115e-05
9 *3484:B1 *4318:A 1.13495e-05
10 *3484:C1 *3479:B 0.000138881
11 *3628:A0 *4318:A 8.38511e-05
12 *3697:A1 *3697:A0 0.000771411
13 *3859:RESET_B *985:6 5.33005e-05
14 *3902:RESET_B *4318:A 0.000218685
15 *620:21 *3697:A0 1.21258e-05
16 *620:21 *985:6 1.21258e-05
17 *852:22 *3479:B 0.000232521
18 *852:22 *4318:A 3.34366e-05
19 *908:73 *3479:B 8.72073e-05
20 *913:44 *3479:B 0.00012401
21 *913:44 *4318:A 2.24646e-05
*RES
1 *3859:Q *985:6 10.2464 
2 *985:6 *985:8 4.5 
3 *985:8 *3479:B 9.08036 
4 *985:8 *4318:A 16.9607 
5 *985:6 *3697:A0 17.2286 
*END

*D_NET *986 0.00362532
*CONN
*I *3482:B I *D sky130_fd_sc_hd__xor2_2
*I *3699:A0 I *D sky130_fd_sc_hd__mux2_1
*I *4321:A I *D sky130_fd_sc_hd__dlygate4sd3_1
*I *3860:Q O *D sky130_fd_sc_hd__dfrtp_2
*CAP
1 *3482:B 0.000235664
2 *3699:A0 0
3 *4321:A 0.000111321
4 *3860:Q 0.000321009
5 *986:27 0.000418663
6 *986:10 0.00061533
7 *3631:A0 *3482:B 9.97744e-05
8 *3693:A0 *986:27 1.74352e-05
9 *3693:A1 *4321:A 0.000140517
10 *3693:A1 *986:10 4.6922e-05
11 *3693:A1 *986:27 2.89114e-05
12 *3700:B2 *3482:B 0.00034285
13 *3700:B2 *986:27 7.43578e-06
14 *4367:A *4321:A 0.000154225
15 *4381:A *3482:B 5.56679e-05
16 *427:55 *3482:B 4.38128e-05
17 *427:55 *986:27 0.00010096
18 *427:61 *986:27 0.000303494
19 *427:67 *986:10 4.43046e-05
20 *564:14 *3482:B 0.000177821
21 *620:58 *3482:B 0.00016792
22 *853:22 *986:27 5.62995e-05
23 *913:27 *986:10 0.000134979
*RES
1 *3860:Q *986:10 18.3357 
2 *986:10 *4321:A 16.05 
3 *986:10 *986:27 10.1071 
4 *986:27 *3699:A0 9.3 
5 *986:27 *3482:B 16.3482 
*END

*D_NET *987 0.00310309
*CONN
*I *4295:A I *D sky130_fd_sc_hd__dlygate4sd3_1
*I *3481:B I *D sky130_fd_sc_hd__nand2_2
*I *3480:B I *D sky130_fd_sc_hd__or2_2
*I *3701:A0 I *D sky130_fd_sc_hd__mux2_1
*I *3861:Q O *D sky130_fd_sc_hd__dfrtp_2
*CAP
1 *4295:A 0.000104299
2 *3481:B 0.000130024
3 *3480:B 0
4 *3701:A0 0
5 *3861:Q 0.000425447
6 *987:32 0.000273424
7 *987:23 0.000229092
8 *987:10 0.000615438
9 *3481:A *3481:B 0.000215784
10 *3483:B1 *4295:A 0.000314139
11 *3703:A1 *987:10 4.03318e-05
12 *3704:B2 *3481:B 0
13 *3704:B2 *987:10 2.61337e-05
14 *3704:B2 *987:23 7.71417e-05
15 *3861:RESET_B *987:10 3.60365e-05
16 *4113:A *4295:A 0.000440711
17 *4113:A *987:23 4.88637e-05
18 *4113:A *987:32 6.09899e-05
19 *4170:A *987:10 3.38136e-05
20 *845:10 *987:10 0
21 *845:10 *987:23 0
22 *909:29 *987:23 3.14193e-05
*RES
1 *3861:Q *987:10 19.5679 
2 *987:10 *3701:A0 13.8 
3 *987:10 *987:23 8.21429 
4 *987:23 *3480:B 9.3 
5 *987:23 *987:32 0.964286 
6 *987:32 *3481:B 21.1571 
7 *987:32 *4295:A 13.5321 
*END

*D_NET *988 0.00396441
*CONN
*I *4296:A I *D sky130_fd_sc_hd__dlygate4sd3_1
*I *3474:B I *D sky130_fd_sc_hd__or2_2
*I *3703:A0 I *D sky130_fd_sc_hd__mux2_1
*I *3475:B I *D sky130_fd_sc_hd__nand2_2
*I *3862:Q O *D sky130_fd_sc_hd__dfrtp_2
*CAP
1 *4296:A 0.000243148
2 *3474:B 4.74442e-05
3 *3703:A0 0.000391541
4 *3475:B 0.000151289
5 *3862:Q 0.000221689
6 *988:29 0.000479682
7 *988:12 0.000421568
8 *988:6 0.000694419
9 *3483:A1 *3474:B 3.06406e-05
10 *3483:A1 *988:29 1.19309e-05
11 *3483:A2 *3475:B 9.71197e-05
12 *3483:A2 *3703:A0 3.95241e-05
13 *3483:B1 *3703:A0 2.59355e-05
14 *3483:B2 *3703:A0 2.89114e-05
15 *3633:A0 *4296:A 0.000144773
16 *3687:B1 *4296:A 0
17 *3687:B1 *988:12 0
18 *3687:B1 *988:29 0
19 *3862:CLK *988:6 3.14163e-05
20 *3862:CLK *988:12 3.32631e-05
21 *3862:RESET_B *988:6 0.000138106
22 *3977:CLK *3475:B 2.50566e-05
23 *427:20 *3474:B 5.33882e-05
24 *427:20 *3475:B 9.71197e-05
25 *427:20 *3703:A0 5.99385e-05
26 *427:20 *988:12 1.52978e-05
27 *427:20 *988:29 4.02462e-05
28 *427:29 *3703:A0 7.32272e-05
29 *846:12 *4296:A 1.76039e-05
30 *846:23 *4296:A 0.000131874
31 *846:23 *988:12 7.16652e-05
32 *908:16 *4296:A 0.000146591
*RES
1 *3862:Q *988:6 12.3 
2 *988:6 *988:12 8.60714 
3 *988:12 *3475:B 17.2643 
4 *988:12 *988:29 1.03571 
5 *988:29 *3703:A0 18.8536 
6 *988:29 *3474:B 15.1393 
7 *988:6 *4296:A 23.8893 
*END

*D_NET *989 0.00452131
*CONN
*I *4279:A I *D sky130_fd_sc_hd__dlygate4sd3_1
*I *3460:A_N I *D sky130_fd_sc_hd__and3b_2
*I *3965:Q O *D sky130_fd_sc_hd__dfrtp_2
*CAP
1 *4279:A 0
2 *3460:A_N 0.000563095
3 *3965:Q 0.00083018
4 *989:20 0.00139327
5 *3460:A_N *3519:A 0.000144623
6 *3460:A_N *3743:B 1.76135e-05
7 *3460:A_N *1001:21 0.000103041
8 *3460:A_N *1001:32 7.48356e-05
9 *3460:A_N *1001:43 8.89289e-05
10 *3460:A_N *1001:54 7.252e-05
11 *3404:A *989:20 0.000168237
12 *3443:C *989:20 2.44318e-05
13 *3454:A1 *3460:A_N 0
14 *3892:D *3460:A_N 0
15 *3965:RESET_B *989:20 5.33334e-05
16 *3978:D *3460:A_N 0
17 *4123:A *989:20 1.01912e-05
18 *426:10 *989:20 0.000312215
19 *615:20 *989:20 8.79438e-05
20 *615:22 *989:20 0.00011062
21 *615:33 *989:20 4.46186e-06
22 *615:97 *989:20 0.000149769
23 *646:12 *989:20 0
24 *691:10 *3460:A_N 0
25 *872:16 *989:20 5.62995e-05
26 *949:25 *3460:A_N 0
27 *949:38 *989:20 0.000185397
28 *981:65 *989:20 5.8954e-05
29 *981:76 *989:20 1.13495e-05
*RES
1 *3965:Q *989:20 38.1393 
2 *989:20 *3460:A_N 30.2643 
3 *989:20 *4279:A 9.3 
*END

*D_NET *990 0.00886946
*CONN
*I *4325:A I *D sky130_fd_sc_hd__dlygate4sd3_1
*I *4330:A I *D sky130_fd_sc_hd__dlygate4sd3_1
*I *3341:A I *D sky130_fd_sc_hd__inv_2
*I *3460:B I *D sky130_fd_sc_hd__and3b_2
*I *3971:Q O *D sky130_fd_sc_hd__dfrtp_2
*CAP
1 *4325:A 0.000262616
2 *4330:A 9.21962e-05
3 *3341:A 0.000469523
4 *3460:B 8.08812e-05
5 *3971:Q 0.000695848
6 *990:18 0.00107929
7 *990:12 0.000707892
8 *990:10 0.00104527
9 *990:10 *3653:B 0.000358202
10 *990:10 *1023:10 0.000173614
11 *990:12 *1023:10 0.000135573
12 *990:18 *1001:43 0
13 *990:18 *1003:18 4.44851e-05
14 *3443:B *990:18 0.00015643
15 *3454:A1 *3341:A 5.52302e-05
16 *3454:A1 *990:18 0.000272672
17 *3454:A2 *990:18 0.000676441
18 *3518:B1 *3341:A 5.74633e-05
19 *3685:B2 *4325:A 0.000143633
20 *3945:CLK *3341:A 9.71197e-05
21 *3970:D *990:10 0.000553532
22 *3971:CLK *990:10 8.10573e-05
23 *4087:A *990:12 0.000149113
24 *4087:A *990:18 0.000129569
25 *4088:A *990:18 0.00010209
26 *4297:A *990:10 2.50556e-05
27 *4380:A *990:10 3.61696e-05
28 *111:10 *3341:A 0.000315172
29 *433:10 *3341:A 1.56e-05
30 *433:10 *3460:B 3.14048e-05
31 *615:84 *990:18 0
32 *615:121 *4330:A 0.000178503
33 *616:10 *3341:A 0.000122101
34 *616:72 *3341:A 7.43578e-06
35 *649:10 *990:10 2.19778e-05
36 *649:36 *990:10 7.70134e-05
37 *650:10 *990:10 0
38 *650:17 *990:10 0
39 *802:12 *4325:A 4.4545e-05
40 *838:12 *3341:A 0.000161683
41 *872:16 *990:10 8.15843e-05
42 *936:58 *990:18 0.000131472
*RES
1 *3971:Q *990:10 31.9071 
2 *990:10 *990:12 2.55357 
3 *990:12 *990:18 20.6429 
4 *990:18 *3460:B 10.2464 
5 *990:18 *3341:A 27.55 
6 *990:12 *4330:A 15.5679 
7 *990:10 *4325:A 18.9786 
*END

*D_NET *991 0.00166946
*CONN
*I *4255:A I *D sky130_fd_sc_hd__dlygate4sd3_1
*I *3340:A I *D sky130_fd_sc_hd__inv_2
*I *4017:Q O *D sky130_fd_sc_hd__dfrtp_2
*CAP
1 *4255:A 0
2 *3340:A 0.000138486
3 *4017:Q 0.000295822
4 *991:10 0.000434308
5 *3340:A *3451:B2 5.71472e-05
6 *991:10 *4209:A 0.000120724
7 *3451:B1 *3340:A 0
8 *3980:D *3340:A 0.000123912
9 *3980:D *991:10 0.000192035
10 *4017:RESET_B *991:10 0.000307028
11 *4019:RESET_B *991:10 0
*RES
1 *4017:Q *991:10 20.8357 
2 *991:10 *3340:A 17.1929 
3 *991:10 *4255:A 13.8 
*END

*D_NET *992 0.0068466
*CONN
*I *4168:A I *D sky130_fd_sc_hd__clkdlybuf4s25_1
*I *3976:Q O *D sky130_fd_sc_hd__dfrtp_2
*CAP
1 *4168:A 0
2 *3976:Q 0.000378349
3 *992:16 0.00166436
4 *992:8 0.00204271
5 *992:16 *3394:B2 0
6 o_cmd_status_reg[6] *992:16 2.8266e-06
7 *3659:A0 *992:16 0.000129198
8 *3660:A1 *992:16 0
9 *3880:RESET_B *992:16 0.000207918
10 *3881:D *992:16 0.000288386
11 *3882:D *992:16 0
12 *4384:A *992:16 0
13 *4385:A *992:16 0.000276211
14 *4387:A *992:16 0.000130733
15 *55:18 *992:16 3.47561e-05
16 *605:56 *992:16 0.000751642
17 *648:16 *992:16 0.000181113
18 *654:72 *992:16 0.000758403
*RES
1 *3976:Q *992:8 18.0321 
2 *992:8 *992:16 44.625 
3 *992:16 *4168:A 9.3 
*END

*D_NET *993 0.0153627
*CONN
*I *3744:A1 I *D sky130_fd_sc_hd__a21o_2
*I *3319:A I *D sky130_fd_sc_hd__inv_2
*I *3528:A1 I *D sky130_fd_sc_hd__a21o_2
*I *3436:A1 I *D sky130_fd_sc_hd__a22o_2
*I *4261:A I *D sky130_fd_sc_hd__dlygate4sd3_1
*I *4252:A I *D sky130_fd_sc_hd__dlygate4sd3_1
*I *3914:Q O *D sky130_fd_sc_hd__dfrtp_2
*CAP
1 *3744:A1 0.000479522
2 *3319:A 0
3 *3528:A1 0
4 *3436:A1 0.000343713
5 *4261:A 4.73303e-05
6 *4252:A 0
7 *3914:Q 5.18632e-05
8 *993:58 0.00104721
9 *993:46 0.00209847
10 *993:23 0.00151777
11 *993:14 0.00105929
12 *993:6 0.00151521
13 *3436:A1 *3436:A2 7.72033e-05
14 *3436:A1 *3437:B2 1.21258e-05
15 *3436:A1 *3528:A2 0.000273269
16 *3436:A1 *1051:39 7.48301e-06
17 *3744:A1 *1008:10 4.29179e-05
18 *993:14 *3520:B 9.99989e-05
19 *993:14 *1067:28 0
20 *993:14 *1093:12 9.87983e-06
21 *993:14 *1093:18 3.72459e-05
22 *993:14 *1093:46 1.5942e-05
23 *993:23 *1093:46 1.69115e-05
24 *993:46 *3440:A1 3.75052e-05
25 *993:46 *3625:A 1.88048e-05
26 *993:46 *4262:A 1.02504e-05
27 *993:46 *1093:46 4.52937e-05
28 *993:58 *4262:A 0.000104813
29 *993:58 *1065:10 0.000125724
30 *3361:B *993:14 0
31 *3362:S *993:14 0.000512752
32 *3363:B1 *3436:A1 2.14757e-05
33 *3363:B1 *993:58 9.40156e-05
34 *3433:B2 *993:14 0
35 *3435:B2 *993:58 0.000148911
36 *3436:B2 *3436:A1 9.80173e-05
37 *3438:A1 *993:46 2.59093e-05
38 *3468:B2 *993:14 0
39 *3528:B1 *993:58 0
40 *3786:A2 *993:58 0.000153781
41 *3792:A2 *993:46 4.78056e-05
42 *3914:D *3744:A1 0.000272658
43 *3914:RESET_B *3744:A1 7.92879e-05
44 *3931:D *993:14 0
45 *3936:CLK *993:14 4.79842e-05
46 *3936:CLK *993:23 1.41706e-05
47 *3936:D *993:14 0.000108848
48 *3936:D *993:23 7.80929e-05
49 *3941:CLK *993:58 0.000171375
50 *3942:D *993:46 0
51 *3942:SET_B *993:46 0.000606625
52 *3944:RESET_B *993:46 0
53 *3985:RESET_B *993:46 2.59093e-05
54 *3986:D *993:58 1.76039e-05
55 *4019:D *993:14 0.000368096
56 *4038:D *993:46 0.00010326
57 *4040:CLK *993:46 0.000166407
58 *4302:A *993:14 0
59 *120:12 *993:14 2.18827e-05
60 *354:20 *993:46 6.18969e-06
61 *617:124 *993:14 0.000446751
62 *626:21 *993:58 0.000249479
63 *626:23 *993:58 0.000220448
64 *627:10 *993:23 5.85135e-05
65 *627:10 *993:46 7.41547e-05
66 *627:40 *993:46 5.4763e-05
67 *627:42 *993:46 0.000183334
68 *627:44 *993:46 0.000110029
69 *645:59 *993:46 0
70 *645:78 *993:46 6.98864e-05
71 *645:78 *993:58 9.25014e-06
72 *645:101 *993:58 0.000142439
73 *645:114 *993:58 0
74 *686:10 *993:14 0
75 *753:12 *993:46 0
76 *880:91 *4261:A 0.000122101
77 *892:23 *993:46 6.84616e-05
78 *892:58 *993:46 4.53757e-05
79 *894:72 *4261:A 0.000227539
80 *958:18 *3744:A1 5.39629e-06
81 *958:18 *993:6 4.00276e-06
82 *958:18 *993:14 0.000983931
*RES
1 *3914:Q *993:6 9.83571 
2 *993:6 *993:14 32.6071 
3 *993:14 *4252:A 13.8 
4 *993:14 *993:23 2.55357 
5 *993:23 *4261:A 15.9786 
6 *993:23 *993:46 35.25 
7 *993:46 *993:58 21.4643 
8 *993:58 *3436:A1 16.0321 
9 *993:58 *3528:A1 9.3 
10 *993:46 *3319:A 13.8 
11 *993:6 *3744:A1 25.9964 
*END

*D_NET *994 0.0103612
*CONN
*I *3680:A1_N I *D sky130_fd_sc_hd__a2bb2o_2
*I *4070:A I *D sky130_fd_sc_hd__buf_2
*I *3393:B1_N I *D sky130_fd_sc_hd__o21ba_2
*I *3893:Q O *D sky130_fd_sc_hd__dfrtp_2
*CAP
1 *3680:A1_N 0.000635417
2 *4070:A 0.000160836
3 *3393:B1_N 0.00150207
4 *3893:Q 6.35045e-05
5 *994:18 0.00230649
6 *994:8 0.00134251
7 *3393:B1_N *3393:A1 0.000140933
8 *3393:B1_N *3393:A2 5.10482e-05
9 *3393:B1_N *4067:A 7.15977e-05
10 *3393:B1_N *1022:19 0.000692824
11 *3680:A1_N *4329:A 0.000126439
12 *994:18 *3655:A_N 9.21958e-05
13 *994:18 *3655:B 0.000552873
14 *994:18 *4183:A 0.000350585
15 *3467:B1 *3680:A1_N 6.10318e-05
16 *3652:B1 *4070:A 5.27486e-05
17 *3656:A1 *4070:A 5.33005e-05
18 *3656:A2 *994:18 7.76169e-05
19 *3656:B1 *4070:A 9.67754e-05
20 *3658:A1 *4070:A 4.37451e-05
21 *3681:A *3680:A1_N 4.57538e-05
22 *3681:B *3680:A1_N 2.89114e-05
23 *3879:D *3393:B1_N 7.36733e-05
24 *3879:D *4070:A 9.86486e-06
25 *3879:D *994:18 0.000125437
26 *3880:CLK *3393:B1_N 5.33334e-05
27 *3880:D *3393:B1_N 0.000166285
28 *3880:D *994:18 9.07839e-05
29 *3893:RESET_B *3680:A1_N 5.75103e-05
30 *3945:SET_B *3680:A1_N 3.79467e-05
31 *3951:RESET_B *3680:A1_N 0
32 *3973:CLK *994:18 0.000166976
33 *4065:A *3393:B1_N 4.8035e-05
34 *4126:A *3680:A1_N 0
35 *4167:A *4070:A 0.000182806
36 *605:46 *994:8 5.41609e-05
37 *605:56 *3680:A1_N 0
38 *605:56 *994:18 0
39 *614:10 *3393:B1_N 4.45753e-05
40 *614:63 *994:18 2.47319e-05
41 *614:74 *994:18 0.000566171
42 *652:16 *3680:A1_N 0.00010968
43 *654:72 *3680:A1_N 0
*RES
1 *3893:Q *994:8 15.1571 
2 *994:8 *994:18 20.6786 
3 *994:18 *3393:B1_N 34.5679 
4 *994:18 *4070:A 17.6393 
5 *994:8 *3680:A1_N 27.2554 
*END

*D_NET *995 0.00199361
*CONN
*I *4183:A I *D sky130_fd_sc_hd__dlygate4sd3_1
*I *3655:B I *D sky130_fd_sc_hd__and2b_2
*I *3895:Q O *D sky130_fd_sc_hd__dfrtp_2
*CAP
1 *4183:A 0.000157065
2 *3655:B 0.000220891
3 *3895:Q 0
4 *995:6 0.000377955
5 *3961:RESET_B *4183:A 0.000138015
6 *648:35 *3655:B 0.000134306
7 *648:45 *3655:B 5.01213e-05
8 *648:45 *4183:A 1.17968e-05
9 *994:18 *3655:B 0.000552873
10 *994:18 *4183:A 0.000350585
*RES
1 *3895:Q *995:6 13.8 
2 *995:6 *3655:B 20.9071 
3 *995:6 *4183:A 19.3893 
*END

*D_NET *996 0.00113581
*CONN
*I *3429:B2 I *D sky130_fd_sc_hd__a22o_2
*I *3336:A I *D sky130_fd_sc_hd__inv_2
*I *3980:Q O *D sky130_fd_sc_hd__dfrtp_2
*CAP
1 *3429:B2 1.84617e-05
2 *3336:A 0
3 *3980:Q 0.00042708
4 *996:12 0.000445542
5 *996:12 *3433:A1 0
6 *3433:A2 *996:12 4.03318e-05
7 *4017:D *996:12 3.71084e-05
8 *4265:A *996:12 0
9 *4316:A *996:12 0
10 *603:13 *996:12 0
11 *603:55 *996:12 0
12 *911:42 *3429:B2 2.44318e-05
13 *911:42 *996:12 0.000142856
*RES
1 *3980:Q *996:12 26.1571 
2 *996:12 *3336:A 9.3 
3 *996:12 *3429:B2 9.83571 
*END

*D_NET *997 0.00400768
*CONN
*I *3422:A1_N I *D sky130_fd_sc_hd__o2bb2a_2
*I *4198:A I *D sky130_fd_sc_hd__dlygate4sd3_1
*I *3975:Q O *D sky130_fd_sc_hd__dfrtp_2
*CAP
1 *3422:A1_N 0.000399099
2 *4198:A 0.000297469
3 *3975:Q 0.000192249
4 *997:10 0.000888817
5 *997:10 *1089:22 5.71472e-05
6 *3426:B1 *3422:A1_N 0.000150618
7 *3426:B1 *4198:A 9.60875e-05
8 *3431:A *997:10 0
9 *3778:B1 *3422:A1_N 5.61763e-05
10 *3928:SET_B *3422:A1_N 1.18064e-05
11 *3928:SET_B *997:10 5.33882e-05
12 *3930:CLK *3422:A1_N 0
13 *4022:CLK *4198:A 2.44318e-05
14 *105:21 *3422:A1_N 0.000809987
15 *603:63 *3422:A1_N 4.64488e-06
16 *607:12 *3422:A1_N 0.000367382
17 *607:16 *3422:A1_N 0.000189448
18 *607:16 *997:10 0.000153054
19 *611:132 *4198:A 0.000169383
20 *611:132 *997:10 6.22145e-05
21 *658:114 *3422:A1_N 0
22 *692:6 *4198:A 2.42778e-05
*RES
1 *3975:Q *997:10 18.1036 
2 *997:10 *4198:A 19.2821 
3 *997:10 *3422:A1_N 26.9161 
*END

*D_NET *998 0.00130541
*CONN
*I *4189:A I *D sky130_fd_sc_hd__dlygate4sd3_1
*I *3657:B I *D sky130_fd_sc_hd__and2b_2
*I *3894:Q O *D sky130_fd_sc_hd__dfrtp_2
*CAP
1 *4189:A 0.000159481
2 *3657:B 0.000290676
3 *3894:Q 0
4 *998:4 0.000450157
5 *3657:B *3657:A_N 3.37618e-05
6 *3518:A2 *3657:B 0
7 *3894:RESET_B *3657:B 5.33433e-05
8 *3894:RESET_B *4189:A 7.77652e-05
9 *3973:D *4189:A 5.01338e-05
10 *4013:CLK *4189:A 5.33005e-05
11 *543:25 *3657:B 3.45899e-05
12 *648:35 *3657:B 0
13 *682:8 *3657:B 5.33433e-05
14 *682:8 *4189:A 4.88637e-05
*RES
1 *3894:Q *998:4 9.3 
2 *998:4 *3657:B 24.5321 
3 *998:4 *4189:A 12.7107 
*END

*D_NET *999 0.00151532
*CONN
*I *4182:A I *D sky130_fd_sc_hd__dlygate4sd3_1
*I *3718:A I *D sky130_fd_sc_hd__or2_2
*I *3725:A1 I *D sky130_fd_sc_hd__o2111a_2
*I *3979:Q O *D sky130_fd_sc_hd__dfrtp_2
*CAP
1 *4182:A 0.000271053
2 *3718:A 0
3 *3725:A1 9.44048e-05
4 *3979:Q 0.000518499
5 *999:8 0.00034185
6 *3718:B *3725:A1 0.000154762
7 *3718:B *999:8 2.89114e-05
8 *3721:C *3725:A1 0
9 *3906:D *4182:A 0
10 *353:10 *4182:A 0
11 *621:29 *4182:A 1.24368e-05
12 *621:35 *4182:A 9.34004e-05
13 *972:12 *3725:A1 0
*RES
1 *3979:Q *999:8 13.55 
2 *999:8 *3725:A1 20.55 
3 *999:8 *3718:A 9.3 
4 *3979:Q *4182:A 32.7429 
*END

*D_NET *1000 0.0067415
*CONN
*I *4304:A I *D sky130_fd_sc_hd__dlygate4sd3_1
*I *4329:A I *D sky130_fd_sc_hd__dlygate4sd3_1
*I *3456:A1 I *D sky130_fd_sc_hd__a22o_2
*I *3518:A1 I *D sky130_fd_sc_hd__a21o_2
*I *3743:A I *D sky130_fd_sc_hd__nor2_2
*I *3945:Q O *D sky130_fd_sc_hd__dfstp_2
*CAP
1 *4304:A 0.00019067
2 *4329:A 4.8698e-05
3 *3456:A1 0.000204385
4 *3518:A1 0.000411709
5 *3743:A 0.000770224
6 *3945:Q 0.00019067
7 *1000:10 0.00130369
8 *1000:8 0.00111597
9 *1000:4 0.000838527
10 *3456:A1 *3680:A2_N 0.00011434
11 *3743:A *3461:A1 0.000137983
12 *3743:A *1003:12 3.00093e-05
13 *3461:B2 *3743:A 1.403e-05
14 *3467:B2 *3456:A1 0
15 *3518:B1 *3518:A1 0.00036496
16 *3680:A1_N *4329:A 0.000126439
17 *3680:B2 *3456:A1 0
18 *3893:D *3518:A1 0
19 *3945:CLK *1000:8 7.77751e-05
20 *3945:D *3456:A1 0
21 *3945:D *1000:10 0
22 *3948:D *3743:A 9.74783e-05
23 *3950:D *3456:A1 6.91157e-05
24 *3950:D *1000:10 9.25014e-06
25 *3976:D *3518:A1 2.72967e-05
26 *4126:A *4329:A 4.57445e-05
27 *616:76 *3518:A1 0.000196276
28 *616:78 *3518:A1 0.000250193
29 *838:12 *3456:A1 4.16066e-05
30 *838:12 *3518:A1 0
31 *838:12 *1000:10 6.44542e-05
*RES
1 *3945:Q *1000:4 9.3 
2 *1000:4 *1000:8 13.6607 
3 *1000:8 *1000:10 2.55357 
4 *1000:10 *3743:A 23.2821 
5 *1000:10 *3518:A1 24.3179 
6 *1000:8 *3456:A1 17.8179 
7 *1000:4 *4329:A 19.9429 
8 *3945:Q *4304:A 21.6 
*END

*D_NET *1001 0.00351095
*CONN
*I *3460:C I *D sky130_fd_sc_hd__and3b_2
*I *3743:B I *D sky130_fd_sc_hd__nor2_2
*I *3454:B1 I *D sky130_fd_sc_hd__o21a_2
*I *3682:A2 I *D sky130_fd_sc_hd__a21oi_2
*I *3683:C I *D sky130_fd_sc_hd__and3b_2
*I *3519:A I *D sky130_fd_sc_hd__and2_2
*I *3946:Q O *D sky130_fd_sc_hd__dfrtp_2
*CAP
1 *3460:C 6.39603e-05
2 *3743:B 0.000298882
3 *3454:B1 0
4 *3682:A2 2.52229e-05
5 *3683:C 7.35915e-05
6 *3519:A 0.000224012
7 *3946:Q 4.80778e-05
8 *1001:54 0.000428718
9 *1001:43 0.000160652
10 *1001:32 0.000185091
11 *1001:21 0.000209676
12 *1001:8 0.000343082
13 *3683:C *3683:A_N 0.000101117
14 *3443:B *3519:A 0.000118339
15 *3443:B *1001:21 3.92854e-05
16 *3443:C *3519:A 0.000269428
17 *3454:A1 *3743:B 0
18 *3454:A1 *1001:43 4.1331e-06
19 *3454:A1 *1001:54 5.26091e-05
20 *3460:A_N *3519:A 0.000144623
21 *3460:A_N *3743:B 1.76135e-05
22 *3460:A_N *1001:21 0.000103041
23 *3460:A_N *1001:32 7.48356e-05
24 *3460:A_N *1001:43 8.89289e-05
25 *3460:A_N *1001:54 7.252e-05
26 *3946:RESET_B *1001:8 5.39166e-06
27 *433:10 *3460:C 5.57334e-05
28 *433:10 *3743:B 0.000117036
29 *936:47 *3682:A2 5.52238e-05
30 *936:58 *1001:21 6.49413e-05
31 *936:58 *1001:32 6.5185e-05
32 *990:18 *1001:43 0
*RES
1 *3946:Q *1001:8 14.3357 
2 *1001:8 *3519:A 19.8536 
3 *1001:8 *1001:21 2.55357 
4 *1001:21 *3683:C 14.7866 
5 *1001:21 *1001:32 1.94643 
6 *1001:32 *3682:A2 14.3357 
7 *1001:32 *1001:43 2.25 
8 *1001:43 *3454:B1 13.8 
9 *1001:43 *1001:54 6.44643 
10 *1001:54 *3743:B 23.5321 
11 *1001:54 *3460:C 10.2866 
*END

*D_NET *1002 0.00885104
*CONN
*I *3462:A1 I *D sky130_fd_sc_hd__a22o_2
*I *3328:A I *D sky130_fd_sc_hd__inv_2
*I *3452:A I *D sky130_fd_sc_hd__and3_2
*I *3446:A I *D sky130_fd_sc_hd__or2_2
*I *3690:A1 I *D sky130_fd_sc_hd__a21o_2
*I *3687:A1 I *D sky130_fd_sc_hd__a221o_2
*I *3689:A1 I *D sky130_fd_sc_hd__a21oi_2
*I *3445:A I *D sky130_fd_sc_hd__nor2_2
*I *3947:Q O *D sky130_fd_sc_hd__dfrtp_2
*CAP
1 *3462:A1 6.15092e-05
2 *3328:A 0
3 *3452:A 0
4 *3446:A 2.13113e-05
5 *3690:A1 0.000113185
6 *3687:A1 0
7 *3689:A1 0.000133901
8 *3445:A 0.000337771
9 *3947:Q 0.000466141
10 *1002:64 0.000113185
11 *1002:51 0.000486972
12 *1002:45 0.000879041
13 *1002:22 0.000842429
14 *1002:20 7.97432e-05
15 *1002:16 0.000507211
16 *1002:8 0.000955118
17 *1002:16 *4306:A 0
18 *1002:45 *1007:10 7.53412e-05
19 *1002:45 *1007:14 0.000267849
20 *3465:A2 *1002:45 7.6739e-05
21 *3466:A *1002:16 0.000310233
22 *3466:B *1002:16 0.00040105
23 *3466:B *1002:20 5.49995e-05
24 *3466:B *1002:45 9.41642e-05
25 *3524:A2 *3445:A 5.66943e-05
26 *3524:A2 *1002:20 5.50052e-05
27 *3524:A2 *1002:45 0.00012415
28 *3687:A2 *3689:A1 9.15842e-06
29 *3687:A2 *3690:A1 1.46576e-05
30 *3687:A2 *1002:51 0.000157815
31 *3687:B1 *3689:A1 3.79254e-05
32 *3687:B1 *3690:A1 4.24237e-05
33 *3687:C1 *3445:A 1.53076e-05
34 *3688:B1 *1002:51 6.93626e-06
35 *3690:A2 *3689:A1 5.49995e-05
36 *3904:RESET_B *1002:45 4.63219e-05
37 *3904:RESET_B *1002:51 0.000116011
38 *3947:D *3462:A1 3.38136e-05
39 *3947:D *1002:16 1.76135e-05
40 *3947:RESET_B *1002:8 0.000138106
41 *3952:RESET_B *3445:A 4.41329e-06
42 *4090:A *3445:A 4.84159e-05
43 *106:18 *3689:A1 2.11336e-05
44 *426:10 *1002:8 7.86705e-05
45 *426:16 *1002:8 9.33978e-07
46 *426:16 *1002:16 0
47 *427:12 *3445:A 5.46383e-06
48 *427:12 *1002:51 1.05521e-05
49 *427:20 *3689:A1 5.30002e-05
50 *427:20 *1002:51 3.67279e-06
51 *428:12 *1002:51 4.07423e-05
52 *434:12 *1002:51 7.17807e-05
53 *434:16 *3690:A1 0.000288467
54 *434:18 *3690:A1 5.46383e-06
55 *618:12 *3445:A 0.000132766
56 *618:95 *3445:A 5.49995e-05
57 *618:134 *3445:A 0.000195263
58 *618:134 *1002:45 0.000114061
59 *634:34 *3445:A 3.59945e-05
60 *634:42 *1002:20 4.2538e-05
61 *638:37 *3462:A1 3.5707e-05
62 *638:37 *1002:16 0
63 *948:20 *1002:16 0
64 *948:20 *1002:45 9.41642e-05
65 *981:27 *3445:A 0.000308008
*RES
1 *3947:Q *1002:8 19.675 
2 *1002:8 *1002:16 14.4464 
3 *1002:16 *1002:20 1.78571 
4 *1002:20 *1002:22 4.5 
5 *1002:22 *3445:A 22.55 
6 *1002:22 *1002:45 13.3929 
7 *1002:45 *1002:51 11.0536 
8 *1002:51 *3689:A1 16.5857 
9 *1002:51 *1002:64 4.5 
10 *1002:64 *3687:A1 9.3 
11 *1002:64 *3690:A1 12.7464 
12 *1002:45 *3446:A 9.72857 
13 *1002:20 *3452:A 9.3 
14 *1002:16 *3328:A 9.3 
15 *1002:8 *3462:A1 15.1393 
*END

*D_NET *1003 0.0092096
*CONN
*I *3451:B2 I *D sky130_fd_sc_hd__a22o_2
*I *3680:A2_N I *D sky130_fd_sc_hd__a2bb2o_2
*I *3461:A1 I *D sky130_fd_sc_hd__a221o_2
*I *3682:B1 I *D sky130_fd_sc_hd__a21oi_2
*I *3683:A_N I *D sky130_fd_sc_hd__and3b_2
*I *3948:Q O *D sky130_fd_sc_hd__dfrtp_2
*CAP
1 *3451:B2 0.000509434
2 *3680:A2_N 0.000593487
3 *3461:A1 5.35074e-05
4 *3682:B1 5.79872e-05
5 *3683:A_N 0.000354466
6 *3948:Q 0.000749577
7 *1003:53 0.00126355
8 *1003:42 0.000270372
9 *1003:18 0.000707545
10 *1003:12 0.0011009
11 *3680:A2_N *3680:B1 5.52302e-05
12 *3340:A *3451:B2 5.71472e-05
13 *3342:A *3451:B2 9.90431e-05
14 *3451:B1 *3451:B2 0.000441737
15 *3454:A1 *1003:18 1.78241e-05
16 *3454:A1 *1003:42 3.09983e-05
17 *3456:A1 *3680:A2_N 0.00011434
18 *3456:B1 *3680:A2_N 8.24585e-05
19 *3461:A2 *3451:B2 0.000281897
20 *3461:A2 *3461:A1 3.33174e-05
21 *3461:A2 *1003:42 3.17148e-05
22 *3461:A2 *1003:53 0.000281028
23 *3467:B1 *3680:A2_N 0.000213767
24 *3680:B2 *3680:A2_N 0.000139913
25 *3683:C *3683:A_N 0.000101117
26 *3684:B2 *3683:A_N 5.33005e-05
27 *3743:A *3461:A1 0.000137983
28 *3743:A *1003:12 3.00093e-05
29 *3948:D *3461:A1 6.05161e-06
30 *3948:D *1003:12 0.000122101
31 *3948:RESET_B *1003:12 4.17828e-05
32 *3950:RESET_B *3451:B2 1.08359e-05
33 *4087:A *3683:A_N 0.000125724
34 *4088:A *3683:A_N 3.17148e-05
35 *4088:A *1003:18 0.000335674
36 *4256:A *3451:B2 2.89114e-05
37 *111:10 *3451:B2 0
38 *111:10 *1003:18 0
39 *111:10 *1003:53 0
40 *559:10 *3682:B1 1.21258e-05
41 *559:10 *3683:A_N 2.56601e-05
42 *560:10 *3683:A_N 1.98839e-05
43 *605:12 *3682:B1 5.33005e-05
44 *616:10 *1003:12 9.87983e-06
45 *616:10 *1003:18 3.79773e-05
46 *616:10 *1003:42 2.6949e-05
47 *616:21 *1003:42 7.79781e-06
48 *616:21 *1003:53 5.4061e-05
49 *651:8 *3451:B2 2.40379e-05
50 *752:6 *3680:A2_N 0.000230482
51 *838:12 *3680:A2_N 4.34948e-06
52 *838:12 *3683:A_N 0
53 *838:12 *1003:18 0
54 *978:18 *3451:B2 9.21604e-05
55 *990:18 *1003:18 4.44851e-05
*RES
1 *3948:Q *1003:12 23.3625 
2 *1003:12 *1003:18 7.00893 
3 *1003:18 *3683:A_N 19.9964 
4 *1003:18 *3682:B1 14.7464 
5 *1003:12 *1003:42 1.49107 
6 *1003:42 *3461:A1 15.1571 
7 *1003:42 *1003:53 3.76786 
8 *1003:53 *3680:A2_N 24.9429 
9 *1003:53 *3451:B2 25.9607 
*END

*D_NET *1004 0.00426478
*CONN
*I *4314:A I *D sky130_fd_sc_hd__dlygate4sd3_1
*I *3524:A1 I *D sky130_fd_sc_hd__a31o_2
*I *3457:B1 I *D sky130_fd_sc_hd__a31o_2
*I *3464:A I *D sky130_fd_sc_hd__or2_2
*I *3463:A I *D sky130_fd_sc_hd__nor2_2
*I *3949:Q O *D sky130_fd_sc_hd__dfrtp_2
*CAP
1 *4314:A 0.000235813
2 *3524:A1 3.25519e-05
3 *3457:B1 2.94474e-05
4 *3464:A 5.89741e-05
5 *3463:A 0
6 *3949:Q 0
7 *1004:26 0.00025499
8 *1004:18 0.000577455
9 *1004:12 0.000599047
10 *1004:4 0.000450316
11 *1004:26 *3445:B 0.000144732
12 *3447:B *3464:A 5.49995e-05
13 *3448:C *3457:B1 0.0001399
14 *3449:A1 *1004:18 6.05161e-06
15 *3449:B1 *1004:18 9.04846e-05
16 *3453:A2 *1004:12 3.57844e-05
17 *3457:A3 *3457:B1 0.0001399
18 *3459:A1 *3524:A1 2.89114e-05
19 *3459:A1 *1004:18 3.68898e-05
20 *3459:A2 *1004:18 0.000178847
21 *3464:B *3464:A 9.41642e-05
22 *3524:A3 *4314:A 3.69047e-06
23 *3524:A3 *1004:12 4.53889e-05
24 *3524:B1 *1004:12 9.69119e-06
25 *3524:B1 *1004:18 5.71472e-05
26 *3687:A2 *3464:A 0.000118629
27 *3949:RESET_B *1004:12 0
28 *3972:D *1004:12 0.000173804
29 *4090:A *1004:18 1.81805e-05
30 *4090:A *1004:26 0.000209376
31 *109:28 *1004:18 0.000114045
32 *109:28 *1004:26 0.000168089
33 *428:30 *1004:26 0
34 *429:12 *1004:18 9.25014e-06
35 *429:12 *1004:26 0.000145405
36 *618:57 *1004:26 2.8266e-06
*RES
1 *3949:Q *1004:4 9.3 
2 *1004:4 *1004:12 13.5179 
3 *1004:12 *1004:18 9.96429 
4 *1004:18 *1004:26 10.1429 
5 *1004:26 *3463:A 9.3 
6 *1004:26 *3464:A 11.0679 
7 *1004:18 *3457:B1 15.1571 
8 *1004:12 *3524:A1 9.83571 
9 *1004:4 *4314:A 12.7107 
*END

*D_NET *1005 0.00120998
*CONN
*I *4251:A I *D sky130_fd_sc_hd__dlygate4sd3_1
*I *3950:Q O *D sky130_fd_sc_hd__dfrtp_2
*CAP
1 *4251:A 0.000361678
2 *3950:Q 0.000361678
3 *3461:A2 *4251:A 0.000125731
4 *3950:RESET_B *4251:A 0.000125731
5 *616:23 *4251:A 0.000235164
*RES
1 *3950:Q *4251:A 33.475 
*END

*D_NET *1006 0.00239474
*CONN
*I *4238:A I *D sky130_fd_sc_hd__dlygate4sd3_1
*I *3680:B1 I *D sky130_fd_sc_hd__a2bb2o_2
*I *3951:Q O *D sky130_fd_sc_hd__dfrtp_2
*CAP
1 *4238:A 0
2 *3680:B1 0.000263565
3 *3951:Q 0.000319523
4 *1006:14 0.000583087
5 *3332:A *1006:14 5.33005e-05
6 *3467:A1 *3680:B1 0.00019549
7 *3467:A2 *1006:14 7.6644e-05
8 *3467:B1 *3680:B1 5.33005e-05
9 *3680:A2_N *3680:B1 5.52302e-05
10 *3680:B2 *3680:B1 0.000143408
11 *3680:B2 *1006:14 0.000101545
12 *3823:B1 *3680:B1 0
13 *3945:D *3680:B1 9.91086e-05
14 *3951:D *1006:14 0.00010462
15 *3951:RESET_B *3680:B1 0
16 *3975:D *1006:14 0
17 *4263:A *1006:14 0.000137983
18 *111:10 *1006:14 0
19 *651:34 *1006:14 0.000181803
20 *980:12 *3680:B1 1.52978e-05
21 *980:12 *1006:14 1.08359e-05
*RES
1 *3951:Q *1006:14 24.3 
2 *1006:14 *3680:B1 25.6393 
3 *1006:14 *4238:A 9.3 
*END

*D_NET *1007 0.00295322
*CONN
*I *4306:A I *D sky130_fd_sc_hd__dlygate4sd3_1
*I *3447:A_N I *D sky130_fd_sc_hd__nand2b_2
*I *3446:B I *D sky130_fd_sc_hd__or2_2
*I *3445:B I *D sky130_fd_sc_hd__nor2_2
*I *3952:Q O *D sky130_fd_sc_hd__dfrtp_2
*CAP
1 *4306:A 0.000143334
2 *3447:A_N 0
3 *3446:B 0
4 *3445:B 0.000206227
5 *3952:Q 0
6 *1007:14 0.000314187
7 *1007:10 0.000326917
8 *1007:4 0.00036229
9 *3447:B *1007:14 5.33005e-05
10 *3465:A2 *1007:10 7.6739e-05
11 *3904:RESET_B *1007:10 0
12 *3904:RESET_B *1007:14 0.00012788
13 *3952:D *4306:A 0.00014285
14 *3952:D *1007:10 0.000108535
15 *3952:RESET_B *4306:A 4.47354e-05
16 *3952:RESET_B *1007:10 6.05161e-06
17 *4090:A *3445:B 0.000107916
18 *109:28 *1007:10 9.41642e-05
19 *109:28 *1007:14 8.43535e-06
20 *426:16 *4306:A 5.83304e-05
21 *618:57 *3445:B 0.000104905
22 *948:20 *4306:A 0
23 *948:20 *1007:10 0.000178503
24 *1002:16 *4306:A 0
25 *1002:45 *1007:10 7.53412e-05
26 *1002:45 *1007:14 0.000267849
27 *1004:26 *3445:B 0.000144732
*RES
1 *3952:Q *1007:4 9.3 
2 *1007:4 *1007:10 5.5 
3 *1007:10 *1007:14 3.01786 
4 *1007:14 *3445:B 22.9786 
5 *1007:14 *3446:B 9.3 
6 *1007:10 *3447:A_N 9.3 
7 *1007:4 *4306:A 21.6036 
*END

*D_NET *1008 0.00365591
*CONN
*I *3451:A2 I *D sky130_fd_sc_hd__a22o_2
*I *4327:A I *D sky130_fd_sc_hd__dlygate4sd3_1
*I *4197:A I *D sky130_fd_sc_hd__dlygate4sd3_1
*I *3953:Q O *D sky130_fd_sc_hd__dfrtp_2
*CAP
1 *3451:A2 0.000185196
2 *4327:A 0
3 *4197:A 0.000510377
4 *3953:Q 0.000135232
5 *1008:10 0.000600923
6 *1008:8 0.000410974
7 *3451:A1 *3451:A2 0.000120009
8 *3744:A1 *1008:10 4.29179e-05
9 *3744:B1 *4197:A 0
10 *3744:B1 *1008:10 0
11 *3914:D *1008:10 0
12 *3914:RESET_B *3451:A2 0.000200413
13 *3914:RESET_B *1008:8 3.02581e-06
14 *3914:RESET_B *1008:10 5.66157e-05
15 *4116:A *3451:A2 0.00033153
16 *4116:A *4197:A 0.000603353
17 *4116:A *1008:10 0.000242372
18 *4256:A *3451:A2 4.24902e-05
19 *603:13 *3451:A2 0
20 *603:13 *1008:10 0
21 *638:37 *4197:A 0.000153047
22 *978:18 *3451:A2 1.74352e-05
*RES
1 *3953:Q *1008:8 15.5679 
2 *1008:8 *1008:10 3.16071 
3 *1008:10 *4197:A 25.1036 
4 *1008:10 *4327:A 13.8 
5 *1008:8 *3451:A2 19.8357 
*END

*D_NET *1009 0.000283349
*CONN
*I *4211:A I *D sky130_fd_sc_hd__dlygate4sd3_1
*I *3954:Q O *D sky130_fd_sc_hd__dfrtp_2
*CAP
1 *4211:A 4.46813e-05
2 *3954:Q 4.46813e-05
3 *3954:RESET_B *4211:A 0.000127446
4 *109:14 *4211:A 6.65398e-05
*RES
1 *3954:Q *4211:A 29.2429 
*END

*D_NET *1010 0.00356254
*CONN
*I *4180:A I *D sky130_fd_sc_hd__dlygate4sd3_1
*I *3634:A I *D sky130_fd_sc_hd__or3b_2
*I *3969:Q O *D sky130_fd_sc_hd__dfrtp_2
*CAP
1 *4180:A 0.000139602
2 *3634:A 0.000338641
3 *3969:Q 0.000374334
4 *1010:12 0.000852577
5 *4180:A *4176:A 6.02658e-05
6 *3635:C *3634:A 0.000706537
7 *3635:C *4180:A 0
8 *3863:D *1010:12 5.33005e-05
9 *3863:RESET_B *3634:A 2.16719e-05
10 *3964:CLK *3634:A 2.8266e-06
11 *3964:D *3634:A 0
12 *3968:D *3634:A 0.000149489
13 *4047:D *3634:A 0.000118052
14 *4047:D *4180:A 0.000267315
15 *4174:A *4180:A 0.000190187
16 *4174:A *1010:12 9.90367e-05
17 *4246:A *1010:12 4.58517e-05
18 *4383:A *1010:12 0.00014285
*RES
1 *3969:Q *1010:12 20.6393 
2 *1010:12 *3634:A 22.7464 
3 *1010:12 *4180:A 18.7821 
*END

*D_NET *1011 0.005625
*CONN
*I *4196:A I *D sky130_fd_sc_hd__dlygate4sd3_1
*I *3648:B I *D sky130_fd_sc_hd__nand2b_2
*I *3635:A I *D sky130_fd_sc_hd__nor3_2
*I *3964:Q O *D sky130_fd_sc_hd__dfrtp_2
*CAP
1 *4196:A 0.000668284
2 *3648:B 0.000229146
3 *3635:A 3.68446e-05
4 *3964:Q 0.000140022
5 *1011:10 0.00091512
6 *1011:6 0.00145744
7 *3648:B *3648:A_N 0.000197523
8 *3634:C_N *4196:A 0
9 *3635:B *3648:B 0.000124056
10 *3635:B *1011:10 8.6229e-06
11 *3635:C *1011:10 0
12 *3863:CLK *1011:10 0.000195072
13 *3863:D *1011:10 0.000284902
14 *3964:D *4196:A 2.89114e-05
15 *3964:D *1011:10 0
16 *3964:RESET_B *1011:6 7.40572e-05
17 *3964:RESET_B *1011:10 0
18 *3968:RESET_B *1011:10 0
19 *4383:A *4196:A 7.02611e-05
20 *60:14 *4196:A 5.10822e-05
21 *543:6 *3648:B 2.85321e-05
22 *613:10 *3648:B 4.69302e-05
23 *613:10 *1011:10 2.83284e-06
24 *613:16 *1011:10 1.56156e-05
25 *613:22 *1011:10 0
26 *728:14 *4196:A 0.000803923
27 *728:14 *1011:6 0.000245832
*RES
1 *3964:Q *1011:6 13.5321 
2 *1011:6 *1011:10 16.7679 
3 *1011:10 *3635:A 14.3357 
4 *1011:10 *3648:B 19.425 
5 *1011:6 *4196:A 33.6214 
*END

*D_NET *1012 0.00273207
*CONN
*I *3648:A_N I *D sky130_fd_sc_hd__nand2b_2
*I *4173:A I *D sky130_fd_sc_hd__dlygate4sd3_1
*I *3968:Q O *D sky130_fd_sc_hd__dfrtp_2
*CAP
1 *3648:A_N 0.000162182
2 *4173:A 0
3 *3968:Q 0.000476218
4 *1012:14 0.0006384
5 *3634:B *1012:14 1.05524e-05
6 *3648:B *3648:A_N 0.000197523
7 *3650:A2 *1012:14 6.13903e-05
8 *3876:D *1012:14 2.16482e-05
9 *4085:A *3648:A_N 0.000170375
10 *4085:A *1012:14 9.67754e-05
11 *4389:A *1012:14 2.55587e-05
12 *409:22 *1012:14 0.000266957
13 *613:10 *3648:A_N 0.000111444
14 *613:22 *1012:14 3.11683e-05
15 *654:10 *1012:14 0
16 *655:111 *1012:14 0
17 *706:12 *1012:14 0.000461877
*RES
1 *3968:Q *1012:14 29.1214 
2 *1012:14 *4173:A 9.3 
3 *1012:14 *3648:A_N 22.925 
*END

*D_NET *1013 0.00453693
*CONN
*I *3395:A I *D sky130_fd_sc_hd__or3_2
*I *3326:A I *D sky130_fd_sc_hd__inv_2
*I *3863:Q O *D sky130_fd_sc_hd__dfrtp_2
*CAP
1 *3395:A 0.000591421
2 *3326:A 0.000330446
3 *3863:Q 0.000192979
4 *1013:10 0.00111485
5 *1013:10 *1026:6 3.18676e-05
6 *3395:B *3395:A 0.000167669
7 *3650:A1 *3395:A 4.37451e-05
8 *3967:CLK *3395:A 0.000109881
9 *3969:CLK *3395:A 0.000128108
10 *3973:RESET_B *3395:A 0.000288743
11 *4341:A *3395:A 0
12 *4379:A *3395:A 5.49995e-05
13 *4385:A *3395:A 0
14 *4389:A *3326:A 0
15 *272:20 *3395:A 0.000310612
16 *409:22 *1013:10 6.96405e-05
17 *728:14 *3395:A 0.00023995
18 *728:14 *1013:10 0.000172616
19 *745:10 *3395:A 0.000354585
20 *910:10 *3395:A 8.8655e-05
21 *910:10 *1013:10 8.25675e-05
22 *910:50 *3395:A 1.88482e-05
23 *921:12 *3395:A 0.000144749
*RES
1 *3863:Q *1013:10 18.2286 
2 *1013:10 *3326:A 18.4607 
3 *1013:10 *3395:A 32.7464 
*END

*D_NET *1014 0.00144689
*CONN
*I *3655:A_N I *D sky130_fd_sc_hd__and2b_2
*I *3961:Q O *D sky130_fd_sc_hd__dfrtp_2
*CAP
1 *3655:A_N 0.000381466
2 *3961:Q 0.000381466
3 *3973:CLK *3655:A_N 0.000175519
4 *3973:D *3655:A_N 5.33882e-05
5 *605:56 *3655:A_N 0
6 *614:74 *3655:A_N 0.000362856
7 *994:18 *3655:A_N 9.21958e-05
*RES
1 *3961:Q *3655:A_N 37.0643 
*END

*D_NET *1015 0.00872449
*CONN
*I *4268:A I *D sky130_fd_sc_hd__dlygate4sd3_1
*I *3393:A2 I *D sky130_fd_sc_hd__o21ba_2
*I *4068:A I *D sky130_fd_sc_hd__buf_2
*I *3879:Q O *D sky130_fd_sc_hd__dfrtp_2
*CAP
1 *4268:A 0.000217224
2 *3393:A2 0.000328215
3 *4068:A 0.00227105
4 *3879:Q 0.000332423
5 *1015:8 0.00271446
6 *3393:A2 *3393:A1 6.87574e-05
7 *3393:A2 *4067:A 7.72332e-05
8 *3393:A2 *1022:19 0.000605085
9 *1015:8 *4266:A 0.000148863
10 *3393:B1_N *3393:A2 5.10482e-05
11 *3656:A1 *1015:8 7.74135e-05
12 *3970:D *4068:A 0
13 *4065:A *3393:A2 0.000295822
14 *4085:A *4268:A 6.88108e-05
15 *4123:A *4068:A 0
16 *4379:A *4068:A 0.000117065
17 *4379:A *1015:8 3.75333e-05
18 *4386:A *4068:A 3.42387e-05
19 *410:12 *4068:A 0.000227426
20 *410:12 *1015:8 0.000298084
21 *605:56 *4268:A 0.000141036
22 *649:36 *4068:A 0.000149298
23 *649:46 *4068:A 0.000177366
24 *921:12 *3393:A2 0.000180777
25 *981:65 *4068:A 0.000105258
*RES
1 *3879:Q *1015:8 17.8714 
2 *1015:8 *4068:A 32.4546 
3 *1015:8 *3393:A2 24.6214 
4 *3879:Q *4268:A 22.4393 
*END

*D_NET *1016 0.00286885
*CONN
*I *3966:D I *D sky130_fd_sc_hd__dfrtp_2
*I *3651:B I *D sky130_fd_sc_hd__and2b_2
*I *3404:X O *D sky130_fd_sc_hd__and2_2
*CAP
1 *3966:D 0
2 *3651:B 0.000836742
3 *3404:X 0.000333975
4 *1016:10 0.00117072
5 *3651:B *3651:A_N 2.89114e-05
6 *3651:B *3653:A_N 2.89114e-05
7 *3651:B *3653:B 0.000312215
8 *1016:10 *3963:D 1.84776e-05
9 *3654:A2 *3651:B 3.80953e-06
10 *3970:D *3651:B 5.14954e-05
11 *4297:A *3651:B 4.07505e-05
12 *4297:A *1016:10 4.28484e-05
13 *615:14 *1016:10 0
*RES
1 *3404:X *1016:10 18.3357 
2 *1016:10 *3651:B 25.0321 
3 *1016:10 *3966:D 13.8 
*END

*D_NET *1017 0.000477661
*CONN
*I *3651:A_N I *D sky130_fd_sc_hd__and2b_2
*I *3966:Q O *D sky130_fd_sc_hd__dfrtp_2
*CAP
1 *3651:A_N 0.000169856
2 *3966:Q 0.000169856
3 *3651:A_N *3653:A_N 3.96116e-05
4 *3651:B *3651:A_N 2.89114e-05
5 *3878:D *3651:A_N 6.02671e-05
6 *4167:A *3651:A_N 9.15784e-06
*RES
1 *3966:Q *3651:A_N 30.725 
*END

*D_NET *1018 0.00247857
*CONN
*I *4258:A I *D sky130_fd_sc_hd__dlygate4sd3_1
*I *4066:A I *D sky130_fd_sc_hd__buf_2
*I *3394:A2 I *D sky130_fd_sc_hd__o32a_2
*I *3877:Q O *D sky130_fd_sc_hd__dfrtp_2
*CAP
1 *4258:A 5.15327e-05
2 *4066:A 6.21526e-05
3 *3394:A2 7.14995e-05
4 *3877:Q 0.00010375
5 *1018:23 0.000277881
6 *1018:8 0.000339446
7 *3394:A2 *1025:12 5.25862e-06
8 *4066:A *1025:8 3.48705e-05
9 *4258:A *4067:A 4.98872e-05
10 *3660:A1 *3394:A2 0.000117457
11 *3660:A1 *1018:23 0.000296759
12 *3660:S *1018:23 5.33005e-05
13 *3877:RESET_B *1018:8 0.000137983
14 *3880:D *4258:A 3.51442e-05
15 *3881:CLK *3394:A2 9.49984e-05
16 *3881:CLK *1018:23 6.98302e-05
17 *4167:A *4258:A 0.000177948
18 *4384:A *4066:A 3.18676e-05
19 *4384:A *1018:23 6.14853e-05
20 *614:12 *4258:A 0
21 *614:12 *1018:23 0.000193234
22 *910:60 *4258:A 3.34366e-05
23 *910:60 *1018:23 0.000178847
*RES
1 *3877:Q *1018:8 15.1571 
2 *1018:8 *3394:A2 15.4429 
3 *1018:8 *1018:23 10.1429 
4 *1018:23 *4066:A 10.6571 
5 *1018:23 *4258:A 20.55 
*END

*D_NET *1019 0.00233769
*CONN
*I *4218:A I *D sky130_fd_sc_hd__dlygate4sd3_1
*I *3394:B2 I *D sky130_fd_sc_hd__o32a_2
*I *3882:Q O *D sky130_fd_sc_hd__dfrtp_2
*CAP
1 *4218:A 7.62808e-05
2 *3394:B2 0.00066075
3 *3882:Q 0.000737031
4 *3660:A1 *3394:B2 0.000119179
5 *3877:RESET_B *3394:B2 0.000223814
6 *3882:RESET_B *3394:B2 4.85567e-05
7 *4379:A *4218:A 6.65398e-05
8 *4385:A *4218:A 0.000125724
9 *728:14 *4218:A 0.000139907
10 *910:50 *4218:A 0.000139907
11 *992:16 *3394:B2 0
*RES
1 *3882:Q *3394:B2 35.9393 
2 *3882:Q *4218:A 30.6 
*END

*D_NET *1020 0.000781559
*CONN
*I *4177:A I *D sky130_fd_sc_hd__dlygate4sd3_1
*I *3970:Q O *D sky130_fd_sc_hd__dfrtp_2
*CAP
1 *4177:A 0.000234454
2 *3970:Q 0.000234454
3 *3970:D *4177:A 1.69115e-05
4 *3970:RESET_B *4177:A 0
5 *4297:A *4177:A 0.000295741
6 *649:46 *4177:A 0
*RES
1 *3970:Q *4177:A 32.6179 
*END

*D_NET *1021 0.000724995
*CONN
*I *3657:A_N I *D sky130_fd_sc_hd__and2b_2
*I *3959:Q O *D sky130_fd_sc_hd__dfrtp_2
*CAP
1 *3657:A_N 0.00028056
2 *3959:Q 0.00028056
3 *3657:B *3657:A_N 3.37618e-05
4 *3959:RESET_B *3657:A_N 0.000130112
*RES
1 *3959:Q *3657:A_N 31.5286 
*END

*D_NET *1022 0.00382456
*CONN
*I *3393:A1 I *D sky130_fd_sc_hd__o21ba_2
*I *4069:A I *D sky130_fd_sc_hd__buf_2
*I *4266:A I *D sky130_fd_sc_hd__dlygate4sd3_1
*I *3880:Q O *D sky130_fd_sc_hd__dfrtp_2
*CAP
1 *3393:A1 5.17769e-05
2 *4069:A 0.00019502
3 *4266:A 0.000272806
4 *3880:Q 0
5 *1022:19 0.000384931
6 *1022:4 0.00041094
7 *3393:A2 *3393:A1 6.87574e-05
8 *3393:A2 *1022:19 0.000605085
9 *3393:B1_N *3393:A1 0.000140933
10 *3393:B1_N *1022:19 0.000692824
11 *3656:A1 *4266:A 9.85599e-06
12 *4341:A *4069:A 0.000158126
13 *4379:A *4266:A 0.000147155
14 *614:8 *4266:A 7.88091e-05
15 *614:101 *4266:A 0.000303705
16 *654:10 *4069:A 0.000154971
17 *1015:8 *4266:A 0.000148863
*RES
1 *3880:Q *1022:4 9.3 
2 *1022:4 *4266:A 24.8893 
3 *1022:4 *1022:19 6.69643 
4 *1022:19 *4069:A 23.8893 
5 *1022:19 *3393:A1 11.0857 
*END

*D_NET *1023 0.00277362
*CONN
*I *3963:D I *D sky130_fd_sc_hd__dfrtp_2
*I *3653:B I *D sky130_fd_sc_hd__and2b_2
*I *3403:X O *D sky130_fd_sc_hd__and2_2
*CAP
1 *3963:D 0.000161732
2 *3653:B 0.000243624
3 *3403:X 0.00029807
4 *1023:10 0.000703427
5 *3651:B *3653:B 0.000312215
6 *3654:A2 *3653:B 1.40415e-05
7 *3970:D *3653:B 3.69047e-06
8 *4297:A *3653:B 0.000182742
9 *4297:A *1023:10 8.49275e-05
10 *615:121 *1023:10 8.32875e-05
11 *990:10 *3653:B 0.000358202
12 *990:10 *1023:10 0.000173614
13 *990:12 *1023:10 0.000135573
14 *1016:10 *3963:D 1.84776e-05
*RES
1 *3403:X *1023:10 20.05 
2 *1023:10 *3653:B 21.4786 
3 *1023:10 *3963:D 16.3893 
*END

*D_NET *1024 0.000617631
*CONN
*I *3653:A_N I *D sky130_fd_sc_hd__and2b_2
*I *3963:Q O *D sky130_fd_sc_hd__dfrtp_2
*CAP
1 *3653:A_N 0.000195235
2 *3963:Q 0.000195235
3 *3651:A_N *3653:A_N 3.96116e-05
4 *3651:B *3653:A_N 2.89114e-05
5 *3654:A2 *3653:A_N 0.000158638
6 *3878:D *3653:A_N 0
*RES
1 *3963:Q *3653:A_N 32.2071 
*END

*D_NET *1025 0.00359451
*CONN
*I *4067:A I *D sky130_fd_sc_hd__buf_2
*I *3394:A1 I *D sky130_fd_sc_hd__o32a_2
*I *4257:A I *D sky130_fd_sc_hd__dlygate4sd3_1
*I *3878:Q O *D sky130_fd_sc_hd__dfrtp_2
*CAP
1 *4067:A 0.000805132
2 *3394:A1 5.54137e-05
3 *4257:A 8.09582e-05
4 *3878:Q 0.000219886
5 *1025:12 0.000346487
6 *1025:8 0.00123513
7 *3394:A1 *3394:B1 0
8 *3393:A2 *4067:A 7.72332e-05
9 *3393:B1_N *4067:A 7.15977e-05
10 *3394:A2 *1025:12 5.25862e-06
11 *3394:A3 *3394:A1 5.7661e-06
12 *3880:D *4067:A 9.71197e-05
13 *3881:CLK *3394:A1 1.33343e-05
14 *3881:CLK *1025:12 7.90284e-05
15 *4066:A *1025:8 3.48705e-05
16 *4167:A *4067:A 1.90936e-05
17 *4258:A *4067:A 4.98872e-05
18 *4384:A *1025:8 0.00014285
19 *4388:A *4067:A 0
20 *4388:A *1025:12 0
21 *410:12 *3394:A1 4.59075e-05
22 *410:12 *4257:A 6.05161e-06
23 *614:12 *4067:A 8.96657e-05
24 *614:12 *1025:12 6.07232e-05
25 *910:60 *4067:A 5.31158e-05
*RES
1 *3878:Q *1025:8 16.8 
2 *1025:8 *1025:12 8.57143 
3 *1025:12 *4257:A 10.6571 
4 *1025:12 *3394:A1 10.675 
5 *1025:8 *4067:A 25.675 
*END

*D_NET *1026 0.0017999
*CONN
*I *3394:B1 I *D sky130_fd_sc_hd__o32a_2
*I *4221:A I *D sky130_fd_sc_hd__dlygate4sd3_1
*I *3881:Q O *D sky130_fd_sc_hd__dfrtp_2
*CAP
1 *3394:B1 0.000292137
2 *4221:A 6.4929e-05
3 *3881:Q 0.000177809
4 *1026:6 0.000534875
5 *3394:A1 *3394:B1 0
6 *3394:A3 *3394:B1 0.000312466
7 *3881:CLK *3394:B1 6.13479e-05
8 *4385:A *4221:A 0.000127446
9 *409:22 *3394:B1 4.88631e-05
10 *409:22 *1026:6 1.63504e-05
11 *410:12 *3394:B1 0.000106153
12 *728:14 *4221:A 2.56601e-05
13 *910:10 *4221:A 0
14 *1013:10 *1026:6 3.18676e-05
*RES
1 *3881:Q *1026:6 11.4786 
2 *1026:6 *4221:A 19.9429 
3 *1026:6 *3394:B1 17.1571 
*END

*D_NET *1027 0.000412601
*CONN
*I *4178:A I *D sky130_fd_sc_hd__dlygate4sd3_1
*I *4045:Q O *D sky130_fd_sc_hd__dfrtp_2
*CAP
1 *4178:A 0.000186212
2 *4045:Q 0.000186212
3 *4044:D *4178:A 4.01768e-05
*RES
1 *4045:Q *4178:A 22.0107 
*END

*D_NET *1028 0.00168079
*CONN
*I *3391:A2 I *D sky130_fd_sc_hd__a21o_2
*I *4190:A I *D sky130_fd_sc_hd__dlygate4sd3_1
*I *4044:Q O *D sky130_fd_sc_hd__dfrtp_2
*CAP
1 *3391:A2 7.77011e-05
2 *4190:A 0.000422219
3 *4044:Q 6.39763e-05
4 *1028:8 0.000563896
5 *4190:A *4169:A 5.52302e-05
6 *3391:A1 *4190:A 0
7 *3392:A2 *4190:A 4.72818e-05
8 *3853:A2 *4190:A 5.83233e-05
9 *3853:A2 *1028:8 0.000128161
10 *4044:RESET_B *3391:A2 3.18676e-05
11 *4044:RESET_B *1028:8 0
12 *659:75 *3391:A2 1.39726e-05
13 *659:75 *4190:A 0
14 *659:77 *3391:A2 0.000188586
15 *659:90 *1028:8 0
16 *683:6 *4190:A 2.95726e-05
17 *901:69 *4190:A 0
*RES
1 *4044:Q *1028:8 15.4429 
2 *1028:8 *4190:A 20.9964 
3 *1028:8 *3391:A2 15.9786 
*END

*D_NET *1029 0.000772212
*CONN
*I *4234:A I *D sky130_fd_sc_hd__dlygate4sd3_1
*I *4043:Q O *D sky130_fd_sc_hd__dfrtp_2
*CAP
1 *4234:A 0.000224285
2 *4043:Q 0.000224285
3 *4234:A *1030:16 9.90431e-05
4 *3915:D *4234:A 0.000224599
5 *3915:RESET_B *4234:A 0
6 *4153:A *4234:A 0
7 *911:10 *4234:A 0
*RES
1 *4043:Q *4234:A 32.6179 
*END

*D_NET *1030 0.0112903
*CONN
*I *4169:A I *D sky130_fd_sc_hd__clkdlybuf4s25_1
*I *3527:B1 I *D sky130_fd_sc_hd__o211a_2
*I *3437:A1 I *D sky130_fd_sc_hd__a22o_2
*I *3439:A I *D sky130_fd_sc_hd__and2_2
*I *3440:A1 I *D sky130_fd_sc_hd__a21oi_2
*I *3915:Q O *D sky130_fd_sc_hd__dfrtp_2
*CAP
1 *4169:A 0.000128102
2 *3527:B1 0.000921242
3 *3437:A1 0
4 *3439:A 0
5 *3440:A1 0.000433615
6 *3915:Q 5.77931e-05
7 *1030:28 0.000799369
8 *1030:18 0.000622698
9 *1030:16 0.00228374
10 *1030:8 0.00129145
11 *3440:A1 *3439:B 9.90431e-05
12 *3527:B1 *3434:B 0
13 *1030:18 *4213:A 0
14 *1030:28 *3438:A2 0
15 *1030:28 *3439:B 0.000138881
16 *1030:28 *3442:A1 0.000295794
17 *1030:28 *4213:A 0
18 *1030:28 *1035:12 4.18895e-05
19 *3363:A3 *3527:B1 0.000122754
20 *3391:B1 *4169:A 0
21 *3391:B1 *1030:16 5.37963e-05
22 *3392:A2 *4169:A 5.52302e-05
23 *3436:B1 *1030:16 4.038e-06
24 *3436:B1 *1030:18 0.000163127
25 *3440:B1 *3440:A1 0
26 *3526:A2 *3527:B1 4.58194e-05
27 *3526:B1 *3527:B1 0.00018372
28 *3527:C1 *3527:B1 0.000102545
29 *3786:B1 *3527:B1 2.32013e-05
30 *3790:B1 *1030:28 2.16719e-05
31 *3791:B1 *3440:A1 1.38323e-05
32 *3792:A1 *3440:A1 0
33 *3940:RESET_B *1030:18 0
34 *3942:SET_B *1030:28 0.00014101
35 *4038:D *3440:A1 0.000566251
36 *4038:D *1030:28 0.000169359
37 *4043:D *4169:A 0.000177948
38 *4043:D *1030:8 0.00010326
39 *4190:A *4169:A 5.52302e-05
40 *4234:A *1030:16 9.90431e-05
41 *4253:A *3527:B1 0.00014183
42 *4253:A *1030:16 5.33882e-05
43 *94:10 *1030:16 0.000103267
44 *94:10 *1030:18 3.17148e-05
45 *360:33 *3440:A1 0.000388146
46 *367:20 *3527:B1 0.000109537
47 *628:12 *1030:8 0
48 *628:12 *1030:16 5.52302e-05
49 *645:78 *3440:A1 0.000183403
50 *645:101 *3527:B1 0.00024494
51 *659:75 *4169:A 1.46624e-05
52 *709:10 *1030:28 5.10822e-05
53 *878:53 *3440:A1 9.60939e-05
54 *892:23 *1030:28 1.01417e-05
55 *892:58 *3440:A1 9.25014e-06
56 *893:8 *1030:16 0.00040279
57 *911:10 *4169:A 0
58 *934:26 *3440:A1 0.00014183
59 *993:46 *3440:A1 3.75052e-05
*RES
1 *3915:Q *1030:8 15.1393 
2 *1030:8 *1030:16 28.4286 
3 *1030:16 *1030:18 5.89286 
4 *1030:18 *1030:28 14.0357 
5 *1030:28 *3440:A1 31.0679 
6 *1030:28 *3439:A 9.3 
7 *1030:18 *3437:A1 13.8 
8 *1030:16 *3527:B1 38.1393 
9 *1030:8 *4169:A 17.1929 
*END

*D_NET *1031 0.000455016
*CONN
*I *4175:A I *D sky130_fd_sc_hd__dlygate4sd3_1
*I *4042:Q O *D sky130_fd_sc_hd__dfrtp_2
*CAP
1 *4175:A 0.000185176
2 *4042:Q 0.000185176
3 *3850:A1 *4175:A 1.02504e-05
4 *4041:D *4175:A 3.92854e-05
5 *4151:A *4175:A 2.00751e-05
6 *11:10 *4175:A 0
7 *934:26 *4175:A 1.50524e-05
*RES
1 *4042:Q *4175:A 30.6 
*END

*D_NET *1032 0.000773938
*CONN
*I *3389:A2 I *D sky130_fd_sc_hd__a21o_2
*I *4186:A I *D sky130_fd_sc_hd__dlygate4sd3_1
*I *4041:Q O *D sky130_fd_sc_hd__dfrtp_2
*CAP
1 *3389:A2 2.14084e-05
2 *4186:A 0.000140837
3 *4041:Q 0.000119429
4 *679:8 *4186:A 5.76121e-05
5 *934:26 *3389:A2 3.18676e-05
6 *934:26 *4186:A 0.000402784
*RES
1 *4041:Q *4186:A 22.4214 
2 *4186:A *3389:A2 19.1357 
*END

*D_NET *1033 0.000764525
*CONN
*I *4227:A I *D sky130_fd_sc_hd__dlygate4sd3_1
*I *4040:Q O *D sky130_fd_sc_hd__dfrtp_2
*CAP
1 *4227:A 0.000206443
2 *4040:Q 0.000206443
3 *4040:CLK *4227:A 0.000351638
*RES
1 *4040:Q *4227:A 22.7429 
*END

*D_NET *1034 0.00266786
*CONN
*I *4226:A I *D sky130_fd_sc_hd__dlygate4sd3_1
*I *3389:A1 I *D sky130_fd_sc_hd__a21o_2
*I *3324:A I *D sky130_fd_sc_hd__inv_2
*I *3916:Q O *D sky130_fd_sc_hd__dfrtp_2
*CAP
1 *4226:A 0.000255345
2 *3389:A1 9.52559e-05
3 *3324:A 0.000370137
4 *3916:Q 0.000328011
5 *1034:6 0.000538058
6 *3324:A *3396:B 8.06427e-05
7 *3390:B1 *3324:A 0.000100831
8 *3434:A *3389:A1 0.000270243
9 *3846:A1 *3324:A 0.000272672
10 *3916:D *3324:A 0
11 *3916:RESET_B *3389:A1 6.44449e-05
12 *4111:A *4226:A 0
13 *723:10 *3324:A 1.58163e-05
14 *723:10 *3389:A1 8.15095e-05
15 *723:10 *4226:A 9.60875e-05
16 *723:10 *1034:6 3.14163e-05
17 *878:92 *3324:A 6.73939e-05
*RES
1 *3916:Q *1034:6 10.2464 
2 *1034:6 *3324:A 25.2643 
3 *1034:6 *3389:A1 21.7643 
4 *3916:Q *4226:A 22.4393 
*END

*D_NET *1035 0.00370442
*CONN
*I *3442:A1 I *D sky130_fd_sc_hd__o21a_2
*I *3439:B I *D sky130_fd_sc_hd__and2_2
*I *3942:Q O *D sky130_fd_sc_hd__dfstp_2
*CAP
1 *3442:A1 0.000191639
2 *3439:B 5.06431e-05
3 *3942:Q 0.000559066
4 *1035:12 0.000801348
5 *1035:12 *4217:A 0.000353769
6 *3440:A1 *3439:B 9.90431e-05
7 *3442:A2 *3442:A1 8.66324e-05
8 *3790:A2 *3442:A1 5.59013e-05
9 *3791:A2 *1035:12 2.44318e-05
10 *3791:B1 *3439:B 0.00022266
11 *3791:B1 *1035:12 0.000350136
12 *3943:RESET_B *1035:12 8.95956e-05
13 *4038:D *1035:12 8.41716e-05
14 *603:55 *1035:12 0
15 *603:105 *1035:12 0
16 *627:40 *1035:12 0
17 *753:12 *3442:A1 0
18 *878:16 *1035:12 0.000130583
19 *878:33 *1035:12 0
20 *892:23 *3442:A1 5.15925e-05
21 *892:46 *3442:A1 7.6644e-05
22 *1030:28 *3439:B 0.000138881
23 *1030:28 *3442:A1 0.000295794
24 *1030:28 *1035:12 4.18895e-05
*RES
1 *3942:Q *1035:12 32.0679 
2 *1035:12 *3439:B 11.4786 
3 *1035:12 *3442:A1 23.2821 
*END

*D_NET *1036 0.000893198
*CONN
*I *4217:A I *D sky130_fd_sc_hd__dlygate4sd3_1
*I *3943:Q O *D sky130_fd_sc_hd__dfrtp_2
*CAP
1 *4217:A 0.000226166
2 *3943:Q 0.000226166
3 *4038:D *4217:A 5.52302e-05
4 *603:105 *4217:A 0
5 *627:98 *4217:A 3.18676e-05
6 *1035:12 *4217:A 0.000353769
*RES
1 *3943:Q *4217:A 32.3679 
*END

*D_NET *1037 0.000161517
*CONN
*I *4185:A I *D sky130_fd_sc_hd__dlygate4sd3_1
*I *3944:Q O *D sky130_fd_sc_hd__dfrtp_2
*CAP
1 *4185:A 8.07586e-05
2 *3944:Q 8.07586e-05
*RES
1 *3944:Q *4185:A 19.9571 
*END

*D_NET *1038 0.00103163
*CONN
*I *3396:A I *D sky130_fd_sc_hd__and4_2
*I *4016:Q O *D sky130_fd_sc_hd__dfstp_2
*CAP
1 *3396:A 0.000275934
2 *4016:Q 0.000275934
3 *3396:A *4192:A 9.41642e-05
4 *4016:D *3396:A 3.97677e-05
5 *4122:A *3396:A 9.60939e-05
6 *354:20 *3396:A 0.000125724
7 *894:51 *3396:A 0.00012401
*RES
1 *4016:Q *3396:A 32.7786 
*END

*D_NET *1039 0.00195488
*CONN
*I *3396:B I *D sky130_fd_sc_hd__and4_2
*I *4038:Q O *D sky130_fd_sc_hd__dfstp_2
*CAP
1 *3396:B 0.000460316
2 *4038:Q 0.000460316
3 *3324:A *3396:B 8.06427e-05
4 *3361:A *3396:B 0.000246049
5 *3396:C *3396:B 0.000283276
6 *3398:A *3396:B 0
7 *3662:A2 *3396:B 0
8 *3846:A2 *3396:B 0
9 *4073:TE_B *3396:B 0.00014183
10 *359:8 *3396:B 0.000260986
11 *937:12 *3396:B 2.14658e-05
12 *939:16 *3396:B 0
*RES
1 *4038:Q *3396:B 39.5286 
*END

*D_NET *1040 0.000523717
*CONN
*I *3761:A I *D sky130_fd_sc_hd__buf_1
*I *3996:Q O *D sky130_fd_sc_hd__dfstp_2
*CAP
1 *3761:A 0.000222976
2 *3996:Q 0.000222976
3 *4044:D *3761:A 0
4 *4045:CLK *3761:A 0
5 *4071:A *3761:A 0
6 *4071:TE_B *3761:A 7.77652e-05
*RES
1 *3996:Q *3761:A 31.725 
*END

*D_NET *1041 0.0051237
*CONN
*I *3365:D I *D sky130_fd_sc_hd__and4_2
*I *3387:A2 I *D sky130_fd_sc_hd__o21ai_2
*I *3385:A2 I *D sky130_fd_sc_hd__a21o_2
*I *3507:A I *D sky130_fd_sc_hd__xor2_2
*I *3364:C I *D sky130_fd_sc_hd__and3_2
*I *3388:A2 I *D sky130_fd_sc_hd__a21oi_2
*I *3917:Q O *D sky130_fd_sc_hd__dfrtp_2
*CAP
1 *3365:D 0.000442258
2 *3387:A2 0
3 *3385:A2 0
4 *3507:A 0.000173269
5 *3364:C 9.00669e-05
6 *3388:A2 0
7 *3917:Q 0.000804808
8 *1041:40 0.000273002
9 *1041:25 0.000201044
10 *1041:23 9.51775e-05
11 *1041:21 0.000670726
12 *1041:10 0.000949342
13 *3364:C *3364:A 9.90367e-05
14 *3365:D *3365:B 0.00022459
15 *3507:A *3507:B 0
16 *3507:A *1042:29 0.000184745
17 *1041:21 *3364:B 0
18 *1041:21 *3387:A1 0
19 *1041:23 *3364:A 5.52238e-05
20 *1041:25 *3364:A 5.52302e-05
21 *1041:40 *3364:B 0
22 *1041:40 *3387:A1 1.52978e-05
23 *1041:40 *1050:27 5.74562e-05
24 *3388:B1 *3364:C 6.05161e-06
25 *3388:B1 *1041:10 0
26 *3388:B1 *1041:21 0
27 *3388:B1 *1041:25 2.28598e-05
28 *3767:A1 *3365:D 9.71197e-05
29 *3767:B1 *1041:21 4.57445e-05
30 *3917:CLK *1041:10 7.43578e-06
31 *3917:D *1041:10 2.56694e-05
32 *3918:CLK *3365:D 8.00806e-05
33 *3918:D *3365:D 7.83587e-05
34 *391:10 *3364:C 4.59075e-05
35 *391:10 *3365:D 1.33343e-05
36 *391:10 *1041:23 8.71377e-05
37 *641:54 *3364:C 2.59355e-05
38 *641:54 *1041:10 0
39 *644:27 *1041:10 9.90431e-05
40 *876:20 *3365:D 4.72917e-05
41 *876:20 *3507:A 5.04589e-05
42 *877:14 *1041:10 0
43 *877:14 *1041:21 0
*RES
1 *3917:Q *1041:10 23.675 
2 *1041:10 *3388:A2 13.8 
3 *1041:10 *1041:21 7.05357 
4 *1041:21 *1041:23 2.17857 
5 *1041:23 *1041:25 0.535714 
6 *1041:25 *3364:C 11.4964 
7 *1041:25 *1041:40 10.9464 
8 *1041:40 *3507:A 12.7286 
9 *1041:40 *3385:A2 9.3 
10 *1041:23 *3387:A2 9.3 
11 *1041:21 *3365:D 25.7821 
*END

*D_NET *1042 0.0045157
*CONN
*I *3385:B1 I *D sky130_fd_sc_hd__a21o_2
*I *3508:A I *D sky130_fd_sc_hd__xnor2_2
*I *3364:B I *D sky130_fd_sc_hd__and3_2
*I *3365:C I *D sky130_fd_sc_hd__and4_2
*I *3918:Q O *D sky130_fd_sc_hd__dfrtp_2
*CAP
1 *3385:B1 0
2 *3508:A 0.000214486
3 *3364:B 0.000187605
4 *3365:C 0
5 *3918:Q 0.000409812
6 *1042:29 0.000468476
7 *1042:25 0.000339225
8 *1042:10 0.000682652
9 *3364:B *3387:A1 0
10 *1042:25 *1050:16 0.000713325
11 *1042:29 *3385:A1 5.52238e-05
12 *1042:29 *1050:16 5.52302e-05
13 *3383:A2 *3508:A 0
14 *3387:B1 *3508:A 0
15 *3507:A *1042:29 0.000184745
16 *3514:A *3508:A 1.19309e-05
17 *3667:B *3364:B 8.07951e-05
18 *3766:A2 *1042:10 2.56694e-05
19 *3766:A2 *1042:25 2.56601e-05
20 *3803:B1 *3364:B 0
21 *3803:B1 *3508:A 0
22 *3918:D *1042:25 7.6696e-05
23 *11:10 *1042:10 4.26004e-05
24 *11:10 *1042:25 3.55261e-05
25 *392:10 *1042:25 3.18676e-05
26 *641:54 *3364:B 3.34295e-05
27 *876:6 *1042:10 0.000203922
28 *876:20 *1042:25 0.000390994
29 *876:20 *1042:29 0.000168067
30 *890:27 *3508:A 7.77652e-05
31 *1041:21 *3364:B 0
32 *1041:40 *3364:B 0
*RES
1 *3918:Q *1042:10 19.8893 
2 *1042:10 *3365:C 13.8 
3 *1042:10 *1042:25 13.0714 
4 *1042:25 *1042:29 7.5 
5 *1042:29 *3364:B 16.9607 
6 *1042:29 *3508:A 18.0143 
7 *1042:25 *3385:B1 9.3 
*END

*D_NET *1043 0.00347752
*CONN
*I *3506:A I *D sky130_fd_sc_hd__xor2_2
*I *3383:A1 I *D sky130_fd_sc_hd__o21ai_2
*I *3365:B I *D sky130_fd_sc_hd__and4_2
*I *3919:Q O *D sky130_fd_sc_hd__dfrtp_2
*CAP
1 *3506:A 0.000347702
2 *3383:A1 0.000466133
3 *3365:B 0.000258638
4 *3919:Q 0.000154847
5 *1043:8 0.000531917
6 *3365:B *1050:16 0.000519502
7 *3365:D *3365:B 0.00022459
8 *3383:A2 *3383:A1 4.8476e-05
9 *3383:A2 *3506:A 9.90431e-05
10 *3386:C *3365:B 0.000102303
11 *3513:C1 *3383:A1 0
12 *3513:C1 *3506:A 0.00024424
13 *3919:RESET_B *3365:B 8.03134e-05
14 *3919:RESET_B *3383:A1 3.90513e-05
15 *3919:RESET_B *1043:8 3.14178e-05
16 *396:32 *3383:A1 9.65171e-05
17 *625:92 *3383:A1 0
18 *877:31 *3365:B 0.000166503
19 *877:31 *3383:A1 5.83304e-05
20 *890:27 *1043:8 7.99345e-06
*RES
1 *3919:Q *1043:8 15.5679 
2 *1043:8 *3365:B 21.1036 
3 *1043:8 *3383:A1 17.2643 
4 *3383:A1 *3506:A 26.1179 
*END

*D_NET *1044 0.00499478
*CONN
*I *3367:C I *D sky130_fd_sc_hd__and4_2
*I *3379:A1 I *D sky130_fd_sc_hd__a21o_2
*I *3323:A I *D sky130_fd_sc_hd__inv_2
*I *3366:B I *D sky130_fd_sc_hd__and3_2
*I *4237:A I *D sky130_fd_sc_hd__dlygate4sd3_1
*I *3381:A1 I *D sky130_fd_sc_hd__o21ai_2
*I *3920:Q O *D sky130_fd_sc_hd__dfrtp_2
*CAP
1 *3367:C 0
2 *3379:A1 5.18326e-05
3 *3323:A 0.000124576
4 *3366:B 4.16687e-05
5 *4237:A 0.000338155
6 *3381:A1 0.000345353
7 *3920:Q 2.59948e-05
8 *1044:53 0.000516346
9 *1044:49 0.000463378
10 *1044:45 0.00028165
11 *1044:8 0.000489297
12 *3366:B *3321:A 2.89016e-05
13 *3379:A1 *3367:A 5.00511e-05
14 *1044:45 *1048:35 9.93135e-05
15 *1044:53 *3321:A 4.59075e-05
16 *1044:53 *3367:A 0.000391765
17 *3366:C *3379:A1 2.90993e-05
18 *3367:D *1044:49 1.98839e-05
19 *3381:B1 *3381:A1 0
20 *3382:A1 *1044:45 0.000144941
21 *3514:B *3323:A 0
22 *3920:RESET_B *4237:A 0
23 *3920:RESET_B *1044:45 0
24 *3997:CLK *3381:A1 0.000263989
25 *3997:D *3381:A1 2.32517e-05
26 *4097:A *3381:A1 0.000162832
27 *4097:A *4237:A 8.15095e-05
28 *4097:A *1044:8 1.58163e-05
29 *355:18 *3323:A 0
30 *355:18 *1044:45 0.000534229
31 *392:29 *1044:45 9.25014e-06
32 *392:44 *3379:A1 1.1041e-05
33 *392:44 *1044:45 0.000197991
34 *392:44 *1044:49 1.04232e-05
35 *392:50 *3379:A1 5.08517e-05
36 *392:50 *1044:49 2.14658e-05
37 *396:16 *1044:8 2.59355e-05
38 *396:57 *3323:A 0
39 *606:67 *3381:A1 5.83304e-05
40 *891:62 *4237:A 3.9745e-05
*RES
1 *3920:Q *1044:8 14.3357 
2 *1044:8 *3381:A1 21.4429 
3 *1044:8 *4237:A 16.3536 
4 *4237:A *1044:45 25.9071 
5 *1044:45 *1044:49 1.375 
6 *1044:49 *1044:53 5.375 
7 *1044:53 *3366:B 9.83571 
8 *1044:53 *3323:A 20.2464 
9 *1044:49 *3379:A1 11.6125 
10 *1044:45 *3367:C 9.3 
*END

*D_NET *1045 0.00306987
*CONN
*I *3367:B I *D sky130_fd_sc_hd__and4_2
*I *3379:B1 I *D sky130_fd_sc_hd__a21o_2
*I *3366:A I *D sky130_fd_sc_hd__and3_2
*I *3322:A I *D sky130_fd_sc_hd__inv_2
*I *3921:Q O *D sky130_fd_sc_hd__dfrtp_2
*CAP
1 *3367:B 5.78647e-05
2 *3379:B1 0
3 *3366:A 2.23854e-05
4 *3322:A 2.52056e-05
5 *3921:Q 0.000511187
6 *1045:18 0.000134632
7 *1045:16 0.000336011
8 *1045:6 0.000818022
9 *3322:A *3321:A 5.52302e-05
10 *3366:A *3321:A 0
11 *1045:16 *3367:A 2.28598e-05
12 *1045:18 *3321:A 0.000217141
13 *1045:18 *3367:A 9.47613e-05
14 *3366:C *3366:A 0
15 *3366:C *1045:16 2.59355e-05
16 *3366:C *1045:18 0.000204171
17 *3380:C *1045:18 5.71472e-05
18 *3921:CLK *1045:16 0.00012401
19 *3921:D *1045:16 6.09889e-05
20 *3921:RESET_B *1045:6 0.000136182
21 *11:10 *3367:B 4.04022e-05
22 *396:57 *1045:16 0.000125731
*RES
1 *3921:Q *1045:6 15.5857 
2 *1045:6 *1045:16 13.3571 
3 *1045:16 *1045:18 3.82143 
4 *1045:18 *3322:A 9.83571 
5 *1045:18 *3366:A 9.72857 
6 *1045:16 *3379:B1 9.3 
7 *1045:6 *3367:B 19.3357 
*END

*D_NET *1046 0.00317078
*CONN
*I *4322:A I *D sky130_fd_sc_hd__dlygate4sd3_1
*I *3367:A I *D sky130_fd_sc_hd__and4_2
*I *3321:A I *D sky130_fd_sc_hd__inv_2
*I *3922:Q O *D sky130_fd_sc_hd__dfrtp_2
*CAP
1 *4322:A 0.000243087
2 *3367:A 0.00011242
3 *3321:A 0.000155097
4 *3922:Q 0
5 *1046:10 0.000520298
6 *1046:6 0.000495867
7 *3322:A *3321:A 5.52302e-05
8 *3366:A *3321:A 0
9 *3366:B *3321:A 2.89016e-05
10 *3366:C *3367:A 7.48301e-06
11 *3377:A2 *4322:A 0.000128154
12 *3377:A2 *1046:10 0.000271809
13 *3379:A1 *3367:A 5.00511e-05
14 *3380:C *1046:10 0.000100831
15 *355:18 *1046:10 0
16 *357:12 *3321:A 0.00010096
17 *393:10 *1046:10 0.000128154
18 *396:57 *1046:10 0
19 *1044:53 *3321:A 4.59075e-05
20 *1044:53 *3367:A 0.000391765
21 *1045:16 *3367:A 2.28598e-05
22 *1045:18 *3321:A 0.000217141
23 *1045:18 *3367:A 9.47613e-05
*RES
1 *3922:Q *1046:6 13.8 
2 *1046:6 *1046:10 10.3929 
3 *1046:10 *3321:A 13.55 
4 *1046:10 *3367:A 13.5679 
5 *1046:6 *4322:A 18.0321 
*END

*D_NET *1047 0.00655646
*CONN
*I *3373:A2 I *D sky130_fd_sc_hd__a311o_2
*I *3372:A1 I *D sky130_fd_sc_hd__a21oi_2
*I *3320:A I *D sky130_fd_sc_hd__inv_2
*I *3370:C I *D sky130_fd_sc_hd__nand4_2
*I *4320:A I *D sky130_fd_sc_hd__dlygate4sd3_1
*I *3368:A2 I *D sky130_fd_sc_hd__a31o_2
*I *3375:A1 I *D sky130_fd_sc_hd__o21ai_2
*I *3923:Q O *D sky130_fd_sc_hd__dfrtp_2
*CAP
1 *3373:A2 0.000136834
2 *3372:A1 0
3 *3320:A 7.32393e-05
4 *3370:C 2.03441e-05
5 *4320:A 0.000184208
6 *3368:A2 6.05826e-05
7 *3375:A1 9.29324e-05
8 *3923:Q 5.42996e-05
9 *1047:76 0.000756329
10 *1047:68 0.00102649
11 *1047:39 0.000393911
12 *1047:20 0.000456782
13 *1047:14 0.000312719
14 *1047:8 0.000338515
15 *3320:A *1048:35 0.000117543
16 *3370:C *1048:69 0
17 *3373:A2 *3373:A1 3.34624e-05
18 *3373:A2 *3373:B1 1.04232e-05
19 *3375:A1 *1049:6 4.18895e-05
20 *3375:A1 *1049:8 0.000182694
21 *1047:20 *3368:A1 0.000143475
22 *1047:39 *3368:A1 4.038e-06
23 *1047:39 *3368:B1 7.6644e-05
24 *3373:A3 *1047:14 0.000232399
25 *3373:A3 *1047:68 1.17968e-05
26 *3374:B *1047:76 0.000218315
27 *3375:A2 *3375:A1 5.7661e-06
28 *3376:A1 *3368:A2 3.98559e-05
29 *3376:A1 *4320:A 0.00010096
30 *3768:A1 *1047:14 0.000320024
31 *3768:A1 *1047:20 5.52302e-05
32 *3773:B1 *1047:68 0.000315179
33 *3923:RESET_B *1047:20 0
34 *3925:CLK *3375:A1 1.92789e-05
35 *3925:D *3375:A1 3.03042e-05
36 *3925:RESET_B *1047:8 7.83659e-05
37 *3925:RESET_B *1047:20 0
38 *394:52 *3368:A2 1.24368e-05
39 *394:58 *3368:A2 1.04232e-05
40 *394:58 *4320:A 9.7049e-06
41 *394:85 *3370:C 5.7661e-06
42 *394:85 *1047:14 4.14279e-05
43 *394:85 *1047:20 3.18676e-05
44 *396:14 *1047:76 5.39166e-06
45 *396:96 *1047:76 0.000125724
46 *626:56 *1047:76 0.000228558
47 *644:77 *1047:76 6.19181e-05
48 *644:83 *3320:A 7.84126e-05
*RES
1 *3923:Q *1047:8 15.1393 
2 *1047:8 *1047:14 8.03571 
3 *1047:14 *1047:20 10.0179 
4 *1047:20 *3375:A1 16.4071 
5 *1047:20 *1047:39 7.21429 
6 *1047:39 *3368:A2 10.675 
7 *1047:39 *4320:A 13.1393 
8 *1047:14 *3370:C 9.72857 
9 *1047:8 *1047:68 9.17857 
10 *1047:68 *1047:76 18.9821 
11 *1047:76 *3320:A 11.4786 
12 *1047:76 *3372:A1 9.3 
13 *1047:68 *3373:A2 11.6393 
*END

*D_NET *1048 0.0102402
*CONN
*I *3373:A1 I *D sky130_fd_sc_hd__a311o_2
*I *3370:B I *D sky130_fd_sc_hd__nand4_2
*I *3368:A1 I *D sky130_fd_sc_hd__a31o_2
*I *3509:B2 I *D sky130_fd_sc_hd__o221a_2
*I *3510:B2 I *D sky130_fd_sc_hd__a221o_2
*I *3372:B1 I *D sky130_fd_sc_hd__a21oi_2
*I *3924:Q O *D sky130_fd_sc_hd__dfrtp_2
*CAP
1 *3373:A1 0.000113086
2 *3370:B 0
3 *3368:A1 0.000190867
4 *3509:B2 0.000110916
5 *3510:B2 0.000251887
6 *3372:B1 0
7 *3924:Q 3.10251e-05
8 *1048:69 0.000419186
9 *1048:35 0.00193109
10 *1048:10 0.00244907
11 *1048:6 0.000796581
12 *3368:A1 *3368:B1 3.92854e-05
13 *3373:A1 *3373:B1 7.43578e-06
14 *3509:B2 *3505:B 0
15 *3509:B2 *3509:A2 7.50697e-05
16 *3509:B2 *3513:B1 0.000137931
17 *3510:B2 *3509:A2 0.00022139
18 *3510:B2 *3513:B1 5.83304e-05
19 *3510:B2 *1056:6 2.85551e-05
20 *1048:35 *3513:B1 2.89114e-05
21 *1048:69 *3370:A 5.52302e-05
22 *3320:A *1048:35 0.000117543
23 *3370:C *1048:69 0
24 *3371:C *1048:69 1.52978e-05
25 *3373:A2 *3373:A1 3.34624e-05
26 *3373:A3 *3373:A1 7.83587e-05
27 *3375:A2 *1048:69 5.59013e-05
28 *3382:A1 *1048:35 0.000370297
29 *3382:A2 *1048:35 2.84355e-05
30 *3510:B1 *3510:B2 3.04785e-05
31 *3513:B2 *1048:35 0.000166686
32 *3513:C1 *1048:35 6.35826e-05
33 *3768:A1 *1048:69 0.000157867
34 *3772:B1 *1048:10 7.58967e-05
35 *3803:B1 *3510:B2 0
36 *3924:D *1048:10 5.33005e-05
37 *3924:RESET_B *1048:6 5.52302e-05
38 *3924:RESET_B *1048:10 8.79458e-05
39 *355:18 *1048:35 0.000608333
40 *358:8 *1048:35 0.000169451
41 *394:44 *1048:69 5.22828e-05
42 *394:52 *3368:A1 0.000502177
43 *394:52 *1048:69 6.8646e-06
44 *394:85 *1048:69 5.52302e-05
45 *626:64 *1048:10 2.77173e-05
46 *626:70 *1048:10 1.74352e-05
47 *626:70 *1048:35 0.000139907
48 *626:70 *1048:69 3.46786e-05
49 *644:77 *1048:69 4.02462e-05
50 *644:83 *1048:35 2.88018e-06
51 *1044:45 *1048:35 9.93135e-05
52 *1047:20 *3368:A1 0.000143475
53 *1047:39 *3368:A1 4.038e-06
*RES
1 *3924:Q *1048:6 9.83571 
2 *1048:6 *1048:10 8.66071 
3 *1048:10 *3372:B1 9.3 
4 *1048:10 *1048:35 31.4643 
5 *1048:35 *3510:B2 19.675 
6 *1048:35 *3509:B2 16.2821 
7 *1048:10 *1048:69 14.4821 
8 *1048:69 *3368:A1 24.8 
9 *1048:69 *3370:B 9.3 
10 *1048:6 *3373:A1 20.3 
*END

*D_NET *1049 0.00745278
*CONN
*I *3368:B1 I *D sky130_fd_sc_hd__a31o_2
*I *3370:A I *D sky130_fd_sc_hd__nand4_2
*I *3505:A I *D sky130_fd_sc_hd__xnor2_2
*I *3925:Q O *D sky130_fd_sc_hd__dfrtp_2
*CAP
1 *3368:B1 5.28797e-05
2 *3370:A 0.00019529
3 *3505:A 0.00156505
4 *3925:Q 0.000595783
5 *1049:8 0.00203211
6 *1049:6 0.000920438
7 *3368:A1 *3368:B1 3.92854e-05
8 *3375:A1 *1049:6 4.18895e-05
9 *3375:A1 *1049:8 0.000182694
10 *3375:A2 *3370:A 0.000360102
11 *3375:A2 *1049:8 1.21258e-05
12 *3375:B1 *3370:A 6.8646e-06
13 *3375:B1 *3505:A 2.89114e-05
14 *3376:B1 *3370:A 3.17148e-05
15 *3376:B1 *3505:A 5.52238e-05
16 *3376:B1 *1049:8 4.08637e-05
17 *3768:A1 *3370:A 3.97677e-05
18 *3922:CLK *3505:A 0.000254059
19 *3922:RESET_B *3505:A 0.000179995
20 *3923:D *3370:A 2.14378e-05
21 *3923:RESET_B *3368:B1 0
22 *3925:CLK *1049:8 1.57523e-05
23 *11:8 *3505:A 0.000119216
24 *394:27 *3370:A 5.52238e-05
25 *394:44 *3370:A 9.60939e-05
26 *394:52 *3368:B1 7.79781e-06
27 *626:70 *3370:A 0.000197262
28 *626:81 *3370:A 0.000173076
29 *644:103 *3370:A 0
30 *1047:39 *3368:B1 7.6644e-05
31 *1048:69 *3370:A 5.52302e-05
*RES
1 *3925:Q *1049:6 15.9964 
2 *1049:6 *1049:8 3.41071 
3 *1049:8 *3505:A 30.8179 
4 *1049:8 *3370:A 25.2464 
5 *1049:6 *3368:B1 19.6393 
*END

*D_NET *1050 0.00610633
*CONN
*I *3363:A1 I *D sky130_fd_sc_hd__a31o_2
*I *4219:A I *D sky130_fd_sc_hd__dlygate4sd3_1
*I *3365:A I *D sky130_fd_sc_hd__and4_2
*I *3364:A I *D sky130_fd_sc_hd__and3_2
*I *3387:A1 I *D sky130_fd_sc_hd__o21ai_2
*I *3385:A1 I *D sky130_fd_sc_hd__a21o_2
*I *3926:Q O *D sky130_fd_sc_hd__dfrtp_2
*CAP
1 *3363:A1 0.000532432
2 *4219:A 0.000222583
3 *3365:A 0
4 *3364:A 3.6968e-05
5 *3387:A1 3.97265e-05
6 *3385:A1 2.85076e-05
7 *3926:Q 0.000715988
8 *1050:27 0.000141427
9 *1050:16 0.000409589
10 *1050:8 0.00051658
11 *1050:6 0.00060637
12 *3363:A1 *3434:B 6.55301e-05
13 *3363:A2 *3363:A1 2.13202e-05
14 *3363:A3 *3363:A1 5.52302e-05
15 *3364:B *3387:A1 0
16 *3364:C *3364:A 9.90367e-05
17 *3365:B *1050:16 0.000519502
18 *3386:A_N *1050:16 5.33005e-05
19 *3386:C *1050:16 7.01629e-05
20 *3387:B1 *3387:A1 2.8266e-06
21 *3387:B1 *1050:27 4.03318e-05
22 *3766:A2 *4219:A 0
23 *3774:B1 *3363:A1 9.90431e-05
24 *3918:RESET_B *4219:A 0
25 *3926:D *3363:A1 1.55885e-05
26 *4137:A *3363:A1 6.74911e-05
27 *4150:A *1050:6 5.52238e-05
28 *391:10 *3364:A 0.00018372
29 *606:67 *4219:A 0.000209574
30 *877:31 *3363:A1 5.03772e-05
31 *877:48 *3363:A1 2.49484e-05
32 *890:8 *1050:8 0.000151071
33 *891:62 *3363:A1 6.48957e-05
34 *1041:21 *3387:A1 0
35 *1041:23 *3364:A 5.52238e-05
36 *1041:25 *3364:A 5.52302e-05
37 *1041:40 *3387:A1 1.52978e-05
38 *1041:40 *1050:27 5.74562e-05
39 *1042:25 *1050:16 0.000713325
40 *1042:29 *3385:A1 5.52238e-05
41 *1042:29 *1050:16 5.52302e-05
*RES
1 *3926:Q *1050:6 12.3 
2 *1050:6 *1050:8 4.23214 
3 *1050:8 *1050:16 9.73214 
4 *1050:16 *3385:A1 9.83571 
5 *1050:16 *1050:27 6.14286 
6 *1050:27 *3387:A1 14.5321 
7 *1050:27 *3364:A 15.5679 
8 *1050:8 *3365:A 9.3 
9 *1050:6 *4219:A 23.2821 
10 *3926:Q *3363:A1 37.7964 
*END

*D_NET *1051 0.0074006
*CONN
*I *3369:B I *D sky130_fd_sc_hd__nor2_2
*I *3373:B1 I *D sky130_fd_sc_hd__a311o_2
*I *3437:B2 I *D sky130_fd_sc_hd__a22o_2
*I *3333:A I *D sky130_fd_sc_hd__inv_2
*I *3434:B I *D sky130_fd_sc_hd__or2_2
*I *3997:Q O *D sky130_fd_sc_hd__dfrtp_2
*CAP
1 *3369:B 0
2 *3373:B1 0.000199417
3 *3437:B2 0.000397604
4 *3333:A 3.6333e-05
5 *3434:B 0.000831237
6 *3997:Q 0.000238837
7 *1051:39 0.000613102
8 *1051:20 0.00136036
9 *1051:16 0.000642707
10 *1051:10 0.000332171
11 *3333:A *3436:A2 1.97695e-05
12 *3373:B1 *4291:A 0
13 *3437:B2 *3436:A2 9.25014e-06
14 *3437:B2 *3437:A2 0.000184745
15 *3437:B2 *3438:A2 1.02504e-05
16 *3437:B2 *1062:10 0.000150618
17 *3437:B2 *1062:30 0.000410611
18 *1051:16 *3369:A 5.52238e-05
19 *1051:39 *3436:A2 5.7661e-06
20 *1051:39 *3528:A2 3.30352e-05
21 *3363:A1 *3434:B 6.55301e-05
22 *3363:A2 *3434:B 8.31513e-06
23 *3363:A3 *3434:B 0
24 *3363:B1 *3434:B 0.000212324
25 *3363:B1 *1051:39 5.03772e-05
26 *3373:A1 *3373:B1 7.43578e-06
27 *3373:A2 *3373:B1 1.04232e-05
28 *3434:A *3434:B 0.00010096
29 *3436:A1 *3437:B2 1.21258e-05
30 *3436:A1 *1051:39 7.48301e-06
31 *3436:B1 *3437:B2 0
32 *3436:B2 *3437:B2 6.05161e-06
33 *3527:B1 *3434:B 0
34 *3528:B1 *3434:B 2.89016e-05
35 *3773:B1 *3373:B1 5.57914e-05
36 *3926:D *3434:B 9.60875e-05
37 *3926:RESET_B *3434:B 9.56872e-05
38 *3986:RESET_B *1051:20 0
39 *3996:CLK *1051:10 0.000173328
40 *3996:CLK *1051:16 3.98559e-05
41 *4098:A *1051:10 0.00010096
42 *396:14 *1051:10 0.000291626
43 *626:8 *1051:10 0.000186669
44 *644:55 *3434:B 5.38886e-05
45 *645:114 *3373:B1 2.05938e-05
46 *645:114 *1051:20 0.000215736
47 *763:10 *1051:20 2.94103e-05
48 *879:37 *1051:20 0
*RES
1 *3997:Q *1051:10 16.1393 
2 *1051:10 *1051:16 6.28571 
3 *1051:16 *1051:20 12.2143 
4 *1051:20 *3434:B 31.2464 
5 *1051:20 *1051:39 2.60714 
6 *1051:39 *3333:A 10.0321 
7 *1051:39 *3437:B2 27.7107 
8 *1051:16 *3373:B1 17.6214 
9 *1051:10 *3369:B 9.3 
*END

*D_NET *1052 0.00168049
*CONN
*I *4291:A I *D sky130_fd_sc_hd__dlygate4sd3_1
*I *3369:A I *D sky130_fd_sc_hd__nor2_2
*I *3986:Q O *D sky130_fd_sc_hd__dfrtp_2
*CAP
1 *4291:A 0.000229862
2 *3369:A 0.000190203
3 *3986:Q 5.33579e-05
4 *1052:8 0.000473423
5 *3373:B1 *4291:A 0
6 *3794:B1 *4291:A 2.84398e-05
7 *3986:RESET_B *1052:8 0
8 *3996:CLK *3369:A 0.000322132
9 *879:59 *4291:A 3.51442e-05
10 *879:59 *1052:8 0.000104974
11 *879:68 *4291:A 0.000187733
12 *1051:16 *3369:A 5.52238e-05
*RES
1 *3986:Q *1052:8 15.1393 
2 *1052:8 *3369:A 18.3 
3 *1052:8 *4291:A 18.425 
*END

*D_NET *1053 0.00223596
*CONN
*I *3507:B I *D sky130_fd_sc_hd__xor2_2
*I *3987:Q O *D sky130_fd_sc_hd__dfrtp_2
*CAP
1 *3507:B 0.000623659
2 *3987:Q 0.000623659
3 *3507:A *3507:B 0
4 *3795:A2 *3507:B 0.000141729
5 *3795:B1 *3507:B 4.4873e-05
6 *3796:B1 *3507:B 2.14658e-05
7 *3987:RESET_B *3507:B 0.000309733
8 *3988:D *3507:B 0.000315711
9 *3989:D *3507:B 0
10 *876:26 *3507:B 9.35729e-05
11 *876:30 *3507:B 8.25843e-06
12 *890:37 *3507:B 5.33005e-05
*RES
1 *3987:Q *3507:B 31.1482 
*END

*D_NET *1054 0.000315683
*CONN
*I *3508:B I *D sky130_fd_sc_hd__xnor2_2
*I *3988:Q O *D sky130_fd_sc_hd__dfrtp_2
*CAP
1 *3508:B 0.000118629
2 *3988:Q 0.000118629
3 *890:27 *3508:B 7.84241e-05
*RES
1 *3988:Q *3508:B 20.7786 
*END

*D_NET *1055 0.00156057
*CONN
*I *3506:B I *D sky130_fd_sc_hd__xor2_2
*I *3989:Q O *D sky130_fd_sc_hd__dfrtp_2
*CAP
1 *3506:B 0.000626635
2 *3989:Q 0.000626635
3 *3513:C1 *3506:B 2.81497e-05
4 *3988:D *3506:B 0.000173804
5 *3990:CLK *3506:B 0.000105347
*RES
1 *3989:Q *3506:B 29.7911 
*END

*D_NET *1056 0.00182488
*CONN
*I *3509:A2 I *D sky130_fd_sc_hd__o221a_2
*I *3510:A2 I *D sky130_fd_sc_hd__a221o_2
*I *3990:Q O *D sky130_fd_sc_hd__dfrtp_2
*CAP
1 *3509:A2 0.000196366
2 *3510:A2 3.85182e-05
3 *3990:Q 0.000142383
4 *1056:6 0.000377268
5 *3509:A1 *3509:A2 1.31516e-05
6 *3509:B2 *3509:A2 7.50697e-05
7 *3510:A1 *3509:A2 6.16936e-05
8 *3510:A1 *3510:A2 5.95283e-05
9 *3510:B1 *1056:6 5.62995e-05
10 *3510:B2 *3509:A2 0.00022139
11 *3510:B2 *1056:6 2.85551e-05
12 *3510:C1 *1056:6 0.000139907
13 *3515:B *3509:A2 0.000414748
*RES
1 *3990:Q *1056:6 12.3 
2 *1056:6 *3510:A2 10.2866 
3 *1056:6 *3509:A2 25.4071 
*END

*D_NET *1057 0.00246173
*CONN
*I *3513:A2 I *D sky130_fd_sc_hd__a221oi_2
*I *3512:A2 I *D sky130_fd_sc_hd__o221a_2
*I *3991:Q O *D sky130_fd_sc_hd__dfrtp_2
*CAP
1 *3513:A2 0
2 *3512:A2 0.000258512
3 *3991:Q 0.000252032
4 *1057:12 0.000510545
5 *3510:B1 *3512:A2 7.08001e-05
6 *3510:B1 *1057:12 0.000198698
7 *3512:C1 *3512:A2 2.89016e-05
8 *3799:A1 *1057:12 1.98839e-05
9 *3799:B1 *1057:12 5.52238e-05
10 *3803:B1 *1057:12 0.000198698
11 *387:14 *3512:A2 4.46186e-06
12 *625:8 *1057:12 0.00014631
13 *641:99 *1057:12 0.000270257
14 *876:70 *1057:12 0.000236736
15 *876:87 *3512:A2 0
16 *890:79 *1057:12 0.000210667
*RES
1 *3991:Q *1057:12 28.3714 
2 *1057:12 *3512:A2 23.1571 
3 *1057:12 *3513:A2 9.3 
*END

*D_NET *1058 0.00307338
*CONN
*I *3511:B1 I *D sky130_fd_sc_hd__o2bb2a_2
*I *3513:B1 I *D sky130_fd_sc_hd__a221oi_2
*I *3992:Q O *D sky130_fd_sc_hd__dfrtp_2
*CAP
1 *3511:B1 0.000151157
2 *3513:B1 0.000193503
3 *3992:Q 0.000648148
4 *1058:6 0.000992807
5 *3509:B2 *3513:B1 0.000137931
6 *3509:C1 *3511:B1 3.9745e-05
7 *3509:C1 *3513:B1 5.58941e-05
8 *3510:B2 *3513:B1 5.83304e-05
9 *3511:B2 *3511:B1 0
10 *3512:A1 *3513:B1 3.25078e-05
11 *3512:C1 *3511:B1 8.66063e-05
12 *3512:C1 *1058:6 0.000566251
13 *3513:A1 *3513:B1 8.15843e-05
14 *1048:35 *3513:B1 2.89114e-05
*RES
1 *3992:Q *1058:6 17.6393 
2 *1058:6 *3513:B1 22.7107 
3 *1058:6 *3511:B1 20.8893 
*END

*D_NET *1059 0.00379727
*CONN
*I *3512:B1 I *D sky130_fd_sc_hd__o221a_2
*I *3511:A2_N I *D sky130_fd_sc_hd__o2bb2a_2
*I *3993:Q O *D sky130_fd_sc_hd__dfrtp_2
*CAP
1 *3512:B1 6.80924e-05
2 *3511:A2_N 0.000647833
3 *3993:Q 0.000632855
4 *1059:10 0.00134878
5 *1059:10 *3354:A 5.31101e-05
6 *3512:B2 *3511:A2_N 0.000307179
7 *3512:B2 *3512:B1 0.000121573
8 *3512:B2 *1059:10 8.32242e-05
9 *3512:C1 *3512:B1 1.28809e-05
10 *3801:A1 *1059:10 6.58992e-05
11 *3801:B1 *1059:10 1.83136e-05
12 *3803:A1 *1059:10 0.000137983
13 *3993:RESET_B *1059:10 0.000141729
14 *387:14 *1059:10 0
15 *876:87 *3512:B1 4.25622e-05
16 *876:100 *3512:B1 2.8266e-06
17 *876:100 *1059:10 9.42571e-05
18 *890:113 *1059:10 6.78202e-06
19 *890:120 *1059:10 1.13883e-05
*RES
1 *3993:Q *1059:10 23.7464 
2 *1059:10 *3511:A2_N 22.2643 
3 *1059:10 *3512:B1 15.5723 
*END

*D_NET *1060 0.000280139
*CONN
*I *3354:A I *D sky130_fd_sc_hd__inv_2
*I *3994:Q O *D sky130_fd_sc_hd__dfrtp_2
*CAP
1 *3354:A 8.33305e-05
2 *3994:Q 8.33305e-05
3 *3802:A1 *3354:A 5.68913e-05
4 *876:100 *3354:A 3.47641e-06
5 *1059:10 *3354:A 5.31101e-05
*RES
1 *3994:Q *3354:A 29.2429 
*END

*D_NET *1061 0.000457978
*CONN
*I *3505:B I *D sky130_fd_sc_hd__xnor2_2
*I *3995:Q O *D sky130_fd_sc_hd__dfrtp_2
*CAP
1 *3505:B 0.00019659
2 *3995:Q 0.00019659
3 *3509:B2 *3505:B 0
4 *3509:C1 *3505:B 8.49861e-06
5 *3512:B2 *3505:B 5.62995e-05
*RES
1 *3995:Q *3505:B 30.85 
*END

*D_NET *1062 0.00410842
*CONN
*I *3436:A2 I *D sky130_fd_sc_hd__a22o_2
*I *3528:A2 I *D sky130_fd_sc_hd__a21o_2
*I *3334:A I *D sky130_fd_sc_hd__inv_2
*I *3438:A2 I *D sky130_fd_sc_hd__a22o_2
*I *3938:Q O *D sky130_fd_sc_hd__dfstp_2
*CAP
1 *3436:A2 0.00026089
2 *3528:A2 0.000102222
3 *3334:A 0
4 *3438:A2 0.000265962
5 *3938:Q 7.26505e-05
6 *1062:30 0.000554984
7 *1062:10 0.000312157
8 *1062:8 0.000310717
9 *1062:8 *1063:8 9.60939e-05
10 *3333:A *3436:A2 1.97695e-05
11 *3363:B1 *3528:A2 0.00018372
12 *3436:A1 *3436:A2 7.72033e-05
13 *3436:A1 *3528:A2 0.000273269
14 *3436:B1 *3436:A2 1.87955e-05
15 *3436:B1 *3438:A2 0
16 *3436:B2 *3436:A2 5.52302e-05
17 *3437:B2 *3436:A2 9.25014e-06
18 *3437:B2 *3438:A2 1.02504e-05
19 *3437:B2 *1062:10 0.000150618
20 *3437:B2 *1062:30 0.000410611
21 *3438:B1 *3438:A2 0.000112187
22 *3442:B1 *3438:A2 0.000135943
23 *709:10 *3438:A2 0
24 *753:12 *3438:A2 0.000177948
25 *753:12 *1062:10 0.00013966
26 *753:12 *1062:30 0.000264137
27 *763:10 *1062:30 5.53499e-05
28 *1030:28 *3438:A2 0
29 *1051:39 *3436:A2 5.7661e-06
30 *1051:39 *3528:A2 3.30352e-05
*RES
1 *3938:Q *1062:8 14.7464 
2 *1062:8 *1062:10 1.94643 
3 *1062:10 *3438:A2 19.6393 
4 *1062:10 *3334:A 13.8 
5 *1062:8 *1062:30 5.89286 
6 *1062:30 *3528:A2 16.925 
7 *1062:30 *3436:A2 18.6616 
*END

*D_NET *1063 0.00352758
*CONN
*I *3437:A2 I *D sky130_fd_sc_hd__a22o_2
*I *4319:A I *D sky130_fd_sc_hd__dlygate4sd3_1
*I *3527:A1 I *D sky130_fd_sc_hd__o211a_2
*I *3939:Q O *D sky130_fd_sc_hd__dfrtp_2
*CAP
1 *3437:A2 0.000363391
2 *4319:A 0
3 *3527:A1 0.000570477
4 *3939:Q 0.000310715
5 *1063:29 0.000420625
6 *1063:8 0.000938427
7 *3527:A1 *3527:A2 0.000127497
8 *3434:A *3527:A1 0
9 *3437:B1 *3437:A2 5.52302e-05
10 *3437:B2 *3437:A2 0.000184745
11 *3527:C1 *3527:A1 1.56e-05
12 *3528:B1 *3527:A1 2.98202e-05
13 *3938:CLK *3527:A1 5.59965e-05
14 *3938:D *3527:A1 0.000141975
15 *3938:D *1063:29 6.74815e-05
16 *367:12 *3437:A2 2.89016e-05
17 *424:12 *3527:A1 5.54218e-05
18 *763:10 *1063:29 6.5185e-05
19 *1062:8 *1063:8 9.60939e-05
*RES
1 *3939:Q *1063:8 13.9607 
2 *1063:8 *3527:A1 17.7777 
3 *1063:8 *1063:29 10.6429 
4 *1063:29 *4319:A 9.3 
5 *1063:29 *3437:A2 15.7509 
*END

*D_NET *1064 0.00130718
*CONN
*I *4213:A I *D sky130_fd_sc_hd__dlygate4sd3_1
*I *3940:Q O *D sky130_fd_sc_hd__dfrtp_2
*CAP
1 *4213:A 0.000594293
2 *3940:Q 0.000594293
3 *3526:B1 *4213:A 5.23142e-05
4 *3788:B1 *4213:A 0
5 *3940:D *4213:A 6.62783e-05
6 *3940:RESET_B *4213:A 0
7 *1030:18 *4213:A 0
8 *1030:28 *4213:A 0
*RES
1 *3940:Q *4213:A 37.1 
*END

*D_NET *1065 0.00189652
*CONN
*I *3527:A2 I *D sky130_fd_sc_hd__o211a_2
*I *4262:A I *D sky130_fd_sc_hd__dlygate4sd3_1
*I *3338:A I *D sky130_fd_sc_hd__inv_2
*I *3941:Q O *D sky130_fd_sc_hd__dfrtp_2
*CAP
1 *3527:A2 0.000239249
2 *4262:A 0.000112777
3 *3338:A 0
4 *3941:Q 0.000335639
5 *1065:10 0.000209168
6 *3434:A *3527:A2 0.000114492
7 *3435:B2 *1065:10 5.33005e-05
8 *3438:A1 *4262:A 0.000224599
9 *3438:A1 *1065:10 1.17968e-05
10 *3527:A1 *3527:A2 0.000127497
11 *3527:C1 *3527:A2 1.00477e-05
12 *3528:B1 *3527:A2 2.77143e-05
13 *3786:A2 *1065:10 3.06406e-05
14 *3941:CLK *3527:A2 9.68931e-05
15 *645:101 *3527:A2 6.19181e-05
16 *993:46 *4262:A 1.02504e-05
17 *993:58 *4262:A 0.000104813
18 *993:58 *1065:10 0.000125724
*RES
1 *3941:Q *1065:10 15.9786 
2 *1065:10 *3338:A 13.8 
3 *1065:10 *4262:A 17.1929 
4 *3941:Q *3527:A2 32.3857 
*END

*D_NET *1066 0.000528376
*CONN
*I *4222:A I *D sky130_fd_sc_hd__dlygate4sd3_1
*I *3998:Q O *D sky130_fd_sc_hd__dfrtp_2
*CAP
1 *4222:A 0.000150863
2 *3998:Q 0.000150863
3 *4222:A *3520:B 0.000144773
4 *3433:B1 *4222:A 8.18783e-05
*RES
1 *3998:Q *4222:A 22.0107 
*END

*D_NET *1067 0.0122929
*CONN
*I *3399:A I *D sky130_fd_sc_hd__inv_2
*I *3400:B I *D sky130_fd_sc_hd__and2_2
*I *3522:B I *D sky130_fd_sc_hd__and2_2
*I *3679:B1 I *D sky130_fd_sc_hd__a22o_2
*I *3998:D I *D sky130_fd_sc_hd__dfrtp_2
*I *3398:Y O *D sky130_fd_sc_hd__nor2_2
*CAP
1 *3399:A 7.06181e-05
2 *3400:B 0
3 *3522:B 0.000176688
4 *3679:B1 0.000952843
5 *3998:D 0.000819673
6 *3398:Y 0.000381925
7 *1067:70 0.000374406
8 *1067:53 0.00158813
9 *1067:28 0.00249825
10 *3337:A *3679:B1 0
11 *3337:A *1067:28 0
12 *3361:B *1067:28 0.000106542
13 *3362:S *1067:28 6.92175e-05
14 *3363:A2 *3998:D 0.000138531
15 *3400:A *3399:A 0.00010096
16 *3430:B1 *1067:28 9.93105e-05
17 *3432:A2 *3399:A 2.44318e-05
18 *3433:B1 *1067:28 9.58508e-05
19 *3462:B2 *3679:B1 0
20 *3468:B1 *3679:B1 0.000292701
21 *3525:A0 *3679:B1 3.38674e-05
22 *3525:A1 *3679:B1 0
23 *3525:S *3679:B1 0.000127446
24 *3661:A1 *3998:D 0.000227764
25 *3686:A1 *3679:B1 4.11173e-05
26 *3686:B1 *3679:B1 0.000209364
27 *3927:RESET_B *3679:B1 0.000371533
28 *3932:D *3399:A 1.39841e-05
29 *3932:D *1067:70 3.14048e-05
30 *3956:CLK *3679:B1 0.000201127
31 *3956:D *3679:B1 1.78353e-05
32 *3980:RESET_B *3522:B 0.000250201
33 *3998:RESET_B *3679:B1 0
34 *4016:SET_B *3998:D 0.000296852
35 *4019:D *3679:B1 1.9643e-05
36 *4164:A *3679:B1 4.24858e-05
37 *4301:A *3679:B1 6.38661e-05
38 *120:12 *3679:B1 0.000379214
39 *120:12 *1067:28 1.90936e-05
40 *354:20 *3998:D 0.000531943
41 *617:124 *3679:B1 0.000470969
42 *646:53 *3998:D 0.000178425
43 *749:12 *3679:B1 0
44 *894:32 *3998:D 9.65075e-05
45 *898:16 *3522:B 2.59355e-05
46 *898:18 *3522:B 5.83304e-05
47 *898:46 *3522:B 0.000272218
48 *898:46 *1067:70 6.8194e-05
49 *978:10 *3679:B1 0.000280423
50 *978:18 *3679:B1 0.00017309
51 *993:14 *1067:28 0
*RES
1 *3398:Y *3998:D 39.4214 
2 *3998:D *1067:28 23.3982 
3 *1067:28 *3679:B1 41.5411 
4 *1067:28 *1067:53 9.60553 
5 *1067:53 *3522:B 18.9696 
6 *1067:53 *1067:70 9.20536 
7 *1067:70 *3400:B 9.3 
8 *1067:70 *3399:A 11.0679 
*END

*D_NET *1068 0.00456056
*CONN
*I *3499:A_N I *D sky130_fd_sc_hd__and2b_2
*I *3497:A1 I *D sky130_fd_sc_hd__a211o_2
*I *3486:A I *D sky130_fd_sc_hd__xor2_2
*I *3854:Q O *D sky130_fd_sc_hd__dfstp_2
*CAP
1 *3499:A_N 0.000262975
2 *3497:A1 0.000227434
3 *3486:A 0.0002783
4 *3854:Q 8.88972e-05
5 *1068:19 0.000733349
6 *1068:8 0.000610137
7 *3486:A *3496:B 0.000200413
8 *3486:A *3539:A 4.66189e-05
9 *3486:A *1069:12 0.000176234
10 *3486:A *1069:18 0
11 *3486:A *1081:53 1.19309e-05
12 *3499:A_N *3350:A 4.27935e-05
13 *3499:A_N *3499:B 9.90367e-05
14 *3499:A_N *1109:46 0.00033396
15 *1068:8 *1069:8 9.60939e-05
16 *1068:19 *3495:B 0.000165254
17 *1068:19 *3496:B 0.000257542
18 *1068:19 *1069:12 3.34366e-05
19 *1068:19 *1109:46 0.000388139
20 *3497:A2 *3499:A_N 5.33334e-05
21 *3497:B1 *3497:A1 5.45515e-05
22 *3539:B *3486:A 0.000103275
23 *3637:A0 *1068:19 2.16719e-05
24 *4025:D *3499:A_N 6.26466e-05
25 *4026:CLK *3499:A_N 0
26 *4026:CLK *1068:19 0
27 *4145:A *1068:19 6.58289e-05
28 *485:10 *3486:A 0
29 *610:98 *1068:19 0
30 *685:10 *1068:19 5.64954e-05
31 *901:32 *3499:A_N 9.02133e-05
*RES
1 *3854:Q *1068:8 15.1571 
2 *1068:8 *3486:A 20.6036 
3 *1068:8 *1068:19 8.32143 
4 *1068:19 *3497:A1 17.2286 
5 *1068:19 *3499:A_N 21.175 
*END

*D_NET *1069 0.00378962
*CONN
*I *3495:B I *D sky130_fd_sc_hd__and2b_2
*I *3496:A_N I *D sky130_fd_sc_hd__and2b_2
*I *3487:A1 I *D sky130_fd_sc_hd__a21o_2
*I *3489:A_N I *D sky130_fd_sc_hd__and2b_2
*I *3855:Q O *D sky130_fd_sc_hd__dfstp_2
*CAP
1 *3495:B 8.87394e-05
2 *3496:A_N 0
3 *3487:A1 0
4 *3489:A_N 0.000198591
5 *3855:Q 7.0527e-05
6 *1069:18 0.000780342
7 *1069:12 0.000639245
8 *1069:8 0.00021676
9 *3489:A_N *3489:B 0.00014285
10 *1069:18 *3496:B 6.71547e-05
11 *3486:A *1069:12 0.000176234
12 *3486:A *1069:18 0
13 *3487:B1 *1069:18 0
14 *3539:B *3489:A_N 1.41029e-05
15 *3539:B *1069:18 0.000318179
16 *3543:C1 *3489:A_N 5.71472e-05
17 *3626:A2 *3489:A_N 0
18 *3626:A2 *1069:18 0
19 *3637:A0 *3495:B 0.000173797
20 *3637:A0 *1069:12 0.000198698
21 *3808:B1 *1069:18 0
22 *483:86 *3489:A_N 7.85632e-05
23 *660:27 *3495:B 0.000136951
24 *900:18 *3495:B 0.000136951
25 *1068:8 *1069:8 9.60939e-05
26 *1068:19 *3495:B 0.000165254
27 *1068:19 *1069:12 3.34366e-05
*RES
1 *3855:Q *1069:8 15.1571 
2 *1069:8 *1069:12 7.05357 
3 *1069:12 *1069:18 16.2143 
4 *1069:18 *3489:A_N 17.7107 
5 *1069:18 *3487:A1 13.8 
6 *1069:12 *3496:A_N 9.3 
7 *1069:8 *3495:B 17.4071 
*END

*D_NET *1070 0.00211703
*CONN
*I *3335:A I *D sky130_fd_sc_hd__inv_2
*I *4315:A I *D sky130_fd_sc_hd__dlygate4sd3_1
*I *3427:A2 I *D sky130_fd_sc_hd__a22o_2
*I *4015:Q O *D sky130_fd_sc_hd__dfrtp_2
*CAP
1 *3335:A 0.000379074
2 *4315:A 9.51125e-05
3 *3427:A2 1.42133e-05
4 *4015:Q 0.000170159
5 *1070:12 0.000109326
6 *1070:10 0.000549233
7 *3427:A1 *4315:A 3.48705e-05
8 *3427:B1 *4315:A 0.000105163
9 *3427:B2 *3335:A 0
10 *3427:B2 *1070:10 0
11 *3432:A2 *3335:A 0.000141012
12 *3781:B1 *1070:10 0
13 *4216:A *3335:A 0.00015134
14 *4216:A *1070:10 5.58941e-05
15 *883:36 *4315:A 0.000199924
16 *898:16 *1070:10 5.71472e-05
17 *898:91 *3335:A 5.45614e-05
*RES
1 *4015:Q *1070:10 16.2821 
2 *1070:10 *1070:12 4.5 
3 *1070:12 *3427:A2 9.60357 
4 *1070:12 *4315:A 13.1393 
5 *1070:10 *3335:A 20.8179 
*END

*D_NET *1071 0.00760272
*CONN
*I *3532:B I *D sky130_fd_sc_hd__nand2_2
*I *3536:B I *D sky130_fd_sc_hd__and4_2
*I *3490:A I *D sky130_fd_sc_hd__or4b_2
*I *3531:B I *D sky130_fd_sc_hd__or2_2
*I *3534:A2 I *D sky130_fd_sc_hd__a31o_2
*I *3537:A2 I *D sky130_fd_sc_hd__a31o_2
*I *4289:A I *D sky130_fd_sc_hd__dlygate4sd3_1
*I *3999:Q O *D sky130_fd_sc_hd__dfrtp_2
*CAP
1 *3532:B 0.000237026
2 *3536:B 0
3 *3490:A 0.000185535
4 *3531:B 0
5 *3534:A2 7.43359e-05
6 *3537:A2 0.000179596
7 *4289:A 0.000168085
8 *3999:Q 0
9 *1071:64 0.000491955
10 *1071:53 0.000401483
11 *1071:49 0.000374058
12 *1071:38 0.000257873
13 *1071:21 0.000517364
14 *1071:6 0.000364285
15 *3490:A *1080:21 0.000100823
16 *3532:B *3532:A 4.16114e-05
17 *3532:B *1078:10 0.000146043
18 *3532:B *1078:12 1.19402e-05
19 *3532:B *1087:10 0
20 *3534:A2 *3534:A3 1.55885e-05
21 *3537:A2 *3537:A3 0.000375979
22 *3537:A2 *3537:B1 0
23 *1071:38 *3537:A3 0.00012747
24 *1071:38 *1078:14 1.78353e-05
25 *1071:49 *1078:12 3.06406e-05
26 *1071:49 *1078:14 2.8266e-06
27 *1071:53 *3531:A 5.52238e-05
28 *1071:64 *4292:A 7.2754e-05
29 *1071:64 *1080:21 2.24646e-05
30 *3494:B *3490:A 5.33334e-05
31 *3529:A2 *4289:A 0
32 *3529:B1 *4289:A 0
33 *3530:A1 *3490:A 2.49484e-05
34 *3530:A2 *3490:A 7.43578e-06
35 *3533:A *3532:B 2.90068e-05
36 *3533:A *1071:38 7.34761e-05
37 *3533:B *3532:B 7.83587e-05
38 *3535:A1 *1071:53 6.87673e-05
39 *3535:A1 *1071:64 0.000117553
40 *3535:A2 *3532:B 0.000198691
41 *3535:B1 *3532:B 2.48938e-05
42 *3535:B1 *1071:38 3.51442e-05
43 *3535:B1 *1071:49 9.4724e-05
44 *3538:B *3537:A2 0.00037007
45 *3538:B *1071:38 5.33005e-05
46 *3807:A1 *1071:21 0
47 *3810:A2 *3490:A 0.000130456
48 *4002:CLK *4289:A 0
49 *4002:CLK *1071:21 0
50 *4002:D *1071:21 7.17932e-05
51 *4015:D *1071:21 0
52 *4132:A *3532:B 0
53 *479:10 *4289:A 0.000250201
54 *479:10 *1071:21 0.000289564
55 *479:21 *1071:21 6.55169e-05
56 *479:21 *1071:38 9.16325e-06
57 *479:42 *1071:38 7.57063e-05
58 *481:8 *3532:B 0.000272665
59 *612:6 *4289:A 9.60939e-05
60 *612:43 *4289:A 0
61 *656:109 *3534:A2 1.33343e-05
62 *656:109 *1071:38 8.42233e-05
63 *897:60 *3490:A 0.000211212
64 *897:60 *1071:64 0.000374422
65 *902:48 *3534:A2 1.00073e-05
66 *904:44 *3490:A 9.14032e-05
67 *904:44 *1071:64 5.44555e-05
*RES
1 *3999:Q *1071:6 13.8 
2 *1071:6 *4289:A 17.9071 
3 *1071:6 *1071:21 9.17857 
4 *1071:21 *3537:A2 14.9964 
5 *1071:21 *1071:38 8.71429 
6 *1071:38 *3534:A2 14.7464 
7 *1071:38 *1071:49 1.33929 
8 *1071:49 *1071:53 6.26786 
9 *1071:53 *3531:B 9.3 
10 *1071:53 *1071:64 11.6607 
11 *1071:64 *3490:A 19.425 
12 *1071:64 *3536:B 13.8 
13 *1071:49 *3532:B 21.8179 
*END

*D_NET *1072 0.00340413
*CONN
*I *3555:B1 I *D sky130_fd_sc_hd__a21oi_2
*I *3492:D I *D sky130_fd_sc_hd__or4_2
*I *3556:B I *D sky130_fd_sc_hd__and3_2
*I *3558:D I *D sky130_fd_sc_hd__and4_2
*I *4009:Q O *D sky130_fd_sc_hd__dfrtp_2
*CAP
1 *3555:B1 0
2 *3492:D 0
3 *3556:B 0.000164946
4 *3558:D 0
5 *4009:Q 0.00019819
6 *1072:24 0.000323656
7 *1072:14 0.000388164
8 *1072:10 0.000427644
9 *3556:B *3492:C 3.55913e-05
10 *3556:B *3556:A 0.000162415
11 *1072:10 *4161:A 4.48206e-05
12 *1072:14 *3555:A1 8.20918e-05
13 *1072:24 *3492:C 0.000253556
14 *1072:24 *3555:A1 0.000138881
15 *1072:24 *3556:A 5.33005e-05
16 *1072:24 *3558:A 5.52238e-05
17 *1072:24 *3558:B 0.000251976
18 *3493:B *3556:B 0.000185643
19 *3493:B *1072:24 1.02936e-05
20 *828:42 *1072:10 0
21 *902:10 *1072:10 5.5782e-05
22 *902:19 *1072:10 6.07626e-05
23 *910:20 *1072:10 0.000511193
*RES
1 *4009:Q *1072:10 24.8 
2 *1072:10 *1072:14 3.42857 
3 *1072:14 *1072:24 5.75 
4 *1072:24 *3558:D 9.3 
5 *1072:24 *3556:B 13.7643 
6 *1072:14 *3492:D 9.3 
7 *1072:10 *3555:B1 9.3 
*END

*D_NET *1073 0.00270487
*CONN
*I *4239:A I *D sky130_fd_sc_hd__dlygate4sd3_1
*I *3492:C I *D sky130_fd_sc_hd__or4_2
*I *3558:C I *D sky130_fd_sc_hd__and4_2
*I *4010:Q O *D sky130_fd_sc_hd__dfrtp_2
*CAP
1 *4239:A 0.000161203
2 *3492:C 0.000103666
3 *3558:C 0
4 *4010:Q 5.77931e-05
5 *1073:22 0.000346733
6 *1073:10 0.000462063
7 *3492:C *3555:A1 5.33005e-05
8 *1073:10 *1086:36 0.00010326
9 *1073:22 *3556:A 2.66706e-05
10 *1073:22 *1086:36 1.52681e-05
11 *1073:22 *1086:57 1.26144e-05
12 *1073:22 *1086:74 0
13 *3493:B *3492:C 0.000232399
14 *3556:B *3492:C 3.55913e-05
15 *3557:B *4239:A 0.000299795
16 *3557:B *1073:22 1.98839e-05
17 *3557:C *1073:22 0.000137983
18 *4009:D *1073:22 0.000103267
19 *657:23 *1073:10 0
20 *896:10 *4239:A 5.52302e-05
21 *904:105 *1073:22 0.00016698
22 *904:111 *1073:22 5.7616e-05
23 *1072:24 *3492:C 0.000253556
*RES
1 *4010:Q *1073:10 19.6393 
2 *1073:10 *1073:22 14.2857 
3 *1073:22 *3558:C 9.3 
4 *1073:22 *3492:C 13.1393 
5 *1073:10 *4239:A 13.2643 
*END

*D_NET *1074 0.00240899
*CONN
*I *3565:B I *D sky130_fd_sc_hd__and2_2
*I *3562:A I *D sky130_fd_sc_hd__or2_2
*I *3563:A I *D sky130_fd_sc_hd__nand2_2
*I *3491:B I *D sky130_fd_sc_hd__or4_2
*I *4011:Q O *D sky130_fd_sc_hd__dfrtp_2
*CAP
1 *3565:B 0.00015156
2 *3562:A 2.85076e-05
3 *3563:A 7.94851e-05
4 *3491:B 1.92398e-05
5 *4011:Q 0.000260401
6 *1074:38 0.000180067
7 *1074:16 0.000184996
8 *1074:14 0.000346673
9 *3491:B *3491:C 5.58941e-05
10 *3491:B *3491:D 5.58941e-05
11 *1074:14 *3491:A 4.8365e-05
12 *1074:14 *4326:A 4.15914e-05
13 *1074:14 *1075:12 9.31663e-05
14 *1074:16 *3491:A 7.50601e-05
15 *1074:16 *3491:C 9.25014e-06
16 *1074:16 *3491:D 2.41865e-05
17 *3562:B *3563:A 3.18676e-05
18 *3562:B *1074:16 4.25716e-05
19 *3563:B *3563:A 5.7661e-06
20 *3564:A *1074:14 5.33786e-05
21 *3564:B *1074:14 7.83587e-05
22 *3564:C *3562:A 5.52238e-05
23 *3564:C *3565:B 0.000227539
24 *3564:C *1074:14 0
25 *3567:A1 *1074:14 5.52238e-05
26 *3820:A1 *1074:14 0
27 *4084:A *3563:A 1.39841e-05
28 *498:21 *3563:A 4.13496e-05
29 *501:12 *3563:A 5.52302e-05
30 *501:12 *1074:14 0
31 *501:12 *1074:16 0
32 *904:86 *3563:A 9.41642e-05
*RES
1 *4011:Q *1074:14 19.675 
2 *1074:14 *1074:16 2.25 
3 *1074:16 *3491:B 14.5321 
4 *1074:16 *3563:A 15.9964 
5 *1074:14 *1074:38 4.5 
6 *1074:38 *3562:A 9.83571 
7 *1074:38 *3565:B 12.3179 
*END

*D_NET *1075 0.00207936
*CONN
*I *4326:A I *D sky130_fd_sc_hd__dlygate4sd3_1
*I *3565:A I *D sky130_fd_sc_hd__and2_2
*I *3491:A I *D sky130_fd_sc_hd__or4_2
*I *4012:Q O *D sky130_fd_sc_hd__dfrtp_2
*CAP
1 *4326:A 8.6947e-05
2 *3565:A 3.85858e-05
3 *3491:A 0.000129498
4 *4012:Q 0
5 *1075:12 0.000305605
6 *1075:6 0.000224468
7 *3493:A *3491:A 0
8 *3564:A *4326:A 0
9 *3564:B *1075:12 8.00806e-05
10 *3564:C *3491:A 9.69119e-06
11 *3564:C *3565:A 8.66063e-05
12 *3564:C *1075:12 0.000136951
13 *3567:A1 *4326:A 0.000277755
14 *3567:A1 *1075:12 0.000250208
15 *3820:A1 *4326:A 1.00375e-05
16 *4011:D *4326:A 0.000184745
17 *1074:14 *3491:A 4.8365e-05
18 *1074:14 *4326:A 4.15914e-05
19 *1074:14 *1075:12 9.31663e-05
20 *1074:16 *3491:A 7.50601e-05
*RES
1 *4012:Q *1075:6 13.8 
2 *1075:6 *1075:12 9.01786 
3 *1075:12 *3491:A 20.8536 
4 *1075:12 *3565:A 10.2464 
5 *1075:6 *4326:A 17.2107 
*END

*D_NET *1076 0.00459996
*CONN
*I *3569:A1 I *D sky130_fd_sc_hd__o21a_2
*I *3491:D I *D sky130_fd_sc_hd__or4_2
*I *3568:A1 I *D sky130_fd_sc_hd__a21oi_2
*I *3570:A1 I *D sky130_fd_sc_hd__a21oi_2
*I *3571:A2 I *D sky130_fd_sc_hd__a31o_2
*I *4013:Q O *D sky130_fd_sc_hd__dfrtp_2
*CAP
1 *3569:A1 0
2 *3491:D 0.000280848
3 *3568:A1 4.09235e-05
4 *3570:A1 0.000387522
5 *3571:A2 0
6 *4013:Q 0.000152723
7 *1076:33 0.000553326
8 *1076:31 0.000608612
9 *1076:23 0.00044802
10 *1076:12 0.000397859
11 *3491:D *3491:C 5.01298e-05
12 *1076:23 *3571:A1 4.9071e-05
13 *3491:B *3491:D 5.58941e-05
14 *3568:B1 *1076:31 4.11173e-05
15 *3569:B1 *1076:31 0.000317594
16 *3570:A2 *3570:A1 3.18676e-05
17 *3570:B1 *3568:A1 0.00010096
18 *3571:A3 *1076:23 0.000218315
19 *3571:A3 *1076:31 5.52238e-05
20 *3572:A *3570:A1 0.000129868
21 *3572:B *3568:A1 9.90367e-05
22 *3820:A2 *1076:12 0
23 *4013:RESET_B *1076:12 3.54619e-05
24 *4014:D *3570:A1 0.000128161
25 *4014:RESET_B *1076:12 8.00806e-05
26 *4128:A *3491:D 1.04114e-05
27 *4128:A *1076:12 0
28 *4128:A *1076:31 0.000199549
29 *501:12 *3491:D 1.59782e-05
30 *503:16 *3568:A1 1.75336e-05
31 *503:16 *3570:A1 0
32 *503:18 *3568:A1 2.8266e-06
33 *503:18 *3570:A1 0
34 *503:18 *1076:31 0
35 *503:24 *1076:31 2.14757e-05
36 *654:72 *3570:A1 0
37 *904:86 *3491:D 4.53834e-05
38 *919:10 *1076:31 0
39 *1074:16 *3491:D 2.41865e-05
*RES
1 *4013:Q *1076:12 21.1929 
2 *1076:12 *3571:A2 9.3 
3 *1076:12 *1076:23 5.08929 
4 *1076:23 *1076:31 14.2939 
5 *1076:31 *1076:33 0.2632 
6 *1076:33 *3570:A1 21.0025 
7 *1076:33 *3568:A1 18.7368 
8 *1076:31 *3491:D 20.0191 
9 *1076:23 *3569:A1 9.3 
*END

*D_NET *1077 0.00185938
*CONN
*I *4294:A I *D sky130_fd_sc_hd__dlygate4sd3_1
*I *3491:C I *D sky130_fd_sc_hd__or4_2
*I *3571:A1 I *D sky130_fd_sc_hd__a31o_2
*I *4014:Q O *D sky130_fd_sc_hd__dfrtp_2
*CAP
1 *4294:A 0
2 *3491:C 0.000138509
3 *3571:A1 0.00013911
4 *4014:Q 5.05023e-05
5 *1077:27 0.000357007
6 *1077:8 0.00040811
7 *3491:B *3491:C 5.58941e-05
8 *3491:D *3491:C 5.01298e-05
9 *3493:A *3491:C 0
10 *3571:A3 *3571:A1 5.7661e-06
11 *3571:B1 *3571:A1 1.97695e-05
12 *3572:B *3491:C 1.52978e-05
13 *3572:B *3571:A1 3.79467e-05
14 *3572:B *1077:27 0.000185746
15 *3820:A2 *1077:27 6.87574e-05
16 *4014:RESET_B *3571:A1 0.000151333
17 *4014:RESET_B *1077:8 1.07719e-05
18 *4014:RESET_B *1077:27 0.000106403
19 *4128:A *3491:C 0
20 *4128:A *3571:A1 0
21 *1074:16 *3491:C 9.25014e-06
22 *1076:23 *3571:A1 4.9071e-05
*RES
1 *4014:Q *1077:8 14.3357 
2 *1077:8 *3571:A1 17.0143 
3 *1077:8 *1077:27 9.83929 
4 *1077:27 *3491:C 20.8536 
5 *1077:27 *4294:A 9.3 
*END

*D_NET *1078 0.00511565
*CONN
*I *3532:A I *D sky130_fd_sc_hd__nand2_2
*I *3531:A I *D sky130_fd_sc_hd__or2_2
*I *3534:A1 I *D sky130_fd_sc_hd__a31o_2
*I *3536:A I *D sky130_fd_sc_hd__and4_2
*I *3537:A1 I *D sky130_fd_sc_hd__a31o_2
*I *3490:D_N I *D sky130_fd_sc_hd__or4b_2
*I *4000:Q O *D sky130_fd_sc_hd__dfrtp_2
*CAP
1 *3532:A 0.000204734
2 *3531:A 1.1624e-05
3 *3534:A1 0
4 *3536:A 4.24092e-05
5 *3537:A1 0.000345681
6 *3490:D_N 0.000192224
7 *4000:Q 4.42654e-05
8 *1078:16 0.000591885
9 *1078:14 0.000204441
10 *1078:12 0.00016944
11 *1078:10 0.00023822
12 *1078:8 0.000414207
13 *3532:A *1087:10 0
14 *3536:A *3537:A3 0.000180777
15 *3537:A1 *3537:A3 3.48705e-05
16 *3537:A1 *3537:B1 0.000218508
17 *3530:A2 *3490:D_N 6.97494e-05
18 *3532:B *3532:A 4.16114e-05
19 *3532:B *1078:10 0.000146043
20 *3532:B *1078:12 1.19402e-05
21 *3533:B *1078:10 3.92757e-05
22 *3535:A1 *3531:A 5.52238e-05
23 *3538:A_N *3537:A1 5.33005e-05
24 *3538:C *3537:A1 1.64343e-05
25 *3809:A1 *3532:A 9.90367e-05
26 *3809:A2 *3532:A 5.52238e-05
27 *3810:A1 *3490:D_N 0.000164959
28 *3810:A1 *1078:14 4.61329e-05
29 *3810:A1 *1078:16 4.37327e-05
30 *3810:A2 *3490:D_N 0.000138881
31 *3810:B1 *3490:D_N 0.000247771
32 *4000:RESET_B *1078:8 1.40415e-05
33 *4001:RESET_B *3532:A 2.56694e-05
34 *4001:RESET_B *1078:10 6.85604e-05
35 *479:42 *3536:A 0.000180777
36 *656:109 *3490:D_N 7.6644e-05
37 *656:109 *1078:14 0.000159192
38 *656:109 *1078:16 8.87913e-05
39 *882:58 *1078:10 0.000148851
40 *882:58 *1078:12 6.42242e-05
41 *882:58 *1078:14 5.97719e-05
42 *1071:38 *1078:14 1.78353e-05
43 *1071:49 *1078:12 3.06406e-05
44 *1071:49 *1078:14 2.8266e-06
45 *1071:53 *3531:A 5.52238e-05
*RES
1 *4000:Q *1078:8 14.3357 
2 *1078:8 *1078:10 5.89286 
3 *1078:10 *1078:12 1.64286 
4 *1078:12 *1078:14 2.85714 
5 *1078:14 *1078:16 1.33929 
6 *1078:16 *3490:D_N 20.0679 
7 *1078:16 *3537:A1 18.4429 
8 *1078:14 *3536:A 15.5679 
9 *1078:12 *3534:A1 13.8 
10 *1078:10 *3531:A 14.3357 
11 *1078:8 *3532:A 18.05 
*END

*D_NET *1079 0.00607398
*CONN
*I *3344:A I *D sky130_fd_sc_hd__inv_2
*I *3534:A3 I *D sky130_fd_sc_hd__a31o_2
*I *3537:A3 I *D sky130_fd_sc_hd__a31o_2
*I *3488:A I *D sky130_fd_sc_hd__or4b_2
*I *3536:C I *D sky130_fd_sc_hd__and4_2
*I *4001:Q O *D sky130_fd_sc_hd__dfrtp_2
*CAP
1 *3344:A 8.78615e-05
2 *3534:A3 0.000154729
3 *3537:A3 0.000243399
4 *3488:A 0.000210987
5 *3536:C 2.53653e-05
6 *4001:Q 0.000267552
7 *1079:16 0.000263851
8 *1079:12 0.000354191
9 *1079:10 0.000417714
10 *3534:A3 *4292:A 0.000182694
11 *3536:C *3536:D 5.33005e-05
12 *3537:A3 *3536:D 0.000135028
13 *3537:A3 *3537:B1 0.000563815
14 *3490:C *3488:A 0.000268403
15 *3534:A2 *3534:A3 1.55885e-05
16 *3534:B1 *3534:A3 5.33005e-05
17 *3535:A1 *1079:10 6.5185e-05
18 *3536:A *3537:A3 0.000180777
19 *3537:A1 *3537:A3 3.48705e-05
20 *3537:A2 *3537:A3 0.000375979
21 *3538:A_N *3488:A 4.18895e-05
22 *3538:A_N *3536:C 9.60939e-05
23 *3543:B1 *3488:A 0
24 *3543:C1 *3488:A 0.000353079
25 *3543:C1 *1079:10 2.94103e-05
26 *3543:C1 *1079:12 7.89494e-05
27 *3543:C1 *1079:16 1.59145e-05
28 *3626:A1 *1079:10 2.50463e-05
29 *3626:A1 *1079:16 7.80714e-06
30 *3626:A2 *3488:A 0.000150625
31 *451:10 *3534:A3 5.33005e-05
32 *451:10 *1079:12 0.000135006
33 *451:10 *1079:16 5.31113e-05
34 *479:42 *3488:A 2.07491e-05
35 *479:42 *3537:A3 0.000165279
36 *487:12 *3488:A 0
37 *656:109 *3534:A3 7.46327e-05
38 *882:52 *3344:A 9.47613e-05
39 *882:58 *3344:A 7.43578e-06
40 *897:60 *1079:10 0.000170373
41 *897:60 *1079:12 1.17968e-05
42 *902:48 *3534:A3 0.000324108
43 *904:8 *1079:10 4.56594e-05
44 *904:25 *3534:A3 3.68898e-05
45 *1071:38 *3537:A3 0.00012747
*RES
1 *4001:Q *1079:10 18.7107 
2 *1079:10 *1079:12 2.25 
3 *1079:12 *1079:16 5.23214 
4 *1079:16 *3536:C 10.2464 
5 *1079:16 *3488:A 24.4786 
6 *1079:12 *3537:A3 23.3893 
7 *1079:10 *3534:A3 18.8714 
8 *4001:Q *3344:A 20.7964 
*END

*D_NET *1080 0.00294121
*CONN
*I *3536:D I *D sky130_fd_sc_hd__and4_2
*I *3537:B1 I *D sky130_fd_sc_hd__a31o_2
*I *3488:D_N I *D sky130_fd_sc_hd__or4b_2
*I *4002:Q O *D sky130_fd_sc_hd__dfrtp_2
*CAP
1 *3536:D 4.55062e-05
2 *3537:B1 0.000167071
3 *3488:D_N 0.00025403
4 *4002:Q 0
5 *1080:21 0.000289406
6 *1080:4 0.000330859
7 *3490:A *1080:21 0.000100823
8 *3494:A *3488:D_N 9.86969e-05
9 *3536:C *3536:D 5.33005e-05
10 *3537:A1 *3537:B1 0.000218508
11 *3537:A2 *3537:B1 0
12 *3537:A3 *3536:D 0.000135028
13 *3537:A3 *3537:B1 0.000563815
14 *3538:A_N *3536:D 3.37161e-05
15 *3538:A_N *3537:B1 0.00026353
16 *3538:C *3537:B1 1.64343e-05
17 *142:12 *3488:D_N 4.87854e-05
18 *483:27 *3488:D_N 0.000235006
19 *904:44 *1080:21 6.42242e-05
20 *1071:64 *1080:21 2.24646e-05
*RES
1 *4002:Q *1080:4 9.3 
2 *1080:4 *3488:D_N 14.3893 
3 *1080:4 *1080:21 10.6429 
4 *1080:21 *3537:B1 15.7286 
5 *1080:21 *3536:D 10.6571 
*END

*D_NET *1081 0.00550775
*CONN
*I *3539:A I *D sky130_fd_sc_hd__nand2_2
*I *3486:B I *D sky130_fd_sc_hd__xor2_2
*I *3540:A I *D sky130_fd_sc_hd__or2_2
*I *3542:A I *D sky130_fd_sc_hd__and3_2
*I *3547:A I *D sky130_fd_sc_hd__and4_2
*I *4003:Q O *D sky130_fd_sc_hd__dfrtp_2
*CAP
1 *3539:A 7.23325e-05
2 *3486:B 8.63804e-05
3 *3540:A 7.32295e-05
4 *3542:A 4.49313e-05
5 *3547:A 0.00025342
6 *4003:Q 0.000691261
7 *1081:53 0.000308426
8 *1081:12 0.000511343
9 *1081:10 0.000334577
10 *1081:8 0.00088933
11 *3542:A *3488:C 0.000139913
12 *3542:A *3547:C 9.60875e-05
13 *3547:A *3547:B 5.33005e-05
14 *3547:A *1082:31 5.52238e-05
15 *3547:A *1084:27 4.29471e-05
16 *3486:A *3539:A 4.66189e-05
17 *3486:A *1081:53 1.19309e-05
18 *3539:B *1081:53 0
19 *3540:B *3540:A 0.000227532
20 *3541:C *3540:A 4.88637e-05
21 *4003:CLK *1081:10 0.00013966
22 *4003:CLK *1081:12 0.000144696
23 *4003:CLK *1081:53 4.97876e-05
24 *485:10 *3539:A 7.50697e-05
25 *485:10 *1081:10 0.000148903
26 *485:10 *1081:12 5.41794e-05
27 *485:10 *1081:53 0.000206715
28 *490:8 *3547:A 0
29 *612:98 *3547:A 2.04825e-05
30 *612:98 *1081:12 0.000181733
31 *656:109 *3540:A 0.000315158
32 *882:52 *3486:B 0.00018372
*RES
1 *4003:Q *1081:8 21.3179 
2 *1081:8 *1081:10 1.94643 
3 *1081:10 *1081:12 4.375 
4 *1081:12 *3547:A 17.3714 
5 *1081:12 *3542:A 15.1571 
6 *1081:10 *3540:A 17.2286 
7 *1081:8 *1081:53 4.42857 
8 *1081:53 *3486:B 6.63393 
9 *1081:53 *3539:A 15.7464 
*END

*D_NET *1082 0.00307698
*CONN
*I *3345:A I *D sky130_fd_sc_hd__inv_2
*I *3542:B I *D sky130_fd_sc_hd__and3_2
*I *3488:B I *D sky130_fd_sc_hd__or4b_2
*I *3547:B I *D sky130_fd_sc_hd__and4_2
*I *4004:Q O *D sky130_fd_sc_hd__dfrtp_2
*CAP
1 *3345:A 0
2 *3542:B 0
3 *3488:B 0.000251896
4 *3547:B 3.37722e-05
5 *4004:Q 0.000457792
6 *1082:31 0.000678796
7 *1082:16 0.000501131
8 *1082:14 0.00049825
9 *3488:B *3488:C 8.18783e-05
10 *3547:B *1084:27 9.60875e-05
11 *1082:31 *3488:C 8.68595e-05
12 *1082:31 *1084:27 2.24763e-05
13 *3543:A1 *3547:B 7.43578e-06
14 *3543:A1 *1082:14 2.34204e-05
15 *3543:A1 *1082:16 3.18676e-05
16 *3547:A *3547:B 5.33005e-05
17 *3547:A *1082:31 5.52238e-05
18 *4004:RESET_B *1082:14 7.83587e-05
19 *483:27 *3488:B 2.65105e-05
20 *483:39 *3488:B 2.89016e-05
21 *483:39 *1082:31 2.59355e-05
22 *656:89 *1082:14 0
23 *902:48 *1082:14 3.70855e-05
*RES
1 *4004:Q *1082:14 24.3 
2 *1082:14 *1082:16 0.946429 
3 *1082:16 *3547:B 10.6571 
4 *1082:16 *1082:31 6.33929 
5 *1082:31 *3488:B 12.7107 
6 *1082:31 *3542:B 9.3 
7 *1082:14 *3345:A 9.3 
*END

*D_NET *1083 0.00553229
*CONN
*I *3547:C I *D sky130_fd_sc_hd__and4_2
*I *3346:A I *D sky130_fd_sc_hd__inv_2
*I *3489:B I *D sky130_fd_sc_hd__and2b_2
*I *3544:A I *D sky130_fd_sc_hd__nand2_2
*I *3545:A I *D sky130_fd_sc_hd__or2_2
*I *4005:Q O *D sky130_fd_sc_hd__dfrtp_2
*CAP
1 *3547:C 0.00020112
2 *3346:A 7.7189e-05
3 *3489:B 0.000114538
4 *3544:A 0.000125387
5 *3545:A 0
6 *4005:Q 0.000649494
7 *1083:38 0.00030006
8 *1083:36 0.000412266
9 *1083:23 0.000387579
10 *1083:10 0.000808872
11 *3547:C *3488:C 4.14279e-05
12 *3547:C *1084:27 5.71472e-05
13 *1083:10 *3347:A 9.20581e-06
14 *1083:10 *1084:10 7.17189e-05
15 *1083:10 *1084:27 4.89264e-05
16 *1083:23 *1084:27 2.84398e-05
17 *3489:A_N *3489:B 0.00014285
18 *3541:A *3346:A 3.25078e-05
19 *3542:A *3547:C 9.60875e-05
20 *3543:A2 *3346:A 9.97669e-05
21 *3543:A2 *1083:38 5.32956e-05
22 *3543:C1 *3489:B 7.32955e-05
23 *3545:B *3544:A 3.16598e-05
24 *3545:B *1083:23 1.21289e-05
25 *3546:A *3346:A 5.68684e-06
26 *3546:A *3544:A 2.59355e-05
27 *3546:A *1083:36 4.12023e-05
28 *3546:A *1083:38 7.61614e-05
29 *3546:B *3544:A 6.57032e-05
30 *3546:B *1083:23 2.89114e-05
31 *3546:C *1083:23 0.000268396
32 *4003:CLK *3346:A 3.57844e-05
33 *4004:D *3489:B 0.000137983
34 *4005:D *1083:10 3.0285e-05
35 *479:42 *3489:B 0.000399835
36 *483:39 *1083:36 0.000171375
37 *487:12 *3544:A 5.33005e-05
38 *490:8 *1083:10 0
39 *612:98 *3547:C 2.04825e-05
40 *612:98 *1083:36 0.00011915
41 *612:98 *1083:38 4.52703e-05
42 *902:48 *3346:A 7.6644e-05
43 *902:48 *3489:B 5.52238e-05
*RES
1 *4005:Q *1083:10 22.5321 
2 *1083:10 *3545:A 13.8 
3 *1083:10 *1083:23 8.23214 
4 *1083:23 *3544:A 11.9071 
5 *1083:23 *1083:36 7.8125 
6 *1083:36 *1083:38 2.09821 
7 *1083:38 *3489:B 18.4429 
8 *1083:38 *3346:A 16.05 
9 *1083:36 *3547:C 16.7911 
*END

*D_NET *1084 0.0038936
*CONN
*I *3547:D I *D sky130_fd_sc_hd__and4_2
*I *3488:C I *D sky130_fd_sc_hd__or4b_2
*I *3347:A I *D sky130_fd_sc_hd__inv_2
*I *4006:Q O *D sky130_fd_sc_hd__dfrtp_2
*CAP
1 *3547:D 0
2 *3488:C 0.000190125
3 *3347:A 0.000358162
4 *4006:Q 0.000434595
5 *1084:27 0.000558667
6 *1084:10 0.0011613
7 *3488:B *3488:C 8.18783e-05
8 *3542:A *3488:C 0.000139913
9 *3542:C *3488:C 4.08637e-05
10 *3547:A *1084:27 4.29471e-05
11 *3547:B *1084:27 9.60875e-05
12 *3547:C *3488:C 4.14279e-05
13 *3547:C *1084:27 5.71472e-05
14 *4005:D *3347:A 5.52302e-05
15 *4005:RESET_B *1084:10 0
16 *483:27 *3488:C 0.000227526
17 *483:39 *3488:C 9.41642e-05
18 *490:8 *1084:10 0
19 *490:8 *1084:27 0
20 *612:94 *3347:A 4.59429e-05
21 *656:78 *1084:10 0
22 *656:78 *1084:27 0
23 *1082:31 *3488:C 8.68595e-05
24 *1082:31 *1084:27 2.24763e-05
25 *1083:10 *3347:A 9.20581e-06
26 *1083:10 *1084:10 7.17189e-05
27 *1083:10 *1084:27 4.89264e-05
28 *1083:23 *1084:27 2.84398e-05
*RES
1 *4006:Q *1084:10 19.7643 
2 *1084:10 *3347:A 18.3536 
3 *1084:10 *1084:27 10.9464 
4 *1084:27 *3488:C 15.1929 
5 *1084:27 *3547:D 9.3 
*END

*D_NET *1085 0.00427349
*CONN
*I *3550:B1 I *D sky130_fd_sc_hd__a21oi_2
*I *3492:B I *D sky130_fd_sc_hd__or4_2
*I *3558:B I *D sky130_fd_sc_hd__and4_2
*I *3551:A I *D sky130_fd_sc_hd__and3_2
*I *4007:Q O *D sky130_fd_sc_hd__dfrtp_2
*CAP
1 *3550:B1 0.00029953
2 *3492:B 0
3 *3558:B 0.000351657
4 *3551:A 0.000464971
5 *4007:Q 0.000332639
6 *1085:19 0.000472785
7 *1085:17 0.000420658
8 *1085:6 0.00079761
9 *3558:B *3558:A 5.71472e-05
10 *3552:B *3550:B1 0
11 *3552:B *1085:19 0
12 *3555:A2 *3558:B 8.07951e-05
13 *3555:A2 *1085:19 0.000123288
14 *3815:A1 *1085:19 8.08022e-05
15 *4007:CLK *3551:A 2.27416e-05
16 *4007:D *3550:B1 0
17 *656:69 *3558:B 1.57149e-05
18 *656:69 *1085:19 2.04866e-05
19 *657:23 *3558:B 8.64555e-05
20 *657:23 *1085:19 4.17741e-05
21 *657:36 *3550:B1 0.000250915
22 *657:36 *1085:19 0.000101545
23 *1072:24 *3558:B 0.000251976
*RES
1 *4007:Q *1085:6 12.7107 
2 *1085:6 *3551:A 14.7821 
3 *1085:6 *1085:17 4.5 
4 *1085:17 *1085:19 3.46429 
5 *1085:19 *3558:B 19.5143 
6 *1085:19 *3492:B 13.8 
7 *1085:17 *3550:B1 19.9607 
*END

*D_NET *1086 0.00587176
*CONN
*I *3555:A1 I *D sky130_fd_sc_hd__a21oi_2
*I *3492:A I *D sky130_fd_sc_hd__or4_2
*I *3558:A I *D sky130_fd_sc_hd__and4_2
*I *3556:A I *D sky130_fd_sc_hd__and3_2
*I *3553:A1 I *D sky130_fd_sc_hd__a21oi_2
*I *3554:A1 I *D sky130_fd_sc_hd__o21a_2
*I *4008:Q O *D sky130_fd_sc_hd__dfrtp_2
*CAP
1 *3555:A1 0.000151434
2 *3492:A 0
3 *3558:A 1.88115e-05
4 *3556:A 0.000381451
5 *3553:A1 0.000239885
6 *3554:A1 0.000119626
7 *4008:Q 0.000404491
8 *1086:74 0.000290021
9 *1086:57 0.000289397
10 *1086:36 0.00079245
11 *1086:21 0.000705162
12 *1086:8 0.000710394
13 *3554:A1 *1118:14 5.66971e-05
14 *3492:C *3555:A1 5.33005e-05
15 *3553:A2 *3553:A1 5.52238e-05
16 *3556:B *3556:A 0.000162415
17 *3556:C *3556:A 5.33005e-05
18 *3558:B *3558:A 5.71472e-05
19 *4008:RESET_B *1086:8 4.83905e-05
20 *4009:CLK *3553:A1 7.76485e-05
21 *4009:D *3553:A1 3.18676e-05
22 *4009:D *1086:36 0.000220429
23 *4129:A *1086:8 2.59355e-05
24 *613:82 *1086:21 0
25 *613:97 *1086:21 0
26 *613:97 *1086:36 0
27 *613:103 *3553:A1 0.000221634
28 *655:6 *1086:8 8.43535e-06
29 *655:14 *1086:8 0.000133416
30 *657:23 *1086:21 0
31 *657:23 *1086:36 0
32 *657:23 *1086:74 2.04825e-05
33 *881:23 *3554:A1 5.50052e-05
34 *1072:14 *3555:A1 8.20918e-05
35 *1072:24 *3555:A1 0.000138881
36 *1072:24 *3556:A 5.33005e-05
37 *1072:24 *3558:A 5.52238e-05
38 *1073:10 *1086:36 0.00010326
39 *1073:22 *3556:A 2.66706e-05
40 *1073:22 *1086:36 1.52681e-05
41 *1073:22 *1086:57 1.26144e-05
42 *1073:22 *1086:74 0
*RES
1 *4008:Q *1086:8 18.8536 
2 *1086:8 *3554:A1 15.9786 
3 *1086:8 *1086:21 3.16071 
4 *1086:21 *3553:A1 18.9964 
5 *1086:21 *1086:36 6.65179 
6 *1086:36 *3556:A 19.8089 
7 *1086:36 *1086:57 1.67857 
8 *1086:57 *3558:A 14.6125 
9 *1086:57 *1086:74 6.13393 
10 *1086:74 *3492:A 9.3 
11 *1086:74 *3555:A1 12.8714 
*END

*D_NET *1087 0.00330926
*CONN
*I *4163:A I *D sky130_fd_sc_hd__clkdlybuf4s25_1
*I *4292:A I *D sky130_fd_sc_hd__dlygate4sd3_1
*I *4018:Q O *D sky130_fd_sc_hd__dfrtp_2
*CAP
1 *4163:A 0
2 *4292:A 0.000128257
3 *4018:Q 0.0008059
4 *1087:10 0.000934156
5 *3532:A *1087:10 0
6 *3532:B *1087:10 0
7 *3534:A3 *4292:A 0.000182694
8 *3809:A2 *1087:10 7.08001e-05
9 *4001:RESET_B *1087:10 0.000294422
10 *610:23 *1087:10 0.000280807
11 *882:58 *4292:A 8.14438e-05
12 *882:58 *1087:10 0.00012544
13 *897:60 *4292:A 9.11365e-06
14 *897:60 *1087:10 0.000133447
15 *904:25 *4292:A 0.000180777
16 *904:44 *4292:A 9.25014e-06
17 *1071:64 *4292:A 7.2754e-05
*RES
1 *4018:Q *1087:10 29.7286 
2 *1087:10 *4292:A 17.8179 
3 *1087:10 *4163:A 13.8 
*END

*D_NET *1088 0.00216703
*CONN
*I *3429:B1 I *D sky130_fd_sc_hd__a22o_2
*I *3433:A1 I *D sky130_fd_sc_hd__a22o_2
*I *3931:Q O *D sky130_fd_sc_hd__dfstp_2
*CAP
1 *3429:B1 0
2 *3433:A1 0.000421335
3 *3931:Q 0.00039986
4 *1088:10 0.000821194
5 *3433:A1 *3520:B 0.000155862
6 *1088:10 *1092:10 5.41494e-05
7 *3429:A2 *1088:10 8.15843e-05
8 *3433:A2 *3433:A1 0.000156007
9 *3520:A *3433:A1 5.62995e-05
10 *3931:SET_B *1088:10 0
11 *4316:A *3433:A1 2.07382e-05
12 *898:46 *3433:A1 0
13 *911:30 *3433:A1 0
14 *911:30 *1088:10 0
15 *996:12 *3433:A1 0
*RES
1 *3931:Q *1088:10 21.5679 
2 *1088:10 *3433:A1 21.3179 
3 *1088:10 *3429:B1 13.8 
*END

*D_NET *1089 0.00675656
*CONN
*I *4235:A I *D sky130_fd_sc_hd__dlygate4sd3_1
*I *3625:B I *D sky130_fd_sc_hd__nor3_2
*I *3932:Q O *D sky130_fd_sc_hd__dfrtp_2
*CAP
1 *4235:A 0
2 *3625:B 0.000414459
3 *3932:Q 0.000942879
4 *1089:22 0.00135734
5 *3428:B1 *3625:B 0.00139371
6 *3521:A *3625:B 0.000139087
7 *3783:B1 *1089:22 0.00012401
8 *3932:RESET_B *1089:22 8.00806e-05
9 *3975:D *1089:22 8.3722e-05
10 *3975:RESET_B *1089:22 0.000394099
11 *4083:A *1089:22 5.90443e-06
12 *4099:A *3625:B 0.0011767
13 *4104:A *1089:22 5.52302e-05
14 *360:12 *1089:22 0
15 *360:14 *3625:B 0.000222263
16 *423:38 *1089:22 0.000170654
17 *627:8 *3625:B 9.90367e-05
18 *658:50 *1089:22 4.02462e-05
19 *997:10 *1089:22 5.71472e-05
*RES
1 *3932:Q *1089:22 43.7821 
2 *1089:22 *3625:B 36.9071 
3 *1089:22 *4235:A 9.3 
*END

*D_NET *1090 0.00173464
*CONN
*I *4212:A I *D sky130_fd_sc_hd__dlygate4sd3_1
*I *3933:Q O *D sky130_fd_sc_hd__dfrtp_2
*CAP
1 *4212:A 0.000356294
2 *3933:Q 0.000356294
3 *4212:A *4215:A 0
4 *3780:A2 *4212:A 0
5 *3937:D *4212:A 8.00806e-05
6 *3937:RESET_B *4212:A 0
7 *4216:A *4212:A 0.000316184
8 *423:38 *4212:A 0.000487467
9 *611:8 *4212:A 9.90367e-05
10 *883:122 *4212:A 3.92854e-05
11 *898:102 *4212:A 0
*RES
1 *3933:Q *4212:A 36.85 
*END

*D_NET *1091 0.00156284
*CONN
*I *4192:A I *D sky130_fd_sc_hd__dlygate4sd3_1
*I *3934:Q O *D sky130_fd_sc_hd__dfrtp_2
*CAP
1 *4192:A 0.000388877
2 *3934:Q 0.000388877
3 *3396:A *4192:A 9.41642e-05
4 *3782:B1 *4192:A 0.000315887
5 *3934:CLK *4192:A 6.13757e-06
6 *880:59 *4192:A 0.000368894
*RES
1 *3934:Q *4192:A 35.0821 
*END

*D_NET *1092 0.0021378
*CONN
*I *4232:A I *D sky130_fd_sc_hd__dlygate4sd3_1
*I *3431:B I *D sky130_fd_sc_hd__and2_2
*I *3935:Q O *D sky130_fd_sc_hd__dfrtp_2
*CAP
1 *4232:A 0
2 *3431:B 0.000243595
3 *3935:Q 0.000367113
4 *1092:10 0.000610707
5 *3431:A *3431:B 7.50713e-05
6 *3783:A1 *3431:B 2.44318e-05
7 *3783:A2 *3431:B 0.000136951
8 *3783:B1 *3431:B 9.41642e-05
9 *3935:RESET_B *3431:B 0.000177227
10 *3935:RESET_B *1092:10 0.000128146
11 *4233:A *3431:B 4.59075e-05
12 *898:46 *3431:B 9.82074e-06
13 *911:30 *3431:B 0.000108839
14 *911:30 *1092:10 6.16744e-05
15 *1088:10 *1092:10 5.41494e-05
*RES
1 *3935:Q *1092:10 19.2643 
2 *1092:10 *3431:B 20.6036 
3 *1092:10 *4232:A 13.8 
*END

*D_NET *1093 0.00686073
*CONN
*I *3625:A I *D sky130_fd_sc_hd__nor3_2
*I *3428:A2 I *D sky130_fd_sc_hd__a21o_2
*I *4278:A I *D sky130_fd_sc_hd__dlygate4sd3_1
*I *3520:B I *D sky130_fd_sc_hd__and2_2
*I *3936:Q O *D sky130_fd_sc_hd__dfrtp_2
*CAP
1 *3625:A 3.70923e-05
2 *3428:A2 0.000466779
3 *4278:A 6.1721e-05
4 *3520:B 0.000484832
5 *3936:Q 0.00062181
6 *1093:46 0.000847299
7 *1093:18 0.000743364
8 *1093:12 0.00116205
9 *3428:B1 *3428:A2 0.000741386
10 *3430:A2 *1093:18 2.14658e-05
11 *3433:A1 *3520:B 0.000155862
12 *3433:A2 *3520:B 0.000157936
13 *3433:B1 *3520:B 0.000198078
14 *3625:C *3625:A 0
15 *3625:C *1093:46 0
16 *3931:D *4278:A 3.18676e-05
17 *3934:D *1093:46 0
18 *3936:CLK *1093:12 4.88212e-05
19 *3936:D *1093:46 0.000346639
20 *4120:A *1093:18 0.00010096
21 *4222:A *3520:B 0.000144773
22 *4265:A *3520:B 5.52238e-05
23 *4316:A *3520:B 5.33433e-05
24 *686:10 *1093:46 0
25 *911:42 *4278:A 9.61553e-05
26 *911:42 *1093:18 3.91952e-05
27 *993:14 *3520:B 9.99989e-05
28 *993:14 *1093:12 9.87983e-06
29 *993:14 *1093:18 3.72459e-05
30 *993:14 *1093:46 1.5942e-05
31 *993:23 *1093:46 1.69115e-05
32 *993:46 *3625:A 1.88048e-05
33 *993:46 *1093:46 4.52937e-05
*RES
1 *3936:Q *1093:12 21.3089 
2 *1093:12 *1093:18 8.16964 
3 *1093:18 *3520:B 30.175 
4 *1093:18 *4278:A 11.0679 
5 *1093:12 *1093:46 7.5625 
6 *1093:46 *3428:A2 21.4607 
7 *1093:46 *3625:A 14.5321 
*END

*D_NET *1094 0.00120395
*CONN
*I *4215:A I *D sky130_fd_sc_hd__dlygate4sd3_1
*I *3937:Q O *D sky130_fd_sc_hd__dfrtp_2
*CAP
1 *4215:A 0.00038853
2 *3937:Q 0.00038853
3 *3933:RESET_B *4215:A 5.80217e-05
4 *3937:CLK *4215:A 4.884e-05
5 *4212:A *4215:A 0
6 *4216:A *4215:A 0.000320024
7 *883:103 *4215:A 0
8 *883:122 *4215:A 0
*RES
1 *3937:Q *4215:A 34.6714 
*END

*D_NET *1095 0.000693456
*CONN
*I *4209:A I *D sky130_fd_sc_hd__dlygate4sd3_1
*I *4019:Q O *D sky130_fd_sc_hd__dfrtp_2
*CAP
1 *4209:A 0.000155703
2 *4019:Q 0.000155703
3 *3980:D *4209:A 0.000122446
4 *902:66 *4209:A 0.000138881
5 *991:10 *4209:A 0.000120724
*RES
1 *4019:Q *4209:A 30.6 
*END

*D_NET *1096 0.00476886
*CONN
*I *3421:A_N I *D sky130_fd_sc_hd__and2b_2
*I *3425:A1 I *D sky130_fd_sc_hd__a21oi_2
*I *3423:A I *D sky130_fd_sc_hd__nand2_2
*I *4037:Q O *D sky130_fd_sc_hd__dfrtp_2
*CAP
1 *3421:A_N 6.9642e-05
2 *3425:A1 0
3 *3423:A 0.000470407
4 *4037:Q 0.000208356
5 *1096:29 0.000703521
6 *1096:8 0.00131264
7 *3421:A_N *3421:B 3.18676e-05
8 *3421:A_N *1116:38 2.24195e-05
9 *3423:A *1115:8 4.97918e-05
10 *1096:29 *3425:B1 0.00018372
11 *1096:29 *1116:38 4.35336e-05
12 *3397:B *3423:A 0.000125724
13 *3424:A3 *3423:A 0.000576865
14 *3424:B2 *3423:A 0
15 *3426:C1 *1096:29 2.44318e-05
16 *3431:A *3423:A 0
17 *3521:A *3423:A 0.00010096
18 *3783:B1 *3423:A 4.25427e-05
19 *3930:CLK *1096:8 0
20 *3930:CLK *1096:29 3.23322e-05
21 *3930:D *1096:8 0.000100823
22 *3930:RESET_B *1096:29 0.000221314
23 *4099:A *3423:A 5.33433e-05
24 *4149:A *3423:A 0
25 *4149:A *1096:8 0
26 *688:12 *3423:A 5.24274e-05
27 *889:16 *3423:A 4.97649e-05
28 *911:10 *3423:A 0.000139742
29 *911:10 *1096:8 0.000152685
30 *911:24 *3423:A 0
*RES
1 *4037:Q *1096:8 18.7821 
2 *1096:8 *3423:A 27.1393 
3 *1096:8 *1096:29 14.4107 
4 *1096:29 *3425:A1 9.3 
5 *1096:29 *3421:A_N 10.6571 
*END

*D_NET *1097 0.00510224
*CONN
*I *4283:A I *D sky130_fd_sc_hd__dlygate4sd3_1
*I *3576:B I *D sky130_fd_sc_hd__nand2_2
*I *3500:A I *D sky130_fd_sc_hd__or4b_2
*I *3580:B I *D sky130_fd_sc_hd__and4_2
*I *3578:A2 I *D sky130_fd_sc_hd__a31o_2
*I *3575:B I *D sky130_fd_sc_hd__or2_2
*I *3581:A2 I *D sky130_fd_sc_hd__a31o_2
*I *4021:Q O *D sky130_fd_sc_hd__dfrtp_2
*CAP
1 *4283:A 0.000111793
2 *3576:B 0.000110609
3 *3500:A 8.24449e-05
4 *3580:B 8.38165e-05
5 *3578:A2 0
6 *3575:B 0
7 *3581:A2 0.000256602
8 *4021:Q 8.43071e-05
9 *1097:51 0.000277369
10 *1097:38 0.000117743
11 *1097:18 0.000369737
12 *1097:14 0.000243526
13 *1097:10 0.000445253
14 *1097:8 0.00040699
15 *3500:A *3578:A3 5.33005e-05
16 *3580:B *3578:A3 0.000197984
17 *3580:B *1104:36 3.25078e-05
18 *3581:A2 *3581:A1 3.91385e-05
19 *3581:A2 *3581:B1 6.85372e-06
20 *4283:A *1113:16 0.000139907
21 *1097:14 *3576:A 0
22 *1097:18 *3575:A 9.90431e-05
23 *1097:18 *3578:A3 3.4855e-05
24 *1097:18 *1104:53 0.000260954
25 *1097:38 *3578:A3 3.52408e-05
26 *1097:38 *1104:53 1.06439e-05
27 *1097:51 *3500:D_N 5.33005e-05
28 *1097:51 *3578:A3 0.000207023
29 *1097:51 *1104:51 0.000133029
30 *1097:51 *1104:53 1.89695e-05
31 *3500:C *1097:51 0
32 *3573:A1 *1097:10 0
33 *3578:B1 *1097:10 0.000117144
34 *3578:B1 *1097:14 7.6021e-05
35 *3578:B1 *1097:51 5.71472e-05
36 *3579:A2 *3581:A2 0
37 *3579:B1 *3581:A2 0.000117388
38 *3579:B1 *1097:18 5.41609e-05
39 *3829:B1 *4283:A 0.000139907
40 *4021:RESET_B *4283:A 0
41 *4021:RESET_B *1097:10 0
42 *161:12 *1097:8 4.35421e-05
43 *390:19 *4283:A 0.000171368
44 *390:19 *1097:10 0.000198698
45 *507:16 *3580:B 0.000148903
46 *509:10 *3581:A2 0
47 *901:51 *3580:B 1.08359e-05
48 *903:12 *4283:A 5.41794e-05
*RES
1 *4021:Q *1097:8 15.1571 
2 *1097:8 *1097:10 5.28571 
3 *1097:10 *1097:14 6.75 
4 *1097:14 *1097:18 3.83929 
5 *1097:18 *3581:A2 23.0143 
6 *1097:18 *3575:B 9.3 
7 *1097:14 *1097:38 0.330357 
8 *1097:38 *3578:A2 9.3 
9 *1097:38 *1097:51 4.1875 
10 *1097:51 *3580:B 21.1571 
11 *1097:51 *3500:A 10.6571 
12 *1097:10 *3576:B 15.5679 
13 *1097:8 *4283:A 17.4071 
*END

*D_NET *1098 0.00411464
*CONN
*I *3599:B1 I *D sky130_fd_sc_hd__a21oi_2
*I *3502:D I *D sky130_fd_sc_hd__or4_2
*I *3602:D I *D sky130_fd_sc_hd__and4_2
*I *3600:B I *D sky130_fd_sc_hd__and3_2
*I *4031:Q O *D sky130_fd_sc_hd__dfrtp_2
*CAP
1 *3599:B1 0.000163312
2 *3502:D 2.26546e-05
3 *3602:D 2.50963e-05
4 *3600:B 0.000207763
5 *4031:Q 0.000536106
6 *1098:16 0.000546037
7 *1098:12 0.000397703
8 *1098:8 0.000761289
9 *3502:D *1112:25 5.33005e-05
10 *3599:B1 *3599:A1 5.33005e-05
11 *3599:B1 *1099:14 0.000117903
12 *3600:B *3600:A 1.21258e-05
13 *3602:D *3600:A 1.02504e-05
14 *3602:D *3602:B 1.19402e-05
15 *1098:12 *1099:14 0.0002253
16 *1098:16 *3600:A 1.92905e-05
17 *1098:16 *3602:B 5.52238e-05
18 *1098:16 *3602:C 7.08513e-05
19 *1098:16 *1112:25 9.22103e-06
20 *1098:16 *1112:46 0.000146523
21 *3598:A2 *3502:D 3.69047e-06
22 *3599:A2 *3599:B1 0.000126439
23 *3599:A2 *1098:12 0.000223585
24 *3600:C *3600:B 1.63337e-05
25 *3600:C *3602:D 5.66157e-05
26 *3601:B *3599:B1 5.71472e-05
27 *525:12 *3600:B 0.000185643
28 *609:95 *3602:D 0
*RES
1 *4031:Q *1098:8 19.675 
2 *1098:8 *1098:12 7.35714 
3 *1098:12 *1098:16 6.08929 
4 *1098:16 *3600:B 12.4429 
5 *1098:16 *3602:D 19.0321 
6 *1098:12 *3502:D 9.83571 
7 *1098:8 *3599:B1 17.6214 
*END

*D_NET *1099 0.00292132
*CONN
*I *4247:A I *D sky130_fd_sc_hd__dlygate4sd3_1
*I *3602:C I *D sky130_fd_sc_hd__and4_2
*I *3502:C I *D sky130_fd_sc_hd__or4_2
*I *4032:Q O *D sky130_fd_sc_hd__dfrtp_2
*CAP
1 *4247:A 0
2 *3602:C 0.000202267
3 *3502:C 0
4 *4032:Q 0.000231158
5 *1099:14 0.000487401
6 *1099:8 0.000516291
7 *3602:C *3600:A 1.33343e-05
8 *3602:C *3602:B 3.20633e-05
9 *3602:C *1112:25 5.33005e-05
10 *3602:C *1112:46 0.000269422
11 *1099:14 *3597:A1 9.25014e-06
12 *1099:14 *3599:A1 0.000340781
13 *1099:14 *1112:27 5.41794e-05
14 *3503:B *3602:C 0.000185643
15 *3599:A2 *1099:14 1.3142e-05
16 *3599:B1 *1099:14 0.000117903
17 *4032:CLK *1099:8 9.90367e-05
18 *4032:CLK *1099:14 0
19 *1098:12 *1099:14 0.0002253
20 *1098:16 *3602:C 7.08513e-05
*RES
1 *4032:Q *1099:8 13.1393 
2 *1099:8 *1099:14 16.4107 
3 *1099:14 *3502:C 9.3 
4 *1099:14 *3602:C 14.5143 
5 *1099:8 *4247:A 9.3 
*END

*D_NET *1100 0.00391503
*CONN
*I *3607:A I *D sky130_fd_sc_hd__nand2_2
*I *3609:B I *D sky130_fd_sc_hd__and2_2
*I *3501:B I *D sky130_fd_sc_hd__or4_2
*I *3606:A I *D sky130_fd_sc_hd__or2_2
*I *4033:Q O *D sky130_fd_sc_hd__dfrtp_2
*CAP
1 *3607:A 0.000176659
2 *3609:B 0.000170326
3 *3501:B 0.000152107
4 *3606:A 0
5 *4033:Q 0
6 *1100:34 0.000508829
7 *1100:10 0.000989663
8 *1100:4 0.000999398
9 *3501:B *3501:C 7.77751e-05
10 *3607:A *3604:A 1.61784e-05
11 *3609:B *3604:A 0
12 *1100:34 *3604:A 0
13 *3503:A *3609:B 0.000148189
14 *4033:D *1100:10 6.62752e-05
15 *4033:RESET_B *1100:10 2.51935e-05
16 *4034:CLK *3501:B 9.4724e-05
17 *4034:CLK *1100:10 0.000180022
18 *466:12 *3609:B 2.92543e-05
19 *466:12 *1100:34 1.71615e-05
20 *511:88 *3607:A 3.10819e-05
21 *511:88 *3609:B 2.21934e-05
22 *518:44 *3607:A 2.28598e-05
23 *526:27 *3609:B 1.04707e-05
24 *526:27 *1100:34 8.6229e-06
25 *529:8 *3607:A 9.41642e-05
26 *531:14 *3501:B 0
27 *609:12 *1100:10 5.9025e-05
28 *609:12 *1100:34 1.48591e-05
29 *903:25 *3501:B 0
30 *903:25 *1100:10 0
*RES
1 *4033:Q *1100:4 9.3 
2 *1100:4 *1100:10 15.4107 
3 *1100:10 *3606:A 13.8 
4 *1100:10 *3501:B 16.4964 
5 *1100:4 *1100:34 6.74107 
6 *1100:34 *3609:B 17.4161 
7 *1100:34 *3607:A 16.9875 
*END

*D_NET *1101 0.00221698
*CONN
*I *3609:A I *D sky130_fd_sc_hd__and2_2
*I *4324:A I *D sky130_fd_sc_hd__dlygate4sd3_1
*I *3501:A I *D sky130_fd_sc_hd__or4_2
*I *4034:Q O *D sky130_fd_sc_hd__dfrtp_2
*CAP
1 *3609:A 3.98039e-05
2 *4324:A 0
3 *3501:A 0.000247231
4 *4034:Q 0.000112069
5 *1101:27 0.000108239
6 *1101:10 0.000427734
7 *3353:A *3501:A 5.52302e-05
8 *3606:B *3501:A 0.000393949
9 *3610:D *3501:A 0.000100705
10 *3610:D *1101:27 3.9846e-05
11 *466:12 *3501:A 0
12 *466:12 *1101:10 0
13 *525:12 *3501:A 0
14 *525:12 *3609:A 8.46829e-05
15 *525:12 *1101:27 9.90431e-05
16 *529:8 *3501:A 0.000219711
17 *531:14 *3501:A 9.31893e-05
18 *901:107 *3501:A 0.000195547
19 *901:107 *1101:10 0
*RES
1 *4034:Q *1101:10 20.2464 
2 *1101:10 *3501:A 26.0321 
3 *1101:10 *1101:27 1.76786 
4 *1101:27 *4324:A 9.3 
5 *1101:27 *3609:A 10.2464 
*END

*D_NET *1102 0.00319501
*CONN
*I *3614:A1 I *D sky130_fd_sc_hd__a21oi_2
*I *3501:D I *D sky130_fd_sc_hd__or4_2
*I *3612:A1 I *D sky130_fd_sc_hd__a21oi_2
*I *3613:A1 I *D sky130_fd_sc_hd__o21a_2
*I *3615:A2 I *D sky130_fd_sc_hd__a31o_2
*I *4035:Q O *D sky130_fd_sc_hd__dfrtp_2
*CAP
1 *3614:A1 0.000162917
2 *3501:D 0.000220842
3 *3612:A1 0
4 *3613:A1 9.04592e-05
5 *3615:A2 0.000168072
6 *4035:Q 0.000168072
7 *1102:24 0.000109216
8 *1102:22 0.000464525
9 *1102:18 0.000387843
10 *3501:D *3501:C 0.000314132
11 *3614:A1 *4299:A 0
12 *1102:22 *3501:C 0
13 *1102:22 *4299:A 0
14 *3606:B *3501:D 5.71472e-05
15 *3612:A2 *1102:22 1.59689e-05
16 *3612:B1 *3501:D 5.23057e-05
17 *3613:B1 *3501:D 9.90431e-05
18 *3613:B1 *3613:A1 7.32955e-05
19 *3613:B1 *1102:24 5.52238e-05
20 *3614:A2 *3614:A1 0.000239404
21 *3614:A2 *1102:22 5.83304e-05
22 *3616:A *3614:A1 1.33343e-05
23 *4036:RESET_B *3614:A1 0
24 *531:28 *1102:22 0
25 *531:32 *3615:A2 9.92409e-05
26 *531:38 *1102:22 0.000345639
*RES
1 *4035:Q *3615:A2 20.7786 
2 *4035:Q *1102:18 13.8 
3 *1102:18 *1102:22 10.0893 
4 *1102:22 *1102:24 0.535714 
5 *1102:24 *3613:A1 11.5143 
6 *1102:24 *3612:A1 9.3 
7 *1102:22 *3501:D 14.7643 
8 *1102:18 *3614:A1 17.4071 
*END

*D_NET *1103 0.00219447
*CONN
*I *4299:A I *D sky130_fd_sc_hd__dlygate4sd3_1
*I *3615:A1 I *D sky130_fd_sc_hd__a31o_2
*I *3501:C I *D sky130_fd_sc_hd__or4_2
*I *4036:Q O *D sky130_fd_sc_hd__dfrtp_2
*CAP
1 *4299:A 0.000291789
2 *3615:A1 0
3 *3501:C 0.000220506
4 *4036:Q 0.000148682
5 *1103:21 0.000330898
6 *1103:8 0.000408297
7 *3501:B *3501:C 7.77751e-05
8 *3501:D *3501:C 0.000314132
9 *3606:B *3501:C 2.44318e-05
10 *3612:B1 *3501:C 0.00013168
11 *3614:A1 *4299:A 0
12 *3615:B1 *3501:C 2.58997e-05
13 *3615:B1 *4299:A 1.99099e-05
14 *3615:B1 *1103:21 3.92854e-05
15 *4034:CLK *3501:C 1.69115e-05
16 *4034:CLK *4299:A 1.00375e-05
17 *531:28 *3501:C 4.35131e-05
18 *531:28 *4299:A 2.49484e-05
19 *531:28 *1103:8 3.32631e-05
20 *531:28 *1103:21 3.25078e-05
21 *1102:22 *3501:C 0
22 *1102:22 *4299:A 0
*RES
1 *4036:Q *1103:8 15.5679 
2 *1103:8 *3501:C 20.3714 
3 *1103:8 *1103:21 1.03571 
4 *1103:21 *3615:A1 13.8 
5 *1103:21 *4299:A 19.1393 
*END

*D_NET *1104 0.00495554
*CONN
*I *3578:A1 I *D sky130_fd_sc_hd__a31o_2
*I *3576:A I *D sky130_fd_sc_hd__nand2_2
*I *3575:A I *D sky130_fd_sc_hd__or2_2
*I *3500:D_N I *D sky130_fd_sc_hd__or4b_2
*I *3581:A1 I *D sky130_fd_sc_hd__a31o_2
*I *3580:A I *D sky130_fd_sc_hd__and4_2
*I *4022:Q O *D sky130_fd_sc_hd__dfrtp_2
*CAP
1 *3578:A1 0
2 *3576:A 9.78013e-05
3 *3575:A 0.000152494
4 *3500:D_N 1.69531e-05
5 *3581:A1 0.000157938
6 *3580:A 0
7 *4022:Q 0.000363226
8 *1104:53 0.000456731
9 *1104:51 0.000395542
10 *1104:36 0.00034524
11 *1104:12 0.000157938
12 *1104:10 0.000502405
13 *3500:D_N *3578:A3 5.33005e-05
14 *3581:A1 *3581:A3 0.000305827
15 *3581:A1 *3581:B1 0.00053416
16 *3581:A1 *1105:34 1.04232e-05
17 *1104:10 *3578:A3 4.1331e-06
18 *1104:10 *1105:21 0.000290979
19 *1104:36 *3578:A3 9.10431e-06
20 *3578:B1 *1104:51 5.52302e-05
21 *3580:B *1104:36 3.25078e-05
22 *3581:A2 *3581:A1 3.91385e-05
23 *3582:A_N *1104:10 1.02504e-05
24 *3582:A_N *1104:36 6.81083e-05
25 *3582:C *3581:A1 5.95099e-05
26 *4024:CLK *1104:10 0
27 *4024:D *1104:10 0
28 *4024:RESET_B *1104:10 5.75803e-05
29 *507:16 *1104:36 0.000148903
30 *507:16 *1104:51 5.41794e-05
31 *509:10 *3576:A 0
32 *610:47 *1104:10 0
33 *901:51 *1104:10 0
34 *1097:14 *3576:A 0
35 *1097:18 *3575:A 9.90431e-05
36 *1097:18 *1104:53 0.000260954
37 *1097:38 *1104:53 1.06439e-05
38 *1097:51 *3500:D_N 5.33005e-05
39 *1097:51 *1104:51 0.000133029
40 *1097:51 *1104:53 1.89695e-05
*RES
1 *4022:Q *1104:10 20.5321 
2 *1104:10 *1104:12 4.5 
3 *1104:12 *3580:A 9.3 
4 *1104:12 *3581:A1 16.4786 
5 *1104:10 *1104:36 3.16071 
6 *1104:36 *3500:D_N 14.3357 
7 *1104:36 *1104:51 7.41071 
8 *1104:51 *1104:53 3 
9 *1104:53 *3575:A 11.6214 
10 *1104:53 *3576:A 19.9429 
11 *1104:51 *3578:A1 9.3 
*END

*D_NET *1105 0.00495379
*CONN
*I *3498:A I *D sky130_fd_sc_hd__or4b_2
*I *3578:A3 I *D sky130_fd_sc_hd__a31o_2
*I *3580:C I *D sky130_fd_sc_hd__and4_2
*I *3581:A3 I *D sky130_fd_sc_hd__a31o_2
*I *3349:A I *D sky130_fd_sc_hd__inv_2
*I *4023:Q O *D sky130_fd_sc_hd__dfrtp_2
*CAP
1 *3498:A 0.000342456
2 *3578:A3 0.000281566
3 *3580:C 0
4 *3581:A3 0.000377006
5 *3349:A 8.88135e-05
6 *4023:Q 1.78423e-05
7 *1105:34 0.000689264
8 *1105:21 0.000563093
9 *1105:6 0.000227501
10 *3498:A *3498:D_N 0
11 *3498:A *3581:B1 1.98839e-05
12 *3498:A *1106:12 0.000181803
13 *3581:A3 *3581:B1 8.43535e-06
14 *1105:34 *3581:B1 5.33334e-05
15 *3500:A *3578:A3 5.33005e-05
16 *3500:C *3498:A 0
17 *3500:D_N *3578:A3 5.33005e-05
18 *3577:A *3581:A3 0
19 *3579:A1 *3349:A 3.14078e-05
20 *3579:A1 *1105:6 5.33005e-05
21 *3580:B *3578:A3 0.000197984
22 *3581:A1 *3581:A3 0.000305827
23 *3581:A1 *1105:34 1.04232e-05
24 *3582:C *3581:A3 6.14332e-05
25 *4024:RESET_B *1105:21 0.000106533
26 *4158:A *3349:A 7.32173e-05
27 *4158:A *1105:6 1.00073e-05
28 *511:6 *3498:A 0.000315165
29 *901:51 *3578:A3 0.00022117
30 *901:51 *1105:21 2.83916e-05
31 *1097:18 *3578:A3 3.4855e-05
32 *1097:38 *3578:A3 3.52408e-05
33 *1097:51 *3578:A3 0.000207023
34 *1104:10 *3578:A3 4.1331e-06
35 *1104:10 *1105:21 0.000290979
36 *1104:36 *3578:A3 9.10431e-06
*RES
1 *4023:Q *1105:6 9.83571 
2 *1105:6 *3349:A 11.3893 
3 *1105:6 *1105:21 12.7679 
4 *1105:21 *3581:A3 14.7821 
5 *1105:21 *1105:34 1.375 
6 *1105:34 *3580:C 9.3 
7 *1105:34 *3578:A3 25.8179 
8 *1105:34 *3498:A 25.6929 
*END

*D_NET *1106 0.00282565
*CONN
*I *3498:D_N I *D sky130_fd_sc_hd__or4b_2
*I *3581:B1 I *D sky130_fd_sc_hd__a31o_2
*I *3580:D I *D sky130_fd_sc_hd__and4_2
*I *4024:Q O *D sky130_fd_sc_hd__dfrtp_2
*CAP
1 *3498:D_N 0.000164822
2 *3581:B1 0.00023272
3 *3580:D 0
4 *4024:Q 9.01003e-05
5 *1106:12 0.000293525
6 *1106:8 0.000315727
7 *3498:A *3498:D_N 0
8 *3498:A *3581:B1 1.98839e-05
9 *3498:A *1106:12 0.000181803
10 *3577:A *3581:B1 0.000426877
11 *3581:A1 *3581:B1 0.00053416
12 *3581:A2 *3581:B1 6.85372e-06
13 *3581:A3 *3581:B1 8.43535e-06
14 *3582:A_N *3581:B1 0.000219711
15 *3582:A_N *1106:12 4.43256e-05
16 *3582:B *3581:B1 2.44318e-05
17 *460:10 *3498:D_N 8.28014e-05
18 *460:10 *1106:8 5.41797e-05
19 *507:16 *3581:B1 6.27058e-05
20 *662:33 *1106:8 9.25014e-06
21 *1105:34 *3581:B1 5.33334e-05
*RES
1 *4024:Q *1106:8 15.4429 
2 *1106:8 *1106:12 6.26786 
3 *1106:12 *3580:D 9.3 
4 *1106:12 *3581:B1 18.0857 
5 *1106:8 *3498:D_N 17.3179 
*END

*D_NET *1107 0.0050764
*CONN
*I *3591:A I *D sky130_fd_sc_hd__and4_2
*I *3583:A I *D sky130_fd_sc_hd__nand2_2
*I *3586:A I *D sky130_fd_sc_hd__and3_2
*I *3584:A I *D sky130_fd_sc_hd__or2_2
*I *3350:A I *D sky130_fd_sc_hd__inv_2
*I *3499:B I *D sky130_fd_sc_hd__and2b_2
*I *4025:Q O *D sky130_fd_sc_hd__dfrtp_2
*CAP
1 *3591:A 0.000273153
2 *3583:A 0
3 *3586:A 9.56144e-05
4 *3584:A 0.000108935
5 *3350:A 9.62835e-06
6 *3499:B 0.000106352
7 *4025:Q 0.000450731
8 *1107:60 0.000380959
9 *1107:36 0.000252617
10 *1107:34 0.000303887
11 *1107:12 0.00011598
12 *1107:10 0.000598744
13 *3591:A *3351:A 0.000151333
14 *3591:A *3591:B 2.04866e-05
15 *3591:A *1109:14 2.89016e-05
16 *3591:A *1109:46 0.000204349
17 *1107:10 *1109:46 0
18 *1107:34 *1109:46 0
19 *3497:A2 *3499:B 2.27304e-05
20 *3497:A2 *1107:10 5.85042e-05
21 *3499:A_N *3350:A 4.27935e-05
22 *3499:A_N *3499:B 9.90367e-05
23 *3500:C *1107:34 0
24 *3585:A *3586:A 0.000220455
25 *3585:A *1107:34 0
26 *3585:C *3584:A 5.33005e-05
27 *3585:C *1107:36 8.66063e-05
28 *3586:C *1107:34 0
29 *3587:A1 *3586:A 0
30 *3587:A1 *1107:34 0.000148189
31 *3587:A2 *3586:A 0.00012501
32 *3587:A2 *1107:36 3.18676e-05
33 *3587:C1 *3586:A 4.1331e-06
34 *3589:B *3591:A 0.000355352
35 *4025:D *3591:A 3.18676e-05
36 *4025:D *1107:60 2.42662e-05
37 *4025:RESET_B *1107:10 1.76135e-05
38 *4027:D *3591:A 0.0001278
39 *511:15 *3584:A 1.58163e-05
40 *511:34 *3584:A 1.39841e-05
41 *511:34 *1107:36 4.10304e-05
42 *511:34 *1107:60 7.29416e-05
43 *511:50 *3586:A 0
44 *513:6 *1107:36 4.58976e-05
45 *513:6 *1107:60 7.02611e-05
46 *662:33 *1107:10 3.23275e-05
47 *901:32 *3350:A 5.52302e-05
48 *901:32 *3499:B 0.00017772
*RES
1 *4025:Q *1107:10 20.2643 
2 *1107:10 *1107:12 4.5 
3 *1107:12 *3499:B 12.3357 
4 *1107:12 *3350:A 9.83571 
5 *1107:10 *1107:34 7.05357 
6 *1107:34 *1107:36 1.76786 
7 *1107:36 *3584:A 11.0857 
8 *1107:36 *3586:A 21.1571 
9 *1107:34 *1107:60 2.60714 
10 *1107:60 *3583:A 9.3 
11 *1107:60 *3591:A 26.4786 
*END

*D_NET *1108 0.0063264
*CONN
*I *3591:B I *D sky130_fd_sc_hd__and4_2
*I *3351:A I *D sky130_fd_sc_hd__inv_2
*I *3586:B I *D sky130_fd_sc_hd__and3_2
*I *3498:B I *D sky130_fd_sc_hd__or4b_2
*I *4026:Q O *D sky130_fd_sc_hd__dfrtp_2
*CAP
1 *3591:B 0.000477415
2 *3351:A 0.00014595
3 *3586:B 0
4 *3498:B 0.00030232
5 *4026:Q 0.000771145
6 *1108:22 0.000623365
7 *1108:8 0.000711753
8 *1108:6 0.00118058
9 *3351:A *1109:46 5.44074e-05
10 *3498:B *3498:C 0.000104611
11 *3591:B *1109:14 7.32272e-05
12 *3591:B *1109:16 6.05161e-06
13 *1108:6 *1110:14 9.66073e-06
14 *3352:A *3591:B 2.39923e-05
15 *3500:C *3498:B 2.65105e-05
16 *3589:B *3591:B 0.00045825
17 *3589:B *1108:6 6.05161e-06
18 *3589:B *1108:8 6.42095e-05
19 *3591:A *3351:A 0.000151333
20 *3591:A *3591:B 2.04866e-05
21 *4025:CLK *3591:B 0
22 *4025:D *3351:A 0.00012401
23 *4026:CLK *3351:A 9.27278e-05
24 *4026:CLK *3591:B 5.83304e-05
25 *4026:D *1108:6 5.12966e-05
26 *4027:CLK *3591:B 2.62349e-05
27 *511:50 *3591:B 0.000176879
28 *515:8 *3498:B 9.60875e-05
29 *515:8 *1108:8 0.000432883
30 *609:54 *3591:B 1.4133e-06
31 *901:32 *3351:A 5.52238e-05
*RES
1 *4026:Q *1108:6 18.05 
2 *1108:6 *1108:8 5.46429 
3 *1108:8 *3498:B 13.5321 
4 *1108:8 *3586:B 9.3 
5 *1108:6 *1108:22 4.5 
6 *1108:22 *3351:A 18.4071 
7 *1108:22 *3591:B 29.329 
*END

*D_NET *1109 0.00876262
*CONN
*I *3589:A I *D sky130_fd_sc_hd__or2_2
*I *3495:A_N I *D sky130_fd_sc_hd__and2b_2
*I *3496:B I *D sky130_fd_sc_hd__and2b_2
*I *3591:C I *D sky130_fd_sc_hd__and4_2
*I *3588:A I *D sky130_fd_sc_hd__nand2_2
*I *4027:Q O *D sky130_fd_sc_hd__dfrtp_2
*CAP
1 *3589:A 0.000194358
2 *3495:A_N 2.46036e-05
3 *3496:B 0.000209439
4 *3591:C 0
5 *3588:A 0.000267228
6 *4027:Q 0.000682964
7 *1109:46 0.000964686
8 *1109:40 0.000925002
9 *1109:16 0.000290196
10 *1109:14 0.000705932
11 *3589:A *1110:33 2.39948e-05
12 *1109:46 *1110:33 0.000109952
13 *3351:A *1109:46 5.44074e-05
14 *3352:A *3588:A 0.000178847
15 *3352:A *3589:A 0.00012401
16 *3352:A *1109:14 4.08637e-05
17 *3352:A *1109:16 4.08637e-05
18 *3352:A *1109:46 3.17148e-05
19 *3355:A *3495:A_N 9.60939e-05
20 *3486:A *3496:B 0.000200413
21 *3497:B1 *1109:46 0.000164959
22 *3497:C1 *3496:B 0.000130264
23 *3497:C1 *1109:46 1.31516e-05
24 *3499:A_N *1109:46 0.00033396
25 *3585:A *3588:A 2.89016e-05
26 *3587:A1 *1109:46 3.52655e-05
27 *3587:C1 *3588:A 0.000196269
28 *3589:B *1109:46 0
29 *3590:B *3588:A 9.47613e-05
30 *3590:C *3588:A 9.42111e-05
31 *3591:A *1109:14 2.89016e-05
32 *3591:A *1109:46 0.000204349
33 *3591:B *1109:14 7.32272e-05
34 *3591:B *1109:16 6.05161e-06
35 *3593:A2 *3588:A 3.18676e-05
36 *3593:B1 *3588:A 1.02504e-05
37 *3808:B1 *3496:B 0
38 *4025:D *1109:46 0
39 *4025:RESET_B *1109:46 0
40 *4027:CLK *1109:14 3.4148e-05
41 *4027:D *3588:A 5.30637e-06
42 *4027:D *1109:46 0.000129386
43 *507:56 *3588:A 7.61932e-05
44 *511:50 *1109:46 0.000461799
45 *511:65 *3589:A 0.000132442
46 *518:12 *3588:A 0.000137983
47 *518:12 *3589:A 0.000102545
48 *518:12 *1109:16 1.24368e-05
49 *518:27 *3589:A 0.000249493
50 *660:31 *3496:B 0
51 *886:16 *3495:A_N 9.60939e-05
52 *1068:19 *3496:B 0.000257542
53 *1068:19 *1109:46 0.000388139
54 *1069:18 *3496:B 6.71547e-05
55 *1107:10 *1109:46 0
56 *1107:34 *1109:46 0
*RES
1 *4027:Q *1109:14 20.6929 
2 *1109:14 *1109:16 0.535714 
3 *1109:16 *3588:A 26.05 
4 *1109:16 *3591:C 9.3 
5 *1109:14 *1109:40 4.5 
6 *1109:40 *1109:46 19.9107 
7 *1109:46 *3496:B 20.2286 
8 *1109:46 *3495:A_N 14.7464 
9 *1109:40 *3589:A 19.3179 
*END

*D_NET *1110 0.0050782
*CONN
*I *4312:A I *D sky130_fd_sc_hd__dlygate4sd3_1
*I *3591:D I *D sky130_fd_sc_hd__and4_2
*I *3498:C I *D sky130_fd_sc_hd__or4b_2
*I *4028:Q O *D sky130_fd_sc_hd__dfrtp_2
*CAP
1 *4312:A 0.000227668
2 *3591:D 0
3 *3498:C 0.00033208
4 *4028:Q 0.000627226
5 *1110:33 0.000414754
6 *1110:14 0.00114639
7 *3498:B *3498:C 0.000104611
8 *3500:C *3498:C 0.000318101
9 *3587:C1 *3498:C 0.000142856
10 *3587:C1 *1110:14 5.67737e-05
11 *3587:C1 *1110:33 4.8476e-05
12 *3589:A *1110:33 2.39948e-05
13 *3592:A1 *4312:A 0.000136887
14 *4025:CLK *1110:14 3.92854e-05
15 *4026:D *1110:14 0.00030926
16 *4028:D *1110:33 0.000101545
17 *4028:RESET_B *1110:14 5.048e-05
18 *511:50 *4312:A 0.000181381
19 *511:50 *1110:33 0.000207501
20 *515:8 *3498:C 0.000140518
21 *518:12 *4312:A 0.000102545
22 *518:12 *1110:33 1.02504e-05
23 *518:27 *4312:A 2.31791e-05
24 *609:43 *4312:A 0.000119618
25 *609:43 *1110:33 9.32062e-05
26 *1108:6 *1110:14 9.66073e-06
27 *1109:46 *1110:33 0.000109952
*RES
1 *4028:Q *1110:14 26.5679 
2 *1110:14 *3498:C 16.8536 
3 *1110:14 *1110:33 10.1429 
4 *1110:33 *3591:D 13.8 
5 *1110:33 *4312:A 19.2643 
*END

*D_NET *1111 0.00436467
*CONN
*I *3502:B I *D sky130_fd_sc_hd__or4_2
*I *3602:B I *D sky130_fd_sc_hd__and4_2
*I *3594:B1 I *D sky130_fd_sc_hd__a21oi_2
*I *3595:A I *D sky130_fd_sc_hd__and3_2
*I *4029:Q O *D sky130_fd_sc_hd__dfrtp_2
*CAP
1 *3502:B 6.26494e-05
2 *3602:B 0.000174046
3 *3594:B1 0.00016301
4 *3595:A 0.000251071
5 *4029:Q 0.000457597
6 *1111:19 0.000337057
7 *1111:8 0.00053424
8 *1111:6 0.000803416
9 *3502:B *3597:A1 0.000106552
10 *3602:B *3600:A 3.36025e-05
11 *3596:B *3594:B1 0.000150847
12 *3596:B *3602:B 2.72545e-05
13 *3597:A2 *3502:B 8.15095e-05
14 *3601:A *3602:B 0
15 *3602:C *3602:B 3.20633e-05
16 *3602:D *3602:B 1.19402e-05
17 *3838:B1 *1111:6 3.32631e-05
18 *4029:D *1111:8 0.00018372
19 *511:82 *3594:B1 0.000338867
20 *511:82 *3602:B 0.000128875
21 *518:27 *3594:B1 4.6025e-06
22 *521:14 *3595:A 7.79521e-05
23 *521:33 *3595:A 3.07455e-05
24 *521:42 *3595:A 1.92789e-05
25 *521:42 *1111:6 1.58163e-05
26 *521:42 *1111:8 7.31062e-05
27 *521:55 *3502:B 0.00011891
28 *609:43 *3594:B1 0
29 *609:95 *3602:B 5.74562e-05
30 *1098:16 *3602:B 5.52238e-05
*RES
1 *4029:Q *1111:6 14.3536 
2 *1111:6 *1111:8 3.82143 
3 *1111:8 *3595:A 12.7286 
4 *1111:8 *1111:19 4.5 
5 *1111:19 *3594:B1 18.175 
6 *1111:19 *3602:B 18.2286 
7 *1111:6 *3502:B 20.8536 
*END

*D_NET *1112 0.00562255
*CONN
*I *3599:A1 I *D sky130_fd_sc_hd__a21oi_2
*I *3502:A I *D sky130_fd_sc_hd__or4_2
*I *3602:A I *D sky130_fd_sc_hd__and4_2
*I *3600:A I *D sky130_fd_sc_hd__and3_2
*I *3597:A1 I *D sky130_fd_sc_hd__a21oi_2
*I *3598:A1 I *D sky130_fd_sc_hd__o21a_2
*I *4030:Q O *D sky130_fd_sc_hd__dfrtp_2
*CAP
1 *3599:A1 0.000209842
2 *3502:A 0
3 *3602:A 0
4 *3600:A 0.000284152
5 *3597:A1 0.000425224
6 *3598:A1 0
7 *4030:Q 0.000354893
8 *1112:46 0.000340049
9 *1112:44 5.58972e-05
10 *1112:27 0.000458302
11 *1112:25 0.000607592
12 *1112:14 0.000719564
13 *3502:B *3597:A1 0.000106552
14 *3502:D *1112:25 5.33005e-05
15 *3597:A2 *3597:A1 0.000108046
16 *3598:A2 *1112:25 7.28183e-05
17 *3598:B1 *3597:A1 0
18 *3598:B1 *1112:14 0
19 *3599:A2 *3597:A1 1.40849e-05
20 *3599:A2 *1112:14 0
21 *3599:B1 *3599:A1 5.33005e-05
22 *3600:B *3600:A 1.21258e-05
23 *3600:C *3600:A 0.000139907
24 *3602:B *3600:A 3.36025e-05
25 *3602:C *3600:A 1.33343e-05
26 *3602:C *1112:25 5.33005e-05
27 *3602:C *1112:46 0.000269422
28 *3602:D *3600:A 1.02504e-05
29 *4029:RESET_B *1112:14 0.000127439
30 *4030:RESET_B *1112:14 9.1677e-05
31 *4032:CLK *3599:A1 0
32 *511:82 *3597:A1 0
33 *521:55 *3597:A1 7.79781e-06
34 *609:86 *3597:A1 0
35 *609:95 *3597:A1 0
36 *609:95 *3599:A1 0
37 *609:95 *3600:A 2.04825e-05
38 *661:53 *3597:A1 5.71472e-05
39 *661:83 *1112:14 0.000150618
40 *661:94 *1112:14 0.000192585
41 *1098:16 *3600:A 1.92905e-05
42 *1098:16 *1112:25 9.22103e-06
43 *1098:16 *1112:46 0.000146523
44 *1099:14 *3597:A1 9.25014e-06
45 *1099:14 *3599:A1 0.000340781
46 *1099:14 *1112:27 5.41794e-05
*RES
1 *4030:Q *1112:14 25.3893 
2 *1112:14 *3598:A1 9.3 
3 *1112:14 *1112:25 9.46429 
4 *1112:25 *1112:27 0.732143 
5 *1112:27 *3597:A1 22.7107 
6 *1112:27 *1112:44 4.5 
7 *1112:44 *1112:46 2.58929 
8 *1112:46 *3600:A 22.8179 
9 *1112:46 *3602:A 9.3 
10 *1112:44 *3502:A 9.3 
11 *1112:25 *3599:A1 18.7107 
*END

*D_NET *1113 0.00463023
*CONN
*I *3604:A I *D sky130_fd_sc_hd__nor2_2
*I *4162:A I *D sky130_fd_sc_hd__clkdlybuf4s25_1
*I *4039:Q O *D sky130_fd_sc_hd__dfrtp_2
*CAP
1 *3604:A 0.000858538
2 *4162:A 0
3 *4039:Q 0.000310676
4 *1113:16 0.00116921
5 *3604:B *3604:A 7.03856e-05
6 *3607:A *3604:A 1.61784e-05
7 *3609:B *3604:A 0
8 *3829:A1 *1113:16 0.000318107
9 *3829:A2 *1113:16 2.44318e-05
10 *3829:B1 *3604:A 9.47613e-05
11 *3829:B1 *1113:16 0.000380797
12 *3842:B1 *3604:A 7.43578e-06
13 *3842:B1 *1113:16 0.000729012
14 *4081:A *3604:A 0
15 *4283:A *1113:16 0.000139907
16 *466:12 *3604:A 0
17 *511:88 *3604:A 9.80394e-05
18 *518:35 *3604:A 0
19 *526:27 *3604:A 2.27062e-05
20 *885:50 *1113:16 6.8646e-06
21 *899:60 *1113:16 6.74911e-05
22 *899:68 *1113:16 0
23 *903:6 *3604:A 4.70078e-05
24 *903:78 *3604:A 0.000268682
25 *1100:34 *3604:A 0
*RES
1 *4039:Q *1113:16 30.675 
2 *1113:16 *4162:A 9.3 
3 *1113:16 *3604:A 35.6571 
*END

*D_NET *1114 0.00392089
*CONN
*I *3422:A2_N I *D sky130_fd_sc_hd__o2bb2a_2
*I *3425:B1 I *D sky130_fd_sc_hd__a21oi_2
*I *3426:A2 I *D sky130_fd_sc_hd__a211oi_2
*I *3424:B1 I *D sky130_fd_sc_hd__a32o_2
*I *3928:Q O *D sky130_fd_sc_hd__dfstp_2
*CAP
1 *3422:A2_N 0.00019385
2 *3425:B1 6.32155e-05
3 *3426:A2 0.000163026
4 *3424:B1 9.57995e-05
5 *3928:Q 0
6 *1114:36 0.000555611
7 *1114:15 0.000598595
8 *1114:4 0.000232824
9 *3424:B1 *3517:B 2.24195e-05
10 *3425:B1 *1116:38 1.98839e-05
11 *1114:15 *3517:B 4.87854e-05
12 *1114:15 *1116:12 9.0145e-05
13 *1114:36 *1116:12 0.000471762
14 *3424:A1 *3424:B1 2.44318e-05
15 *3424:A2 *3424:B1 9.90367e-05
16 *3424:B2 *3426:A2 5.52238e-05
17 *3426:C1 *3425:B1 5.52302e-05
18 *3426:C1 *1114:36 1.41029e-05
19 *3517:A *3424:B1 2.28589e-05
20 *3778:B1 *3422:A2_N 0.000136951
21 *3928:SET_B *1114:36 5.83304e-05
22 *3930:RESET_B *3422:A2_N 0
23 *105:21 *3422:A2_N 0.000148189
24 *105:21 *1114:36 0.000172051
25 *607:12 *3426:A2 0.000114829
26 *607:16 *3426:A2 7.50697e-05
27 *658:114 *3426:A2 0.000192204
28 *688:12 *3424:B1 0
29 *885:28 *1114:36 0
30 *911:24 *3424:B1 1.2747e-05
31 *1096:29 *3425:B1 0.00018372
*RES
1 *3928:Q *1114:4 9.3 
2 *1114:4 *3424:B1 11.5857 
3 *1114:4 *1114:15 2.58929 
4 *1114:15 *3426:A2 23.5143 
5 *1114:15 *1114:36 12.6071 
6 *1114:36 *3425:B1 15.5679 
7 *1114:36 *3422:A2_N 17.1036 
*END

*D_NET *1115 0.00134461
*CONN
*I *4194:A I *D sky130_fd_sc_hd__dlygate4sd3_1
*I *4328:A I *D sky130_fd_sc_hd__dlygate4sd3_1
*I *3929:Q O *D sky130_fd_sc_hd__dfrtp_2
*CAP
1 *4194:A 3.59657e-05
2 *4328:A 0.000117852
3 *3929:Q 0.000128948
4 *1115:8 0.000282766
5 *4328:A *3423:B 0.000196269
6 *1115:8 *3423:B 0.000126439
7 *3423:A *1115:8 4.97918e-05
8 *3424:A3 *4328:A 0.000105582
9 *3424:A3 *1115:8 8.89289e-05
10 *3424:B2 *4328:A 9.41642e-05
11 *4149:A *1115:8 0.00010209
12 *105:8 *4194:A 1.58163e-05
*RES
1 *3929:Q *1115:8 17.8714 
2 *1115:8 *4328:A 17.3 
3 *1115:8 *4194:A 14.3357 
*END

*D_NET *1116 0.00562017
*CONN
*I *3421:B I *D sky130_fd_sc_hd__and2b_2
*I *3425:A2 I *D sky130_fd_sc_hd__a21oi_2
*I *3423:B I *D sky130_fd_sc_hd__nand2_2
*I *3517:B I *D sky130_fd_sc_hd__nor2_2
*I *3930:Q O *D sky130_fd_sc_hd__dfrtp_2
*CAP
1 *3421:B 0.000108204
2 *3425:A2 2.23854e-05
3 *3423:B 0.000184455
4 *3517:B 0.000515208
5 *3930:Q 0
6 *1116:38 0.000424613
7 *1116:12 0.00118191
8 *1116:4 0.000776267
9 *3421:A_N *3421:B 3.18676e-05
10 *3421:A_N *1116:38 2.24195e-05
11 *3424:A2 *3517:B 4.43256e-05
12 *3424:A3 *3423:B 7.44824e-05
13 *3424:B1 *3517:B 2.24195e-05
14 *3425:B1 *1116:38 1.98839e-05
15 *3426:C1 *1116:12 0.00039299
16 *3426:C1 *1116:38 9.90431e-05
17 *3431:A *3423:B 7.83587e-05
18 *3517:A *3517:B 0.000173163
19 *3928:SET_B *1116:12 2.49484e-05
20 *4149:A *3423:B 0.00044629
21 *4328:A *3423:B 0.000196269
22 *688:12 *3517:B 0
23 *1096:29 *1116:38 4.35336e-05
24 *1114:15 *3517:B 4.87854e-05
25 *1114:15 *1116:12 9.0145e-05
26 *1114:36 *1116:12 0.000471762
27 *1115:8 *3423:B 0.000126439
*RES
1 *3930:Q *1116:4 9.3 
2 *1116:4 *1116:12 18.625 
3 *1116:12 *3517:B 16.3357 
4 *1116:12 *3423:B 25.1036 
5 *1116:4 *1116:38 3.83929 
6 *1116:38 *3425:A2 9.72857 
7 *1116:38 *3421:B 11.0679 
*END

*D_NET *1117 0.000805452
*CONN
*I *4176:A I *D sky130_fd_sc_hd__dlygate4sd3_1
*I *4047:Q O *D sky130_fd_sc_hd__dfrtp_2
*CAP
1 *4176:A 0.000340038
2 *4047:Q 0.000340038
3 *4047:D *4176:A 9.15842e-06
4 *4130:A *4176:A 3.11088e-05
5 *4180:A *4176:A 6.02658e-05
6 *656:10 *4176:A 2.48421e-05
*RES
1 *4047:Q *4176:A 33.8857 
*END

*D_NET *1118 0.00214504
*CONN
*I *4184:A I *D sky130_fd_sc_hd__dlygate4sd3_1
*I *3356:A I *D sky130_fd_sc_hd__inv_2
*I *4048:Q O *D sky130_fd_sc_hd__dfrtp_2
*CAP
1 *4184:A 0.000115048
2 *3356:A 2.13113e-05
3 *4048:Q 0.000454635
4 *1118:14 0.000590994
5 *3554:A1 *1118:14 5.66971e-05
6 *3554:A2 *1118:14 5.50052e-05
7 *4009:RESET_B *1118:14 0
8 *4048:CLK *1118:14 2.89114e-05
9 *4148:A *4184:A 0.000348865
10 *4246:A *1118:14 0
11 *656:10 *1118:14 7.74135e-05
12 *657:23 *1118:14 0
13 *881:23 *4184:A 2.38501e-05
14 *881:23 *1118:14 4.51234e-05
15 *896:31 *4184:A 0.000253901
16 *896:31 *1118:14 7.32884e-05
*RES
1 *4048:Q *1118:14 26.6929 
2 *1118:14 *3356:A 9.72857 
3 *1118:14 *4184:A 13.1214 
*END

*D_NET *1119 0.00156333
*CONN
*I *4161:A I *D sky130_fd_sc_hd__clkdlybuf4s25_1
*I *4046:Q O *D sky130_fd_sc_hd__dfrtp_2
*CAP
1 *4161:A 0.000408551
2 *4046:Q 0.000408551
3 *828:42 *4161:A 0.000701409
4 *910:20 *4161:A 0
5 *1072:10 *4161:A 4.48206e-05
*RES
1 *4046:Q *4161:A 37.475 
*END
